# vtk DataFile Version 2.0
Test
ASCII
DATASET UNSTRUCTURED_GRID
POINTS 1812 float
4.302411e+01 3.355092e+02 -2.551255e+02
4.410494e+01 4.023812e+02 -2.489135e+02
6.086041e+01 4.155242e+02 -1.713160e+02
6.086094e+01 3.075254e+02 -1.677417e+02
4.400978e+01 3.355434e+02 -2.552907e+02
4.508716e+01 4.023290e+02 -2.490938e+02
6.157550e+01 4.152837e+02 -1.719723e+02
6.157497e+01 3.076699e+02 -1.684268e+02
1.414658e+01 3.236755e+02 -5.284918e+02
2.411862e+01 2.334404e+02 -5.164111e+02
2.146945e+01 2.359706e+02 -5.747418e+02
8.972524e+00 3.594791e+02 -6.258994e+02
1.514247e+01 3.237494e+02 -5.285442e+02
2.509829e+01 2.336347e+02 -5.164609e+02
2.244822e+01 2.361744e+02 -5.747636e+02
9.971201e+00 3.595232e+02 -6.259258e+02
6.403073e+00 4.502059e+02 -7.246987e+02
8.861762e+00 4.868125e+02 -6.324904e+02
9.715160e+00 4.371743e+02 -5.567893e+02
7.400000e+00 4.501276e+02 -7.246974e+02
9.857582e+00 4.867220e+02 -6.325029e+02
1.071339e+01 4.371363e+02 -5.568352e+02
6.091603e+01 7.082595e+02 -8.358051e+02
6.091269e+01 6.846827e+02 -7.090553e+02
1.653224e+01 5.781081e+02 -7.296752e+02
1.545987e+01 5.910899e+02 -8.680538e+02
6.151988e+01 7.074706e+02 -8.359197e+02
6.152323e+01 6.839084e+02 -7.092220e+02
1.750127e+01 5.778632e+02 -7.297063e+02
1.644419e+01 5.909145e+02 -8.680730e+02
2.119970e+01 5.652642e+02 -6.175256e+02
6.091610e+01 6.556286e+02 -5.955594e+02
2.216330e+01 5.650027e+02 -6.175813e+02
6.151981e+01 6.548614e+02 -5.957760e+02
6.092188e+01 7.219329e+02 -9.635008e+02
2.363081e+01 6.427953e+02 -9.843526e+02
6.151404e+01 7.211298e+02 -9.635671e+02
2.460230e+01 6.425583e+02 -9.843465e+02
3.304044e+01 3.825954e+02 -1.092163e+03
3.785179e+01 4.102873e+02 -1.143340e+03
2.822119e+01 4.955442e+02 -1.090006e+03
1.894944e+01 4.627537e+02 -9.855399e+02
3.403409e+01 3.826336e+02 -1.092057e+03
3.884457e+01 4.103248e+02 -1.143226e+03
2.921481e+01 4.955667e+02 -1.089896e+03
1.994704e+01 4.627821e+02 -9.854767e+02
4.002259e+01 6.568711e+02 -1.216935e+03
2.995980e+01 6.608398e+02 -1.096133e+03
2.765253e+01 5.964421e+02 -1.106961e+03
3.945789e+01 5.482363e+02 -1.196324e+03
4.101474e+01 6.567552e+02 -1.216888e+03
3.094398e+01 6.606641e+02 -1.096110e+03
2.864921e+01 5.964352e+02 -1.106879e+03
4.044965e+01 5.482595e+02 -1.196198e+03
6.090439e+01 5.702080e+02 -3.579349e+02
6.088208e+01 5.072399e+02 -2.435704e+02
3.519214e+01 4.399856e+02 -3.134615e+02
2.622188e+01 4.805239e+02 -4.087676e+02
6.153153e+01 5.695035e+02 -3.582671e+02
6.155384e+01 5.066713e+02 -2.440452e+02
3.617302e+01 4.398665e+02 -3.136153e+02
2.719841e+01 4.803436e+02 -4.088854e+02
1.685618e+01 3.704846e+02 -4.542574e+02
2.282552e+01 5.272275e+02 -5.110962e+02
1.785252e+01 3.705024e+02 -4.543410e+02
2.379539e+01 5.270028e+02 -5.111904e+02
2.929933e+01 3.516969e+02 -3.428550e+02
3.029117e+01 3.517188e+02 -3.429806e+02
2.837866e+01 2.428510e+02 -4.300948e+02
3.652952e+01 2.544929e+02 -3.369879e+02
2.935863e+01 2.430274e+02 -4.301870e+02
3.751254e+01 2.546390e+02 -3.370990e+02
6.089102e+01 1.610602e+02 -3.074071e+02
6.090875e+01 1.308950e+02 -4.165045e+02
6.154489e+01 1.617582e+02 -3.076991e+02
6.152717e+01 1.316551e+02 -4.167040e+02
6.082943e+01 1.068919e+02 -5.293103e+02
6.160648e+01 1.075100e+02 -5.294290e+02
6.074086e+01 1.091533e+02 -5.835982e+02
6.169506e+01 1.094510e+02 -5.836286e+02
9.868509e+00 4.863862e+02 -8.537739e+02
1.086821e+01 4.863663e+02 -8.537883e+02
4.742523e+01 4.300928e+02 -1.222156e+03
6.072177e+01 4.284524e+02 -1.313100e+03
6.072148e+01 5.515058e+02 -1.328676e+03
4.841664e+01 4.301238e+02 -1.222029e+03
6.171414e+01 4.284721e+02 -1.312978e+03
6.171443e+01 5.515262e+02 -1.328560e+03
6.071796e+01 1.361236e+02 -1.276028e+03
6.071849e+01 2.871073e+02 -1.295167e+03
5.183933e+01 3.002655e+02 -1.223566e+03
6.071911e+01 1.315153e+02 -1.157681e+03
6.171796e+01 1.361235e+02 -1.276029e+03
6.171742e+01 2.871131e+02 -1.295121e+03
5.283508e+01 3.003027e+02 -1.223482e+03
6.171680e+01 1.315611e+02 -1.157630e+03
6.071896e+01 6.555145e+02 -1.341796e+03
6.171695e+01 6.554591e+02 -1.341766e+03
6.088585e+01 7.373210e+02 -1.208597e+03
6.081265e+01 7.629522e+02 -1.355269e+03
6.155006e+01 7.365788e+02 -1.208687e+03
6.162326e+01 7.623897e+02 -1.355432e+03
6.090319e+01 7.287788e+02 -1.081719e+03
6.153272e+01 7.280034e+02 -1.081767e+03
1.632136e+01 5.342229e+02 -9.698861e+02
1.732052e+01 5.342211e+02 -9.698452e+02
2.144151e+01 5.663724e+02 -1.037510e+03
2.243856e+01 5.663532e+02 -1.037436e+03
4.634634e+01 3.131481e+02 -1.181095e+03
4.733887e+01 3.132082e+02 -1.180989e+03
6.091277e+01 6.164122e+02 -4.734637e+02
6.152314e+01 6.156668e+02 -4.737317e+02
4.463128e+01 2.687711e+02 -2.690260e+02
4.561604e+01 2.688812e+02 -2.691607e+02
4.596146e+01 2.646231e+02 -1.155028e+03
4.695390e+01 2.646924e+02 -1.154926e+03
6.086212e+01 2.123292e+02 -2.128546e+02
6.157379e+01 2.128141e+02 -2.133629e+02
6.083006e+01 6.498554e+02 -1.470349e+03
6.071799e+01 7.619104e+02 -1.492289e+03
6.182910e+01 6.498992e+02 -1.470350e+03
6.171792e+01 7.619074e+02 -1.492301e+03
8.115928e+01 5.350073e+02 -1.454215e+03
8.215722e+01 5.350341e+02 -1.454157e+03
6.900081e+01 4.105517e+02 -1.439152e+03
6.999742e+01 4.105211e+02 -1.439076e+03
6.046609e+01 2.760957e+02 -1.425447e+03
6.146587e+01 2.760823e+02 -1.425431e+03
6.071796e+01 1.359795e+02 -1.414860e+03
6.171796e+01 1.359802e+02 -1.414862e+03
6.094672e+01 6.455991e+02 -1.591936e+03
6.071910e+01 7.612401e+02 -1.606435e+03
6.194128e+01 6.457033e+02 -1.591939e+03
6.171682e+01 7.613075e+02 -1.606435e+03
9.019345e+01 5.265143e+02 -1.578359e+03
9.119240e+01 5.265544e+02 -1.578337e+03
6.885592e+01 4.013963e+02 -1.565160e+03
6.985104e+01 4.013005e+02 -1.565137e+03
6.022664e+01 2.702567e+02 -1.554268e+03
6.122616e+01 2.702257e+02 -1.554269e+03
6.071796e+01 1.358421e+02 -1.546637e+03
6.171795e+01 1.358447e+02 -1.546639e+03
6.101586e+01 6.428070e+02 -1.710413e+03
6.072047e+01 7.606161e+02 -1.715650e+03
6.200820e+01 6.429306e+02 -1.710415e+03
6.171544e+01 7.607162e+02 -1.715651e+03
9.181947e+01 5.227346e+02 -1.702073e+03
9.281887e+01 5.227689e+02 -1.702068e+03
6.783336e+01 3.967114e+02 -1.690732e+03
6.882617e+01 3.965917e+02 -1.690726e+03
6.011453e+01 2.671404e+02 -1.681695e+03
6.111410e+01 2.671110e+02 -1.681697e+03
6.071796e+01 1.357081e+02 -1.675351e+03
6.171795e+01 1.357122e+02 -1.675352e+03
6.106032e+01 6.408874e+02 -1.829576e+03
6.072146e+01 7.599786e+02 -1.828600e+03
6.205218e+01 6.410147e+02 -1.829578e+03
6.171446e+01 7.600967e+02 -1.828601e+03
9.271815e+01 5.192264e+02 -1.824344e+03
9.371772e+01 5.192559e+02 -1.824342e+03
6.717787e+01 3.937436e+02 -1.815698e+03
6.816998e+01 3.936183e+02 -1.815695e+03
6.005058e+01 2.652861e+02 -1.808339e+03
6.105023e+01 2.652598e+02 -1.808341e+03
6.071796e+01 1.355757e+02 -1.802892e+03
6.171795e+01 1.355805e+02 -1.802893e+03
6.109939e+01 6.392203e+02 -1.950487e+03
6.072155e+01 7.593216e+02 -1.946538e+03
6.209104e+01 6.393492e+02 -1.950489e+03
6.171436e+01 7.594413e+02 -1.946539e+03
9.293161e+01 5.179993e+02 -1.949350e+03
9.393126e+01 5.180261e+02 -1.949349e+03
6.685182e+01 3.920231e+02 -1.941332e+03
6.784360e+01 3.918952e+02 -1.941331e+03
6.001227e+01 2.641277e+02 -1.934922e+03
6.101196e+01 2.641031e+02 -1.934923e+03
6.071796e+01 1.354437e+02 -1.930137e+03
6.171795e+01 1.354490e+02 -1.930138e+03
6.111835e+01 6.381330e+02 -2.075112e+03
6.072143e+01 7.586400e+02 -2.069203e+03
6.210987e+01 6.382629e+02 -2.075113e+03
6.171448e+01 7.587577e+02 -2.069204e+03
9.323127e+01 5.164383e+02 -2.074469e+03
9.423094e+01 5.164640e+02 -2.074468e+03
6.661325e+01 3.906386e+02 -2.067245e+03
6.760489e+01 3.905096e+02 -2.067243e+03
5.998511e+01 2.632565e+02 -2.061482e+03
6.098483e+01 2.632329e+02 -2.061482e+03
6.071796e+01 1.353119e+02 -2.057244e+03
6.171795e+01 1.353175e+02 -2.057244e+03
6.114182e+01 6.369319e+02 -2.202985e+03
6.072116e+01 7.579086e+02 -2.201065e+03
6.213326e+01 6.370625e+02 -2.202986e+03
6.171475e+01 7.580217e+02 -2.201066e+03
9.366481e+01 5.143269e+02 -2.199456e+03
9.466452e+01 5.143506e+02 -2.199454e+03
6.637821e+01 3.892438e+02 -2.193051e+03
6.736960e+01 3.891129e+02 -2.193049e+03
5.996078e+01 2.624653e+02 -2.187779e+03
6.096053e+01 2.624426e+02 -2.187780e+03
6.071797e+01 1.351806e+02 -2.184010e+03
6.171795e+01 1.351864e+02 -2.184011e+03
6.114507e+01 6.362408e+02 -2.334149e+03
6.072012e+01 7.571364e+02 -2.341664e+03
6.213645e+01 6.363718e+02 -2.334150e+03
6.171580e+01 7.572292e+02 -2.341661e+03
9.389594e+01 5.129430e+02 -2.325950e+03
9.489570e+01 5.129645e+02 -2.325949e+03
6.619139e+01 3.880430e+02 -2.318768e+03
6.718254e+01 3.879102e+02 -2.318767e+03
5.993918e+01 2.617465e+02 -2.313612e+03
6.093894e+01 2.617245e+02 -2.313612e+03
6.071797e+01 1.350499e+02 -2.310176e+03
6.171795e+01 1.350559e+02 -2.310176e+03
6.116089e+01 6.352130e+02 -2.459258e+03
6.071935e+01 7.564525e+02 -2.466221e+03
6.215227e+01 6.353441e+02 -2.459259e+03
6.171656e+01 7.565270e+02 -2.466216e+03
9.395291e+01 5.116621e+02 -2.450524e+03
9.495271e+01 5.116820e+02 -2.450527e+03
6.600370e+01 3.869239e+02 -2.443432e+03
6.699471e+01 3.867901e+02 -2.443435e+03
5.992244e+01 2.610707e+02 -2.438629e+03
6.092221e+01 2.610493e+02 -2.438630e+03
6.071797e+01 1.349200e+02 -2.435554e+03
6.171795e+01 1.349262e+02 -2.435554e+03
6.117640e+01 6.336365e+02 -2.580573e+03
6.071921e+01 7.557648e+02 -2.590165e+03
6.216815e+01 6.337647e+02 -2.580575e+03
6.171670e+01 7.558355e+02 -2.590162e+03
9.238486e+01 5.102936e+02 -2.572889e+03
9.338459e+01 5.103116e+02 -2.572904e+03
6.557812e+01 3.858261e+02 -2.566761e+03
6.656928e+01 3.856944e+02 -2.566777e+03
5.994607e+01 2.604244e+02 -2.562701e+03
6.094586e+01 2.604042e+02 -2.562703e+03
6.071797e+01 1.347910e+02 -2.560122e+03
6.171795e+01 1.347972e+02 -2.560121e+03
6.111616e+01 6.324799e+02 -2.698932e+03
6.071914e+01 7.551266e+02 -2.705112e+03
6.210953e+01 6.325948e+02 -2.698934e+03
6.171677e+01 7.551945e+02 -2.705102e+03
8.699187e+01 5.090786e+02 -2.693444e+03
8.799120e+01 5.090936e+02 -2.693477e+03
6.463090e+01 3.848279e+02 -2.688922e+03
6.562316e+01 3.847091e+02 -2.688959e+03
6.006723e+01 2.598390e+02 -2.685911e+03
6.106706e+01 2.598214e+02 -2.685915e+03
6.071797e+01 1.346630e+02 -2.683961e+03
6.171795e+01 1.346687e+02 -2.683959e+03
6.096755e+01 6.315468e+02 -2.815960e+03
6.071901e+01 7.545002e+02 -2.818546e+03
6.196398e+01 6.316312e+02 -2.815961e+03
6.171691e+01 7.545585e+02 -2.818517e+03
7.666890e+01 5.080856e+02 -2.813029e+03
7.766783e+01 5.080961e+02 -2.813074e+03
6.303946e+01 3.840022e+02 -2.810336e+03
6.403439e+01 3.839148e+02 -2.810386e+03
6.031930e+01 2.593539e+02 -2.808473e+03
6.131920e+01 2.593413e+02 -2.808479e+03
6.071796e+01 1.345362e+02 -2.807210e+03
6.171795e+01 1.345404e+02 -2.807208e+03
6.079951e+01 6.308265e+02 -2.933065e+03
6.071916e+01 7.538863e+02 -2.931213e+03
6.179861e+01 6.308688e+02 -2.933066e+03
6.171675e+01 7.539188e+02 -2.931151e+03
6.579388e+01 5.073663e+02 -2.932502e+03
6.679329e+01 5.073715e+02 -2.932536e+03
6.144559e+01 3.834073e+02 -2.931452e+03
6.244392e+01 3.833635e+02 -2.931490e+03
6.059125e+01 2.590013e+02 -2.930630e+03
6.159122e+01 2.589952e+02 -2.930634e+03
6.071796e+01 1.344101e+02 -2.930024e+03
6.171795e+01 1.344122e+02 -2.930023e+03
6.071806e+01 6.303873e+02 -3.052590e+03
6.071974e+01 7.532197e+02 -3.052640e+03
6.171785e+01 6.304079e+02 -3.052590e+03
6.171617e+01 7.532341e+02 -3.052557e+03
6.071807e+01 5.070323e+02 -3.052571e+03
6.171784e+01 5.070349e+02 -3.052593e+03
6.071821e+01 3.831609e+02 -3.052561e+03
6.171770e+01 3.831397e+02 -3.052585e+03
6.071796e+01 2.588483e+02 -3.052563e+03
6.171795e+01 2.588453e+02 -3.052566e+03
6.071796e+01 1.342838e+02 -3.052557e+03
6.171796e+01 1.342848e+02 -3.052556e+03
1.037389e+02 1.177768e+03 -2.303373e+03
4.396359e+01 1.042153e+03 -2.325032e+03
4.949668e+01 1.048768e+03 -2.459435e+03
1.131015e+02 1.184231e+03 -2.434492e+03
1.043138e+02 1.176950e+03 -2.303381e+03
4.494093e+01 1.041947e+03 -2.324982e+03
5.046731e+01 1.048530e+03 -2.459405e+03
1.136732e+02 1.183411e+03 -2.434483e+03
3.915363e+01 8.977003e+02 -2.333586e+03
4.005200e+01 9.036300e+02 -2.468476e+03
4.014882e+01 8.977954e+02 -2.333562e+03
4.105070e+01 9.036773e+02 -2.468457e+03
5.183000e+01 1.050207e+03 -2.576903e+03
1.145203e+02 1.182769e+03 -2.552861e+03
5.279688e+01 1.049952e+03 -2.576892e+03
1.150879e+02 1.181946e+03 -2.552829e+03
4.014383e+01 9.059943e+02 -2.588756e+03
4.114329e+01 9.060265e+02 -2.588749e+03
5.138786e+01 1.047589e+03 -2.686708e+03
1.121341e+02 1.174358e+03 -2.673140e+03
5.235384e+01 1.047330e+03 -2.686699e+03
1.127005e+02 1.173537e+03 -2.673076e+03
4.098274e+01 9.057266e+02 -2.699277e+03
4.198231e+01 9.057545e+02 -2.699269e+03
5.018136e+01 1.040908e+03 -2.796017e+03
1.094915e+02 1.160571e+03 -2.793084e+03
5.114892e+01 1.040656e+03 -2.795999e+03
1.100547e+02 1.159751e+03 -2.792987e+03
4.506358e+01 9.028797e+02 -2.807382e+03
4.606281e+01 9.029094e+02 -2.807356e+03
4.937194e+01 1.029536e+03 -2.912487e+03
1.070087e+02 1.142388e+03 -2.913507e+03
5.033758e+01 1.029300e+03 -2.912378e+03
1.075684e+02 1.141569e+03 -2.913383e+03
5.459404e+01 8.964592e+02 -2.918883e+03
5.558371e+01 8.964875e+02 -2.918743e+03
9.048537e+01 1.007536e+03 -3.034411e+03
1.040072e+02 1.121694e+03 -3.026191e+03
9.144024e+01 1.007312e+03 -3.034216e+03
1.045654e+02 1.120876e+03 -3.026056e+03
7.590535e+01 8.828766e+02 -3.043392e+03
7.687542e+01 8.829017e+02 -3.043151e+03
5.267084e+01 8.080232e+02 -1.612472e+03
5.682315e+01 8.017582e+02 -1.529853e+03
5.366180e+01 8.081557e+02 -1.612492e+03
5.781956e+01 8.017066e+02 -1.529920e+03
4.684347e+01 8.208592e+02 -1.702620e+03
4.782388e+01 8.210557e+02 -1.702634e+03
4.155805e+01 8.378320e+02 -1.803846e+03
4.253442e+01 8.380480e+02 -1.803851e+03
3.799881e+01 8.555781e+02 -1.914959e+03
3.897813e+01 8.557804e+02 -1.914963e+03
3.434706e+01 8.699176e+02 -2.027197e+03
3.533030e+01 8.700999e+02 -2.027200e+03
3.328893e+01 8.846063e+02 -2.179585e+03
3.427708e+01 8.847594e+02 -2.179574e+03
4.341585e+01 8.591581e+02 -1.611093e+03
5.280108e+01 8.385803e+02 -1.551164e+03
4.439656e+01 8.590534e+02 -1.611258e+03
5.377438e+01 8.384138e+02 -1.551322e+03
3.124699e+01 8.939682e+02 -1.687523e+03
3.222763e+01 8.938649e+02 -1.687689e+03
2.444055e+01 9.277488e+02 -1.761749e+03
2.542459e+01 9.276331e+02 -1.761884e+03
2.089437e+01 9.723512e+02 -1.859533e+03
2.188285e+01 9.722363e+02 -1.859632e+03
1.811480e+01 1.006923e+03 -1.967970e+03
1.910567e+01 1.006794e+03 -1.968011e+03
2.498458e+01 1.027527e+03 -2.158035e+03
2.597002e+01 1.027359e+03 -2.158008e+03
8.506251e+01 1.162533e+03 -2.162110e+03
8.563709e+01 1.161716e+03 -2.162164e+03
6.092511e+01 1.140731e+03 -2.027320e+03
6.151080e+01 1.139951e+03 -2.027540e+03
6.093467e+01 1.064922e+03 -1.876772e+03
6.150125e+01 1.064185e+03 -1.877141e+03
6.094546e+01 1.004379e+03 -1.761900e+03
6.149045e+01 1.003650e+03 -1.762314e+03
6.094279e+01 9.500318e+02 -1.669852e+03
6.149313e+01 9.493371e+02 -1.670315e+03
6.092727e+01 8.969615e+02 -1.591803e+03
6.150864e+01 8.963054e+02 -1.592284e+03
6.090674e+01 8.492943e+02 -1.524444e+03
6.152917e+01 8.486491e+02 -1.524887e+03
6.087931e+01 8.060377e+02 -1.456261e+03
6.155660e+01 8.053887e+02 -1.456608e+03
1.714106e+03 7.291168e+02 -1.088323e+03
1.714110e+03 7.390233e+02 -1.225223e+03
1.733845e+03 6.529918e+02 -1.225957e+03
1.746400e+03 6.331526e+02 -1.108952e+03
1.713459e+03 7.283566e+02 -1.088384e+03
1.713454e+03 7.382744e+02 -1.225318e+03
1.732854e+03 6.528680e+02 -1.225904e+03
1.745410e+03 6.330163e+02 -1.108920e+03
1.741956e+03 3.825796e+02 -1.092186e+03
1.742956e+03 4.829958e+02 -1.119827e+03
1.728855e+03 4.358815e+02 -1.214307e+03
1.729037e+03 2.646180e+02 -1.155038e+03
1.740964e+03 3.826102e+02 -1.092066e+03
1.741963e+03 4.830217e+02 -1.119710e+03
1.727863e+03 4.359086e+02 -1.214181e+03
1.728045e+03 2.646728e+02 -1.154923e+03
1.758637e+03 5.763877e+02 -7.264551e+02
1.760206e+03 5.856305e+02 -8.514190e+02
1.765128e+03 4.864111e+02 -8.538472e+02
1.768597e+03 4.502240e+02 -7.247390e+02
1.757665e+03 5.761619e+02 -7.265135e+02
1.759225e+03 5.854368e+02 -8.514289e+02
1.764131e+03 4.863460e+02 -8.538174e+02
1.767599e+03 4.501720e+02 -7.247693e+02
1.766032e+03 3.595475e+02 -6.259453e+02
1.765699e+03 4.262127e+02 -5.616284e+02
1.766553e+03 4.820731e+02 -6.350598e+02
1.765032e+03 3.595814e+02 -6.259673e+02
1.764702e+03 4.261793e+02 -5.616868e+02
1.765557e+03 4.820022e+02 -6.351050e+02
1.754380e+03 5.627825e+02 -6.175634e+02
1.753048e+03 5.237186e+02 -5.125361e+02
1.753411e+03 5.625521e+02 -6.176495e+02
1.752077e+03 5.235154e+02 -5.126571e+02
1.748374e+03 3.531833e+02 -3.636669e+02
1.741400e+03 4.399997e+02 -3.235533e+02
1.749920e+03 4.797037e+02 -4.168822e+02
1.759476e+03 3.575985e+02 -4.767503e+02
1.747381e+03 3.532014e+02 -3.637856e+02
1.740417e+03 4.398943e+02 -3.237017e+02
1.748942e+03 4.795404e+02 -4.170162e+02
1.758480e+03 3.576235e+02 -4.768324e+02
1.714086e+03 6.839361e+02 -7.057306e+02
1.714089e+03 6.552922e+02 -5.944050e+02
1.713478e+03 6.831614e+02 -7.059032e+02
1.713475e+03 6.545362e+02 -5.946317e+02
1.756109e+03 5.746685e+02 -1.001836e+03
1.756046e+03 4.627614e+02 -9.855926e+02
1.755116e+03 5.745571e+02 -1.001794e+03
1.755051e+03 4.627446e+02 -9.854946e+02
1.714279e+03 4.284548e+02 -1.313098e+03
1.730314e+03 5.529322e+02 -1.232710e+03
1.714279e+03 5.515086e+02 -1.328677e+03
1.713286e+03 4.284697e+02 -1.312980e+03
1.729324e+03 5.529572e+02 -1.232572e+03
1.713286e+03 5.515234e+02 -1.328559e+03
1.714281e+03 2.753686e+02 -1.293695e+03
1.713284e+03 2.754007e+02 -1.293624e+03
1.714281e+03 1.360967e+02 -1.276057e+03
1.714276e+03 1.314846e+02 -1.157712e+03
1.713284e+03 1.361504e+02 -1.276001e+03
1.713288e+03 1.315918e+02 -1.157599e+03
1.714102e+03 5.704090e+02 -3.583918e+02
1.714121e+03 5.087081e+02 -2.456394e+02
1.713463e+03 5.697187e+02 -3.587316e+02
1.713443e+03 5.081488e+02 -2.461153e+02
1.714096e+03 6.161654e+02 -4.727943e+02
1.713468e+03 6.154409e+02 -4.730770e+02
1.753550e+03 2.360840e+02 -5.747529e+02
1.752562e+03 2.362365e+02 -5.747792e+02
1.714169e+03 1.068879e+02 -5.293181e+02
1.745299e+03 2.098783e+02 -4.956903e+02
1.714261e+03 1.091593e+02 -5.836189e+02
1.713396e+03 1.075140e+02 -5.294212e+02
1.744322e+03 2.100878e+02 -4.957392e+02
1.713303e+03 1.094450e+02 -5.836079e+02
1.714083e+03 1.314674e+02 -4.141386e+02
1.714104e+03 1.602728e+02 -3.098510e+02
1.730339e+03 2.073028e+02 -3.287936e+02
1.737397e+03 2.028562e+02 -4.066685e+02
1.713481e+03 1.322432e+02 -4.143270e+02
1.713460e+03 1.609813e+02 -3.101392e+02
1.729367e+03 2.075079e+02 -3.289076e+02
1.736427e+03 2.030844e+02 -4.067526e+02
1.745882e+03 2.784223e+02 -3.804442e+02
1.733799e+03 2.611822e+02 -2.966559e+02
1.744892e+03 2.785232e+02 -3.805476e+02
1.732815e+03 2.612919e+02 -2.967998e+02
1.752939e+03 2.862871e+02 -4.505848e+02
1.751947e+03 2.863858e+02 -4.506653e+02
1.732630e+03 4.006957e+02 -2.581319e+02
1.734284e+03 3.326840e+02 -2.694450e+02
1.714138e+03 3.113906e+02 -1.670124e+02
1.714140e+03 4.165682e+02 -1.716458e+02
1.731648e+03 4.006633e+02 -2.583155e+02
1.733300e+03 3.327198e+02 -2.696156e+02
1.713427e+03 3.115380e+02 -1.677001e+02
1.713424e+03 4.163395e+02 -1.723051e+02
1.714136e+03 2.056115e+02 -2.197090e+02
1.713429e+03 2.060949e+02 -2.202251e+02
1.714097e+03 7.073397e+02 -8.296968e+02
1.713467e+03 7.065715e+02 -8.298124e+02
1.714109e+03 7.218311e+02 -9.624469e+02
1.713455e+03 7.210783e+02 -9.625217e+02
1.714281e+03 6.547856e+02 -1.341705e+03
1.713283e+03 6.547349e+02 -1.341673e+03
1.714202e+03 7.629311e+02 -1.355272e+03
1.713362e+03 7.624109e+02 -1.355429e+03
1.741361e+03 5.540222e+02 -1.153892e+03
1.740368e+03 5.540455e+02 -1.153780e+03
1.714281e+03 7.618714e+02 -1.493102e+03
1.714166e+03 6.495914e+02 -1.470750e+03
1.713283e+03 7.619374e+02 -1.493112e+03
1.713167e+03 6.496354e+02 -1.470751e+03
1.714280e+03 7.612212e+02 -1.606855e+03
1.714052e+03 6.455560e+02 -1.592720e+03
1.713285e+03 7.613216e+02 -1.606872e+03
1.713058e+03 6.456606e+02 -1.592722e+03
1.714278e+03 7.605948e+02 -1.717657e+03
1.714021e+03 6.440458e+02 -1.713656e+03
1.713286e+03 7.607150e+02 -1.717667e+03
1.713029e+03 6.441688e+02 -1.713657e+03
1.714279e+03 7.599763e+02 -1.828883e+03
1.713971e+03 6.418396e+02 -1.831735e+03
1.713286e+03 7.600958e+02 -1.828884e+03
1.712979e+03 6.419657e+02 -1.831737e+03
1.714279e+03 7.593341e+02 -1.944515e+03
1.713924e+03 6.398593e+02 -1.951529e+03
1.713286e+03 7.594512e+02 -1.944514e+03
1.712932e+03 6.399873e+02 -1.951531e+03
1.714279e+03 7.586288e+02 -2.071697e+03
1.713910e+03 6.388793e+02 -2.077728e+03
1.713285e+03 7.587412e+02 -2.071694e+03
1.712918e+03 6.390084e+02 -2.077729e+03
1.714280e+03 7.579125e+02 -2.202296e+03
1.713866e+03 6.371404e+02 -2.203964e+03
1.713284e+03 7.580041e+02 -2.202280e+03
1.712875e+03 6.372704e+02 -2.203965e+03
1.714281e+03 7.571530e+02 -2.340088e+03
1.713865e+03 6.364943e+02 -2.334105e+03
1.713284e+03 7.572302e+02 -2.340076e+03
1.712873e+03 6.366251e+02 -2.334106e+03
1.714281e+03 7.564502e+02 -2.466617e+03
1.713843e+03 6.353125e+02 -2.458661e+03
1.713283e+03 7.565249e+02 -2.466618e+03
1.712852e+03 6.354434e+02 -2.458662e+03
1.714281e+03 7.557894e+02 -2.585725e+03
1.713838e+03 6.340068e+02 -2.579072e+03
1.713283e+03 7.558601e+02 -2.585726e+03
1.712846e+03 6.341348e+02 -2.579074e+03
1.714281e+03 7.551540e+02 -2.700133e+03
1.713885e+03 6.325868e+02 -2.696407e+03
1.713283e+03 7.552223e+02 -2.700133e+03
1.712891e+03 6.327018e+02 -2.696409e+03
1.714281e+03 7.545263e+02 -2.813678e+03
1.714029e+03 6.315823e+02 -2.813557e+03
1.713283e+03 7.545865e+02 -2.813678e+03
1.713033e+03 6.316671e+02 -2.813559e+03
1.714282e+03 7.538904e+02 -2.929980e+03
1.714199e+03 6.308453e+02 -2.931998e+03
1.713282e+03 7.539281e+02 -2.929980e+03
1.713200e+03 6.308881e+02 -2.931998e+03
1.714282e+03 7.532161e+02 -3.052599e+03
1.714282e+03 6.304107e+02 -3.052590e+03
1.713282e+03 7.532378e+02 -3.052599e+03
1.713282e+03 6.304315e+02 -3.052590e+03
1.693699e+03 5.346296e+02 -1.454580e+03
1.692701e+03 5.346558e+02 -1.454522e+03
1.684718e+03 5.262846e+02 -1.579230e+03
1.683719e+03 5.263239e+02 -1.579208e+03
1.683111e+03 5.225004e+02 -1.703594e+03
1.682111e+03 5.225336e+02 -1.703588e+03
1.682449e+03 5.198035e+02 -1.826476e+03
1.681449e+03 5.198322e+02 -1.826475e+03
1.682487e+03 5.194632e+02 -1.952402e+03
1.681488e+03 5.194910e+02 -1.952403e+03
1.682401e+03 5.186856e+02 -2.079561e+03
1.681401e+03 5.187143e+02 -2.079559e+03
1.681607e+03 5.153566e+02 -2.201882e+03
1.680607e+03 5.153830e+02 -2.201878e+03
1.681220e+03 5.134005e+02 -2.326557e+03
1.680220e+03 5.134232e+02 -2.326556e+03
1.681093e+03 5.118607e+02 -2.450146e+03
1.680093e+03 5.118810e+02 -2.450149e+03
1.682624e+03 5.104607e+02 -2.571874e+03
1.681624e+03 5.104788e+02 -2.571889e+03
1.687924e+03 5.091591e+02 -2.692000e+03
1.686925e+03 5.091742e+02 -2.692033e+03
1.698201e+03 5.081244e+02 -2.811667e+03
1.697202e+03 5.081350e+02 -2.811712e+03
1.709150e+03 5.073904e+02 -2.931753e+03
1.708151e+03 5.073957e+02 -2.931786e+03
1.714282e+03 5.070469e+02 -3.052571e+03
1.713282e+03 5.070495e+02 -3.052593e+03
1.706254e+03 4.094392e+02 -1.439743e+03
1.705257e+03 4.094083e+02 -1.439667e+03
1.706319e+03 4.007439e+02 -1.566381e+03
1.705324e+03 4.006479e+02 -1.566358e+03
1.707207e+03 3.965511e+02 -1.692446e+03
1.706214e+03 3.964311e+02 -1.692441e+03
1.707755e+03 3.940129e+02 -1.817631e+03
1.706763e+03 3.938877e+02 -1.817629e+03
1.707988e+03 3.926921e+02 -1.943454e+03
1.706996e+03 3.925657e+02 -1.943454e+03
1.708161e+03 3.916049e+02 -2.069595e+03
1.707169e+03 3.914789e+02 -2.069592e+03
1.708474e+03 3.898957e+02 -2.194215e+03
1.707483e+03 3.897674e+02 -2.194211e+03
1.708730e+03 3.884028e+02 -2.318722e+03
1.707738e+03 3.882711e+02 -2.318721e+03
1.708958e+03 3.871044e+02 -2.442615e+03
1.707967e+03 3.869710e+02 -2.442618e+03
1.709396e+03 3.859341e+02 -2.565559e+03
1.708405e+03 3.858025e+02 -2.565575e+03
1.710347e+03 3.848898e+02 -2.687657e+03
1.709355e+03 3.847708e+02 -2.687693e+03
1.711942e+03 3.840401e+02 -2.809238e+03
1.710947e+03 3.839523e+02 -2.809288e+03
1.713547e+03 3.834275e+02 -2.930814e+03
1.712549e+03 3.833833e+02 -2.930852e+03
1.714282e+03 3.831603e+02 -3.052561e+03
1.713282e+03 3.831390e+02 -3.052585e+03
1.714610e+03 2.726133e+02 -1.426121e+03
1.713610e+03 2.726006e+02 -1.426105e+03
1.714812e+03 2.691416e+02 -1.555507e+03
1.713812e+03 2.691117e+02 -1.555508e+03
1.714897e+03 2.668496e+02 -1.682440e+03
1.713897e+03 2.668207e+02 -1.682442e+03
1.714947e+03 2.653356e+02 -1.808321e+03
1.713948e+03 2.653092e+02 -1.808322e+03
1.714977e+03 2.643782e+02 -1.934440e+03
1.713977e+03 2.643532e+02 -1.934441e+03
1.714999e+03 2.636296e+02 -2.060555e+03
1.713999e+03 2.636053e+02 -2.060555e+03
1.715026e+03 2.627671e+02 -2.186029e+03
1.714026e+03 2.627437e+02 -2.186030e+03
1.715052e+03 2.619379e+02 -2.311074e+03
1.714053e+03 2.619155e+02 -2.311075e+03
1.715073e+03 2.611783e+02 -2.435735e+03
1.714073e+03 2.611567e+02 -2.435736e+03
1.715053e+03 2.604878e+02 -2.560049e+03
1.714053e+03 2.604674e+02 -2.560052e+03
1.714935e+03 2.598777e+02 -2.684007e+03
1.713935e+03 2.598600e+02 -2.684011e+03
1.714683e+03 2.593783e+02 -2.807143e+03
1.713684e+03 2.593656e+02 -2.807148e+03
1.714410e+03 2.590099e+02 -2.929883e+03
1.713410e+03 2.590036e+02 -2.929887e+03
1.714282e+03 2.588366e+02 -3.052563e+03
1.713282e+03 2.588336e+02 -3.052566e+03
1.714282e+03 1.359776e+02 -1.416501e+03
1.713282e+03 1.359786e+02 -1.416503e+03
1.714282e+03 1.358403e+02 -1.548073e+03
1.713282e+03 1.358434e+02 -1.548075e+03
1.714282e+03 1.357096e+02 -1.673763e+03
1.713282e+03 1.357139e+02 -1.673764e+03
1.714282e+03 1.355797e+02 -1.798984e+03
1.713282e+03 1.355846e+02 -1.798984e+03
1.714282e+03 1.354484e+02 -1.925663e+03
1.713282e+03 1.354536e+02 -1.925664e+03
1.714282e+03 1.353173e+02 -2.052107e+03
1.713282e+03 1.353228e+02 -2.052107e+03
1.714282e+03 1.351867e+02 -2.178193e+03
1.713282e+03 1.351924e+02 -2.178193e+03
1.714282e+03 1.350566e+02 -2.303748e+03
1.713282e+03 1.350625e+02 -2.303748e+03
1.714282e+03 1.349265e+02 -2.429244e+03
1.713282e+03 1.349327e+02 -2.429244e+03
1.714282e+03 1.347962e+02 -2.555068e+03
1.713282e+03 1.348024e+02 -2.555068e+03
1.714282e+03 1.346656e+02 -2.681452e+03
1.713282e+03 1.346713e+02 -2.681450e+03
1.714282e+03 1.345378e+02 -2.805592e+03
1.713282e+03 1.345421e+02 -2.805590e+03
1.714282e+03 1.344111e+02 -2.929002e+03
1.713282e+03 1.344133e+02 -2.929000e+03
1.714282e+03 1.342838e+02 -3.052557e+03
1.713282e+03 1.342848e+02 -3.052556e+03
2.222582e+02 1.172707e+03 -2.159543e+03
2.072602e+02 1.150469e+03 -2.022390e+03
2.223307e+02 1.171717e+03 -2.159668e+03
2.073331e+02 1.149518e+03 -2.022690e+03
2.354128e+02 1.187687e+03 -2.295029e+03
2.354889e+02 1.186692e+03 -2.295102e+03
2.426195e+02 1.194588e+03 -2.422818e+03
2.426975e+02 1.193592e+03 -2.422836e+03
2.438507e+02 1.193820e+03 -2.542444e+03
2.439295e+02 1.192824e+03 -2.542406e+03
2.419590e+02 1.186367e+03 -2.660796e+03
2.420390e+02 1.185374e+03 -2.660710e+03
2.399116e+02 1.173432e+03 -2.781455e+03
2.399940e+02 1.172444e+03 -2.781329e+03
2.384346e+02 1.155855e+03 -2.904586e+03
2.385206e+02 1.154871e+03 -2.904427e+03
2.370544e+02 1.134115e+03 -3.027736e+03
2.371425e+02 1.133134e+03 -3.027561e+03
3.569000e+02 1.182354e+03 -2.154953e+03
3.462017e+02 1.159650e+03 -2.017740e+03
3.569724e+02 1.181366e+03 -2.155083e+03
3.462745e+02 1.158699e+03 -2.018038e+03
3.664713e+02 1.197566e+03 -2.288268e+03
3.665475e+02 1.196572e+03 -2.288346e+03
3.718777e+02 1.204871e+03 -2.414493e+03
3.719562e+02 1.203874e+03 -2.414516e+03
3.728226e+02 1.204641e+03 -2.534258e+03
3.729021e+02 1.203645e+03 -2.534226e+03
3.713466e+02 1.197824e+03 -2.652701e+03
3.714273e+02 1.196830e+03 -2.652621e+03
3.698279e+02 1.185502e+03 -2.774513e+03
3.699108e+02 1.184513e+03 -2.774394e+03
3.689892e+02 1.168322e+03 -2.900545e+03
3.690756e+02 1.167337e+03 -2.900392e+03
3.682746e+02 1.146306e+03 -3.029240e+03
3.683631e+02 1.145325e+03 -3.029070e+03
4.900762e+02 1.191861e+03 -2.150228e+03
4.822333e+02 1.168639e+03 -2.013188e+03
4.901488e+02 1.190873e+03 -2.150364e+03
4.823061e+02 1.167687e+03 -2.013484e+03
4.970308e+02 1.207471e+03 -2.282621e+03
4.971071e+02 1.206477e+03 -2.282704e+03
5.009626e+02 1.215161e+03 -2.408163e+03
5.010414e+02 1.214165e+03 -2.408190e+03
5.016470e+02 1.215354e+03 -2.528210e+03
5.017269e+02 1.214358e+03 -2.528183e+03
5.005597e+02 1.208997e+03 -2.647428e+03
5.006409e+02 1.208003e+03 -2.647353e+03
4.994963e+02 1.197145e+03 -2.770591e+03
4.995796e+02 1.196155e+03 -2.770477e+03
4.990472e+02 1.180341e+03 -2.898895e+03
4.991340e+02 1.179356e+03 -2.898747e+03
4.986805e+02 1.158422e+03 -3.030735e+03
4.987692e+02 1.157440e+03 -3.030570e+03
6.225685e+02 1.201340e+03 -2.145751e+03
6.170046e+02 1.177545e+03 -2.008678e+03
6.226412e+02 1.200352e+03 -2.145891e+03
6.170774e+02 1.176592e+03 -2.008971e+03
6.272665e+02 1.217405e+03 -2.277822e+03
6.273430e+02 1.216412e+03 -2.277910e+03
6.298876e+02 1.225467e+03 -2.403274e+03
6.299666e+02 1.224470e+03 -2.403306e+03
6.303423e+02 1.225992e+03 -2.524023e+03
6.304227e+02 1.224995e+03 -2.523999e+03
6.296294e+02 1.219967e+03 -2.644430e+03
6.297110e+02 1.218973e+03 -2.644358e+03
6.289643e+02 1.208488e+03 -2.768967e+03
6.290481e+02 1.207497e+03 -2.768857e+03
6.287553e+02 1.192080e+03 -2.898831e+03
6.288424e+02 1.191095e+03 -2.898687e+03
6.286127e+02 1.170494e+03 -3.032225e+03
6.287017e+02 1.169511e+03 -3.032064e+03
7.548651e+02 1.210782e+03 -2.141191e+03
7.516595e+02 1.186443e+03 -2.004171e+03
7.549378e+02 1.209795e+03 -2.141336e+03
7.517323e+02 1.185489e+03 -2.004463e+03
7.573558e+02 1.227336e+03 -2.273242e+03
7.574322e+02 1.226343e+03 -2.273335e+03
7.587061e+02 1.235789e+03 -2.399377e+03
7.587852e+02 1.234793e+03 -2.399412e+03
7.589389e+02 1.236571e+03 -2.521697e+03
7.590196e+02 1.235575e+03 -2.521676e+03
7.585843e+02 1.230744e+03 -2.643929e+03
7.586664e+02 1.229750e+03 -2.643861e+03
7.582700e+02 1.219544e+03 -2.769831e+03
7.583543e+02 1.218553e+03 -2.769724e+03
7.582022e+02 1.203568e+03 -2.900356e+03
7.582897e+02 1.202582e+03 -2.900216e+03
7.582007e+02 1.182534e+03 -3.033711e+03
7.582900e+02 1.181550e+03 -3.033554e+03
8.875000e+02 1.220058e+03 -2.135473e+03
8.875000e+02 1.195418e+03 -1.999626e+03
8.875000e+02 1.219069e+03 -2.135621e+03
8.875000e+02 1.194462e+03 -1.999917e+03
8.875000e+02 1.237145e+03 -2.267546e+03
8.875000e+02 1.236150e+03 -2.267640e+03
8.875000e+02 1.246122e+03 -2.395970e+03
8.875000e+02 1.245123e+03 -2.396006e+03
8.875000e+02 1.247095e+03 -2.521773e+03
8.875000e+02 1.246095e+03 -2.521753e+03
8.875000e+02 1.241277e+03 -2.647092e+03
8.875000e+02 1.240279e+03 -2.647024e+03
8.875000e+02 1.230234e+03 -2.774246e+03
8.875000e+02 1.229239e+03 -2.774141e+03
8.875000e+02 1.214762e+03 -2.904034e+03
8.875000e+02 1.213772e+03 -2.903895e+03
8.875000e+02 1.194545e+03 -3.035195e+03
8.875000e+02 1.193557e+03 -3.035039e+03
1.671244e+03 1.177781e+03 -2.303541e+03
1.731189e+03 1.041823e+03 -2.322307e+03
1.750071e+03 1.027411e+03 -2.157686e+03
1.689929e+03 1.162541e+03 -2.162186e+03
1.670668e+03 1.176964e+03 -2.303554e+03
1.730216e+03 1.041596e+03 -2.322253e+03
1.749096e+03 1.027206e+03 -2.157602e+03
1.689353e+03 1.161724e+03 -2.162206e+03
1.756895e+03 1.006574e+03 -1.967536e+03
1.714073e+03 1.140734e+03 -2.027328e+03
1.755908e+03 1.006416e+03 -1.967545e+03
1.713491e+03 1.139947e+03 -2.027532e+03
1.753822e+03 9.681549e+02 -1.851284e+03
1.714062e+03 1.063683e+03 -1.874336e+03
1.752837e+03 9.680129e+02 -1.851382e+03
1.713503e+03 1.062946e+03 -1.874716e+03
1.750721e+03 9.294328e+02 -1.763292e+03
1.714055e+03 1.004312e+03 -1.761780e+03
1.749737e+03 9.292959e+02 -1.763411e+03
1.713509e+03 1.003581e+03 -1.762188e+03
1.744102e+03 8.956339e+02 -1.689929e+03
1.714059e+03 9.506372e+02 -1.670801e+03
1.743119e+03 8.955262e+02 -1.690080e+03
1.713506e+03 9.499333e+02 -1.671247e+03
1.731683e+03 8.594447e+02 -1.611651e+03
1.714074e+03 8.973710e+02 -1.592381e+03
1.730700e+03 8.593649e+02 -1.611815e+03
1.713490e+03 8.967036e+02 -1.592844e+03
1.722279e+03 8.374821e+02 -1.551400e+03
1.714124e+03 8.493924e+02 -1.524634e+03
1.721287e+03 8.374636e+02 -1.551526e+03
1.713440e+03 8.488052e+02 -1.525066e+03
1.735889e+03 8.976298e+02 -2.332477e+03
1.741717e+03 8.845464e+02 -2.179392e+03
1.734891e+03 8.976872e+02 -2.332436e+03
1.740723e+03 8.846395e+02 -2.179338e+03
1.740635e+03 8.697701e+02 -2.026968e+03
1.739647e+03 8.699221e+02 -2.026952e+03
1.736825e+03 8.547042e+02 -1.908875e+03
1.735841e+03 8.548817e+02 -1.908865e+03
1.733568e+03 8.383508e+02 -1.805075e+03
1.732588e+03 8.385491e+02 -1.805071e+03
1.728364e+03 8.214719e+02 -1.704398e+03
1.727389e+03 8.216914e+02 -1.704422e+03
1.722356e+03 8.080662e+02 -1.612909e+03
1.721377e+03 8.082650e+02 -1.612961e+03
1.718169e+03 8.015981e+02 -1.529941e+03
1.717179e+03 8.017288e+02 -1.529987e+03
1.714170e+03 8.061217e+02 -1.456518e+03
1.713394e+03 8.055864e+02 -1.456851e+03
1.734946e+03 9.036857e+02 -2.468453e+03
1.733947e+03 9.037342e+02 -2.468452e+03
1.725495e+03 1.048820e+03 -2.459514e+03
1.724523e+03 1.048583e+03 -2.459505e+03
1.661839e+03 1.184259e+03 -2.436076e+03
1.661266e+03 1.183439e+03 -2.436076e+03
1.734861e+03 9.059969e+02 -2.588011e+03
1.733862e+03 9.060291e+02 -2.588009e+03
1.723138e+03 1.050349e+03 -2.578711e+03
1.722171e+03 1.050094e+03 -2.578704e+03
1.660559e+03 1.182438e+03 -2.560336e+03
1.659991e+03 1.181615e+03 -2.560306e+03
1.734031e+03 9.058241e+02 -2.697949e+03
1.733031e+03 9.058513e+02 -2.697938e+03
1.723598e+03 1.047797e+03 -2.688154e+03
1.722632e+03 1.047538e+03 -2.688136e+03
1.663024e+03 1.173741e+03 -2.679558e+03
1.662457e+03 1.172919e+03 -2.679498e+03
1.730037e+03 9.033455e+02 -2.805756e+03
1.729038e+03 9.033746e+02 -2.805725e+03
1.724769e+03 1.041337e+03 -2.796588e+03
1.723803e+03 1.041082e+03 -2.796542e+03
1.665587e+03 1.160036e+03 -2.797073e+03
1.665024e+03 1.159215e+03 -2.796983e+03
1.720413e+03 8.975002e+02 -2.918204e+03
1.719416e+03 8.975341e+02 -2.918139e+03
1.725518e+03 1.030524e+03 -2.912467e+03
1.724558e+03 1.030296e+03 -2.912299e+03
1.668006e+03 1.142221e+03 -2.914522e+03
1.667461e+03 1.141408e+03 -2.914317e+03
1.698514e+03 8.879464e+02 -3.042949e+03
1.697518e+03 8.879832e+02 -3.042864e+03
1.684225e+03 1.009943e+03 -3.034276e+03
1.683284e+03 1.009740e+03 -3.034004e+03
1.670976e+03 1.121683e+03 -3.026275e+03
1.670452e+03 1.120887e+03 -3.025972e+03
1.567796e+03 1.150465e+03 -2.022392e+03
1.552759e+03 1.172720e+03 -2.159654e+03
1.567724e+03 1.149514e+03 -2.022692e+03
1.552686e+03 1.171730e+03 -2.159779e+03
1.428905e+03 1.159643e+03 -2.017744e+03
1.418146e+03 1.182364e+03 -2.155051e+03
1.428832e+03 1.158692e+03 -2.018042e+03
1.418074e+03 1.181375e+03 -2.155181e+03
1.292818e+03 1.168636e+03 -2.013190e+03
1.284932e+03 1.191874e+03 -2.150327e+03
1.292745e+03 1.167684e+03 -2.013485e+03
1.284860e+03 1.190886e+03 -2.150462e+03
1.158006e+03 1.177544e+03 -2.008678e+03
1.152416e+03 1.201356e+03 -2.145855e+03
1.157933e+03 1.176591e+03 -2.008972e+03
1.152343e+03 1.200369e+03 -2.145995e+03
1.023418e+03 1.186438e+03 -2.004174e+03
1.020137e+03 1.210791e+03 -2.141254e+03
1.023346e+03 1.185484e+03 -2.004465e+03
1.020064e+03 1.209804e+03 -2.141399e+03
1.539556e+03 1.187724e+03 -2.295478e+03
1.539480e+03 1.186729e+03 -2.295551e+03
1.408513e+03 1.197596e+03 -2.288618e+03
1.408437e+03 1.196602e+03 -2.288696e+03
1.277950e+03 1.207495e+03 -2.282884e+03
1.277873e+03 1.206501e+03 -2.282967e+03
1.147714e+03 1.217425e+03 -2.278023e+03
1.147637e+03 1.216432e+03 -2.278110e+03
1.017637e+03 1.227347e+03 -2.273347e+03
1.017561e+03 1.226354e+03 -2.273439e+03
1.532330e+03 1.194623e+03 -2.424265e+03
1.532252e+03 1.193626e+03 -2.424282e+03
1.403094e+03 1.204895e+03 -2.415361e+03
1.403015e+03 1.203899e+03 -2.415384e+03
1.274017e+03 1.215178e+03 -2.408669e+03
1.273938e+03 1.214181e+03 -2.408697e+03
1.145098e+03 1.225478e+03 -2.403571e+03
1.145019e+03 1.224481e+03 -2.403602e+03
1.016288e+03 1.235794e+03 -2.399513e+03
1.016209e+03 1.234798e+03 -2.399547e+03
1.531167e+03 1.193698e+03 -2.545755e+03
1.531088e+03 1.192702e+03 -2.545715e+03
1.402177e+03 1.204593e+03 -2.535804e+03
1.402098e+03 1.203597e+03 -2.535771e+03
1.273349e+03 1.215334e+03 -2.528971e+03
1.273269e+03 1.214338e+03 -2.528943e+03
1.144656e+03 1.225983e+03 -2.524401e+03
1.144575e+03 1.224986e+03 -2.524376e+03
1.016062e+03 1.236568e+03 -2.521857e+03
1.015982e+03 1.235571e+03 -2.521835e+03
1.533100e+03 1.186072e+03 -2.664155e+03
1.533021e+03 1.185079e+03 -2.664067e+03
1.403673e+03 1.197686e+03 -2.654390e+03
1.403593e+03 1.196693e+03 -2.654308e+03
1.274454e+03 1.208932e+03 -2.648264e+03
1.274373e+03 1.207939e+03 -2.648188e+03
1.145389e+03 1.219937e+03 -2.644829e+03
1.145308e+03 1.218943e+03 -2.644757e+03
1.016431e+03 1.230731e+03 -2.644096e+03
1.016349e+03 1.229737e+03 -2.644027e+03
1.535109e+03 1.173129e+03 -2.783876e+03
1.535027e+03 1.172140e+03 -2.783750e+03
1.405181e+03 1.185342e+03 -2.775860e+03
1.405099e+03 1.184353e+03 -2.775740e+03
1.275533e+03 1.197062e+03 -2.771292e+03
1.275450e+03 1.196072e+03 -2.771178e+03
1.146084e+03 1.208446e+03 -2.769313e+03
1.146000e+03 1.207455e+03 -2.769203e+03
1.016768e+03 1.219525e+03 -2.769978e+03
1.016684e+03 1.218534e+03 -2.769872e+03
1.536544e+03 1.155693e+03 -2.905620e+03
1.536458e+03 1.154709e+03 -2.905460e+03
1.406003e+03 1.168216e+03 -2.901240e+03
1.405917e+03 1.167232e+03 -2.901087e+03
1.275999e+03 1.180279e+03 -2.899293e+03
1.275912e+03 1.179293e+03 -2.899144e+03
1.146332e+03 1.192043e+03 -2.899038e+03
1.146245e+03 1.191057e+03 -2.898894e+03
1.016871e+03 1.203549e+03 -2.900447e+03
1.016783e+03 1.202563e+03 -2.900307e+03
1.537829e+03 1.134125e+03 -3.027737e+03
1.537741e+03 1.133145e+03 -3.027562e+03
1.406655e+03 1.146313e+03 -3.029241e+03
1.406567e+03 1.145331e+03 -3.029071e+03
1.276377e+03 1.158417e+03 -3.030735e+03
1.276289e+03 1.157435e+03 -3.030569e+03
1.146554e+03 1.170479e+03 -3.032223e+03
1.146465e+03 1.169496e+03 -3.032062e+03
1.016967e+03 1.182518e+03 -3.033709e+03
1.016878e+03 1.181535e+03 -3.033552e+03
2.025637e+02 1.082330e+03 -1.884252e+03
2.026424e+02 1.081441e+03 -1.884703e+03
3.414789e+02 1.095210e+03 -1.883734e+03
3.415579e+02 1.094315e+03 -1.884174e+03
4.785321e+02 1.106310e+03 -1.880042e+03
4.786112e+02 1.105411e+03 -1.880473e+03
6.145295e+02 1.116753e+03 -1.875202e+03
6.146087e+02 1.115850e+03 -1.875624e+03
7.502100e+02 1.125673e+03 -1.867011e+03
7.502895e+02 1.124766e+03 -1.867424e+03
8.874990e+02 1.131100e+03 -1.850568e+03
8.874990e+02 1.130188e+03 -1.850978e+03
2.004835e+02 1.021018e+03 -1.764201e+03
2.005724e+02 1.020144e+03 -1.764679e+03
3.388269e+02 1.034345e+03 -1.761066e+03
3.389164e+02 1.033464e+03 -1.761531e+03
4.761401e+02 1.046297e+03 -1.755615e+03
4.762298e+02 1.045410e+03 -1.756069e+03
6.127303e+02 1.057809e+03 -1.749482e+03
6.128202e+02 1.056917e+03 -1.749925e+03
7.489910e+02 1.068771e+03 -1.742279e+03
7.490809e+02 1.067874e+03 -1.742711e+03
8.874999e+02 1.078415e+03 -1.732167e+03
8.874998e+02 1.077511e+03 -1.732596e+03
1.994930e+02 9.630191e+02 -1.661873e+03
1.995945e+02 9.621733e+02 -1.662397e+03
3.373889e+02 9.747998e+02 -1.652241e+03
3.374908e+02 9.739436e+02 -1.652748e+03
4.747312e+02 9.862497e+02 -1.642144e+03
4.748331e+02 9.853842e+02 -1.642634e+03
6.116155e+02 9.981363e+02 -1.632919e+03
6.117171e+02 9.972624e+02 -1.633394e+03
7.482550e+02 1.010449e+03 -1.624595e+03
7.483555e+02 1.009567e+03 -1.625056e+03
8.874989e+02 1.024678e+03 -1.620194e+03
8.874989e+02 1.023788e+03 -1.620650e+03
1.990079e+02 9.064155e+02 -1.574111e+03
1.991265e+02 9.055911e+02 -1.574664e+03
3.366584e+02 9.157743e+02 -1.556009e+03
3.367766e+02 9.149338e+02 -1.556537e+03
4.740142e+02 9.258747e+02 -1.538748e+03
4.741318e+02 9.250199e+02 -1.539253e+03
6.110872e+02 9.372560e+02 -1.523510e+03
6.112038e+02 9.363886e+02 -1.523994e+03
7.479757e+02 9.502614e+02 -1.511304e+03
7.480901e+02 9.493828e+02 -1.511768e+03
8.875013e+02 9.647692e+02 -1.502305e+03
8.875014e+02 9.638798e+02 -1.502762e+03
1.987807e+02 8.539448e+02 -1.493956e+03
1.989168e+02 8.531087e+02 -1.494488e+03
3.363320e+02 8.612173e+02 -1.466121e+03
3.364667e+02 8.603580e+02 -1.466615e+03
4.737336e+02 8.704684e+02 -1.440625e+03
4.738668e+02 8.695902e+02 -1.441084e+03
6.109690e+02 8.814094e+02 -1.417741e+03
6.111007e+02 8.805159e+02 -1.418170e+03
7.481239e+02 8.936546e+02 -1.397347e+03
7.482531e+02 8.927483e+02 -1.397749e+03
8.875010e+02 9.086203e+02 -1.383354e+03
8.875012e+02 9.077008e+02 -1.383747e+03
1.986995e+02 8.082074e+02 -1.411190e+03
1.988424e+02 8.073164e+02 -1.411621e+03
3.362346e+02 8.163865e+02 -1.374612e+03
3.363761e+02 8.154720e+02 -1.374991e+03
4.736969e+02 8.271292e+02 -1.341984e+03
4.738363e+02 8.261984e+02 -1.342322e+03
6.111195e+02 8.387832e+02 -1.310253e+03
6.112563e+02 8.378400e+02 -1.310556e+03
7.485148e+02 8.511477e+02 -1.279387e+03
7.486492e+02 8.501946e+02 -1.279658e+03
8.875006e+02 8.661462e+02 -1.258050e+03
8.875008e+02 8.651801e+02 -1.258308e+03
1.986873e+02 7.736516e+02 -1.310429e+03
1.988245e+02 7.726955e+02 -1.310688e+03
3.362295e+02 7.864391e+02 -1.270957e+03
3.363669e+02 7.854732e+02 -1.271177e+03
4.737704e+02 7.999546e+02 -1.232098e+03
4.739060e+02 7.989820e+02 -1.232287e+03
6.113215e+02 8.137380e+02 -1.191643e+03
6.114546e+02 8.127604e+02 -1.191806e+03
7.489291e+02 8.272783e+02 -1.144660e+03
7.490609e+02 8.262969e+02 -1.144800e+03
8.875005e+02 8.434098e+02 -1.118795e+03
8.875005e+02 8.424183e+02 -1.118925e+03
1.986495e+02 7.544806e+02 -1.184898e+03
1.987826e+02 7.534962e+02 -1.185014e+03
3.361813e+02 7.703169e+02 -1.148515e+03
3.363150e+02 7.693317e+02 -1.148622e+03
4.737281e+02 7.858286e+02 -1.107529e+03
4.738618e+02 7.848426e+02 -1.107628e+03
6.112716e+02 8.012625e+02 -1.064588e+03
6.114056e+02 8.002760e+02 -1.064682e+03
7.487942e+02 8.166980e+02 -1.021141e+03
7.489287e+02 8.157114e+02 -1.021233e+03
8.874999e+02 8.328392e+02 -9.867743e+02
8.874998e+02 8.318434e+02 -9.868660e+02
1.984865e+02 7.452369e+02 -1.061185e+03
1.986176e+02 7.442478e+02 -1.061253e+03
3.359535e+02 7.603953e+02 -1.020516e+03
3.360868e+02 7.594073e+02 -1.020595e+03
4.734227e+02 7.750232e+02 -9.757232e+02
4.735589e+02 7.740366e+02 -9.758137e+02
6.108730e+02 7.892338e+02 -9.296629e+02
6.110125e+02 7.882490e+02 -9.297665e+02
7.482850e+02 8.029446e+02 -8.823206e+02
7.484267e+02 8.019617e+02 -8.824384e+02
8.875002e+02 8.156019e+02 -8.305718e+02
8.875002e+02 8.146100e+02 -8.306984e+02
1.982307e+02 7.364542e+02 -9.427626e+02
1.983567e+02 7.354660e+02 -9.428502e+02
3.355829e+02 7.484421e+02 -8.935586e+02
3.357139e+02 7.474562e+02 -8.936629e+02
4.728818e+02 7.598489e+02 -8.439944e+02
4.730172e+02 7.588661e+02 -8.441202e+02
6.101711e+02 7.709122e+02 -7.955220e+02
6.103105e+02 7.699329e+02 -7.956685e+02
7.474498e+02 7.819240e+02 -7.491917e+02
7.475918e+02 7.809481e+02 -7.493575e+02
8.875067e+02 7.918478e+02 -6.990995e+02
8.875067e+02 7.908637e+02 -6.992767e+02
1.981175e+02 7.221739e+02 -8.192389e+02
1.982416e+02 7.211924e+02 -8.193844e+02
3.352457e+02 7.305161e+02 -7.661954e+02
3.353759e+02 7.295374e+02 -7.663539e+02
4.723655e+02 7.383886e+02 -7.133814e+02
4.724999e+02 7.374142e+02 -7.135618e+02
6.094886e+02 7.465110e+02 -6.639225e+02
6.096265e+02 7.455411e+02 -6.641228e+02
7.466769e+02 7.556792e+02 -6.203514e+02
7.468163e+02 7.547131e+02 -6.205688e+02
8.875115e+02 7.660909e+02 -5.823255e+02
8.875116e+02 7.651171e+02 -5.825533e+02
1.980289e+02 6.995546e+02 -6.969426e+02
1.981566e+02 6.985861e+02 -6.971565e+02
3.349812e+02 7.042959e+02 -6.401098e+02
3.351161e+02 7.033309e+02 -6.403349e+02
4.719568e+02 7.087010e+02 -5.843194e+02
4.720961e+02 7.077420e+02 -5.845666e+02
6.089823e+02 7.137995e+02 -5.328721e+02
6.091254e+02 7.128467e+02 -5.331399e+02
7.461452e+02 7.207160e+02 -4.884614e+02
7.462894e+02 7.197686e+02 -4.887469e+02
8.875044e+02 7.302009e+02 -4.522981e+02
8.875046e+02 7.292460e+02 -4.525951e+02
1.980461e+02 6.685490e+02 -5.765304e+02
1.981789e+02 6.675971e+02 -5.768066e+02
3.348177e+02 6.690901e+02 -5.163644e+02
3.349579e+02 6.681435e+02 -5.166548e+02
4.717152e+02 6.693579e+02 -4.580181e+02
4.718604e+02 6.684201e+02 -4.583335e+02
6.088382e+02 6.701610e+02 -4.032238e+02
6.089882e+02 6.692324e+02 -4.035633e+02
7.461975e+02 6.726434e+02 -3.540909e+02
7.463494e+02 6.717236e+02 -3.544527e+02
8.874795e+02 6.772688e+02 -3.107326e+02
8.874798e+02 6.763423e+02 -3.111088e+02
1.982512e+02 6.299174e+02 -4.583884e+02
1.983868e+02 6.289860e+02 -4.587262e+02
3.348618e+02 6.255484e+02 -3.952525e+02
3.350056e+02 6.246247e+02 -3.956074e+02
4.719045e+02 6.209002e+02 -3.344401e+02
4.720549e+02 6.199901e+02 -3.348261e+02
6.093588e+02 6.160094e+02 -2.756929e+02
6.095164e+02 6.151153e+02 -2.761120e+02
7.472656e+02 6.117075e+02 -2.203285e+02
7.474297e+02 6.108322e+02 -2.207833e+02
8.874730e+02 6.096338e+02 -1.706684e+02
8.874725e+02 6.087558e+02 -1.711471e+02
1.978152e+02 5.834733e+02 -3.436251e+02
1.979597e+02 5.825827e+02 -3.440563e+02
3.346004e+02 5.757681e+02 -2.843744e+02
3.347636e+02 5.748973e+02 -2.848381e+02
4.715684e+02 5.663601e+02 -2.255751e+02
4.717464e+02 5.655240e+02 -2.260940e+02
6.088127e+02 5.549470e+02 -1.676319e+02
6.090091e+02 5.541602e+02 -1.682171e+02
7.465288e+02 5.412149e+02 -1.113637e+02
7.467431e+02 5.404965e+02 -1.120254e+02
8.874532e+02 5.270534e+02 -5.976851e+01
8.874525e+02 5.263581e+02 -6.048722e+01
1.976307e+02 5.005803e+02 -2.043345e+02
1.978119e+02 4.998545e+02 -2.049981e+02
3.341507e+02 4.898973e+02 -1.632826e+02
3.343571e+02 4.892408e+02 -1.640081e+02
4.708172e+02 4.752622e+02 -1.224985e+02
4.710418e+02 4.746990e+02 -1.232937e+02
6.078464e+02 4.559095e+02 -8.320703e+01
6.080870e+02 4.554578e+02 -8.406619e+01
7.455627e+02 4.311174e+02 -4.643579e+01
7.458111e+02 4.307908e+02 -4.734773e+01
8.874962e+02 4.031392e+02 -1.311204e+01
8.874963e+02 4.028703e+02 -1.407521e+01
1.979384e+02 4.033318e+02 -1.451635e+02
1.981434e+02 4.030363e+02 -1.460966e+02
3.348433e+02 3.834099e+02 -1.178972e+02
3.350613e+02 3.832078e+02 -1.188520e+02
4.719923e+02 3.570681e+02 -9.133808e+01
4.722185e+02 3.569752e+02 -9.230773e+01
6.094599e+02 3.254680e+02 -6.667846e+01
6.096901e+02 3.254888e+02 -6.765138e+01
7.479030e+02 2.931263e+02 -4.400394e+01
7.481296e+02 2.932603e+02 -4.496866e+01
8.875002e+02 2.718266e+02 -2.088158e+01
8.875006e+02 2.720213e+02 -2.186245e+01
1.981211e+02 2.885884e+02 -1.471740e+02
1.983204e+02 2.888193e+02 -1.481263e+02
3.351823e+02 2.638716e+02 -1.288462e+02
3.353937e+02 2.641818e+02 -1.297731e+02
4.725284e+02 2.358405e+02 -1.132182e+02
4.727480e+02 2.362540e+02 -1.141019e+02
6.101236e+02 2.069870e+02 -1.007740e+02
6.103463e+02 2.075126e+02 -1.015951e+02
7.480656e+02 1.781079e+02 -9.332475e+01
7.482816e+02 1.787508e+02 -9.405957e+01
8.874899e+02 1.490759e+02 -9.787649e+01
8.874896e+02 1.497912e+02 -9.857527e+01
1.980613e+02 1.985803e+02 -1.993273e+02
1.982345e+02 1.992864e+02 -2.000139e+02
3.348815e+02 1.812700e+02 -1.927664e+02
3.350554e+02 1.820383e+02 -1.933824e+02
4.721404e+02 1.650232e+02 -1.896125e+02
4.723070e+02 1.658595e+02 -1.901349e+02
6.098179e+02 1.512158e+02 -1.865769e+02
6.099730e+02 1.521101e+02 -1.869964e+02
7.473720e+02 1.360162e+02 -1.994392e+02
7.475101e+02 1.369572e+02 -1.997479e+02
8.874909e+02 1.235289e+02 -2.148567e+02
8.874902e+02 1.244962e+02 -2.151105e+02
1.981468e+02 1.542414e+02 -2.980001e+02
1.982464e+02 1.551749e+02 -2.983444e+02
3.351982e+02 1.459879e+02 -2.948664e+02
3.352927e+02 1.469416e+02 -2.951518e+02
4.724040e+02 1.364610e+02 -3.008518e+02
4.724881e+02 1.374320e+02 -3.010756e+02
6.097314e+02 1.270779e+02 -3.133995e+02
6.098055e+02 1.280609e+02 -3.135676e+02
7.471456e+02 1.186691e+02 -3.303927e+02
7.472093e+02 1.196600e+02 -3.305111e+02
8.874976e+02 1.118596e+02 -3.475927e+02
8.874973e+02 1.128551e+02 -3.476876e+02
1.982632e+02 1.245791e+02 -4.264384e+02
1.983086e+02 1.255542e+02 -4.266555e+02
3.354149e+02 1.184725e+02 -4.430895e+02
3.354560e+02 1.194561e+02 -4.432654e+02
4.726134e+02 1.139263e+02 -4.600901e+02
4.726492e+02 1.149165e+02 -4.602249e+02
6.098295e+02 1.108724e+02 -4.772233e+02
6.098596e+02 1.118674e+02 -4.773181e+02
7.470366e+02 1.092236e+02 -4.942982e+02
7.470685e+02 1.102207e+02 -4.943674e+02
8.875001e+02 1.088767e+02 -5.111618e+02
8.874999e+02 1.098751e+02 -5.112195e+02
1.986365e+02 1.071165e+02 -5.285430e+02
1.986628e+02 1.080982e+02 -5.287316e+02
3.358392e+02 1.075188e+02 -5.278320e+02
3.358594e+02 1.085075e+02 -5.279803e+02
4.729728e+02 1.079217e+02 -5.271212e+02
4.729868e+02 1.089157e+02 -5.272298e+02
6.100823e+02 1.083254e+02 -5.264096e+02
6.100906e+02 1.093229e+02 -5.264800e+02
7.471674e+02 1.087302e+02 -5.256885e+02
7.471729e+02 1.097289e+02 -5.257402e+02
1.572483e+03 1.082084e+03 -1.883765e+03
1.572404e+03 1.081196e+03 -1.884216e+03
1.574543e+03 1.021007e+03 -1.764186e+03
1.574454e+03 1.020133e+03 -1.764664e+03
1.575529e+03 9.633721e+02 -1.662457e+03
1.575428e+03 9.625261e+02 -1.662980e+03
1.576013e+03 9.068417e+02 -1.574756e+03
1.575895e+03 9.060172e+02 -1.575309e+03
1.576238e+03 8.543503e+02 -1.494612e+03
1.576102e+03 8.535144e+02 -1.495143e+03
1.576314e+03 8.086875e+02 -1.412225e+03
1.576172e+03 8.077971e+02 -1.412657e+03
1.576306e+03 7.740868e+02 -1.312275e+03
1.576167e+03 7.731318e+02 -1.312537e+03
1.576336e+03 7.549794e+02 -1.189989e+03
1.576203e+03 7.539956e+02 -1.190109e+03
1.576458e+03 7.451955e+02 -1.060446e+03
1.576327e+03 7.442065e+02 -1.060515e+03
1.576718e+03 7.360428e+02 -9.380633e+02
1.576592e+03 7.350547e+02 -9.381519e+02
1.576880e+03 7.217606e+02 -8.164738e+02
1.576756e+03 7.207793e+02 -8.166213e+02
1.576965e+03 6.989962e+02 -6.944232e+02
1.576837e+03 6.980280e+02 -6.946388e+02
1.576946e+03 6.678347e+02 -5.740972e+02
1.576813e+03 6.668832e+02 -5.743745e+02
1.576802e+03 6.289173e+02 -4.556522e+02
1.576666e+03 6.279863e+02 -4.559908e+02
1.577227e+03 5.818771e+02 -3.401472e+02
1.577083e+03 5.809867e+02 -3.405789e+02
1.577398e+03 5.007241e+02 -2.045034e+02
1.577216e+03 4.999963e+02 -2.051647e+02
1.577108e+03 4.040774e+02 -1.453440e+02
1.576903e+03 4.037759e+02 -1.462750e+02
1.577002e+03 2.894450e+02 -1.469829e+02
1.576800e+03 2.896787e+02 -1.479340e+02
1.576981e+03 1.967400e+02 -2.015766e+02
1.576813e+03 1.974572e+02 -2.022529e+02
1.576810e+03 1.553292e+02 -2.940934e+02
1.576717e+03 1.562660e+02 -2.944307e+02
1.576737e+03 1.245791e+02 -4.264382e+02
1.576691e+03 1.255541e+02 -4.266557e+02
1.576366e+03 1.071166e+02 -5.285428e+02
1.576339e+03 1.080982e+02 -5.287317e+02
1.433594e+03 1.095280e+03 -1.883895e+03
1.433515e+03 1.094386e+03 -1.884335e+03
1.436220e+03 1.034506e+03 -1.761389e+03
1.436131e+03 1.033625e+03 -1.761855e+03
1.437648e+03 9.751393e+02 -1.652829e+03
1.437546e+03 9.742829e+02 -1.653336e+03
1.438377e+03 9.162232e+02 -1.556734e+03
1.438259e+03 9.153827e+02 -1.557263e+03
1.438701e+03 8.616779e+02 -1.466942e+03
1.438566e+03 8.608189e+02 -1.467436e+03
1.438790e+03 8.168238e+02 -1.375718e+03
1.438649e+03 8.159101e+02 -1.376099e+03
1.438768e+03 7.867142e+02 -1.272356e+03
1.438630e+03 7.857489e+02 -1.272578e+03
1.438808e+03 7.704817e+02 -1.150345e+03
1.438674e+03 7.694966e+02 -1.150454e+03
1.439025e+03 7.603876e+02 -1.020382e+03
1.438892e+03 7.593997e+02 -1.020462e+03
1.439397e+03 7.482498e+02 -8.918376e+02
1.439266e+03 7.472640e+02 -8.919427e+02
1.439748e+03 7.302417e+02 -7.646007e+02
1.439618e+03 7.292632e+02 -7.647604e+02
1.440016e+03 7.039327e+02 -6.386292e+02
1.439881e+03 7.029680e+02 -6.388553e+02
1.440175e+03 6.686798e+02 -5.150920e+02
1.440035e+03 6.677335e+02 -5.153833e+02
1.440135e+03 6.251862e+02 -3.943429e+02
1.439991e+03 6.242628e+02 -3.946988e+02
1.440399e+03 5.757679e+02 -2.843739e+02
1.440237e+03 5.748975e+02 -2.848386e+02
1.440873e+03 4.900428e+02 -1.634133e+02
1.440667e+03 4.893857e+02 -1.641385e+02
1.440197e+03 3.840161e+02 -1.179814e+02
1.439979e+03 3.838113e+02 -1.189356e+02
1.439774e+03 2.648516e+02 -1.285065e+02
1.439563e+03 2.651569e+02 -1.294350e+02
1.439723e+03 1.840949e+02 -1.881149e+02
1.439551e+03 1.848591e+02 -1.887365e+02
1.439662e+03 1.468488e+02 -2.910946e+02
1.439568e+03 1.478015e+02 -2.913838e+02
1.439585e+03 1.184726e+02 -4.430892e+02
1.439544e+03 1.194560e+02 -4.432657e+02
1.439162e+03 1.075188e+02 -5.278320e+02
1.439142e+03 1.085075e+02 -5.279803e+02
1.296515e+03 1.106293e+03 -1.880015e+03
1.296436e+03 1.105394e+03 -1.880446e+03
1.298901e+03 1.046451e+03 -1.755933e+03
1.298811e+03 1.045564e+03 -1.756387e+03
1.300307e+03 9.865741e+02 -1.642729e+03
1.300205e+03 9.857085e+02 -1.643219e+03
1.301027e+03 9.263226e+02 -1.539518e+03
1.300910e+03 9.254678e+02 -1.540023e+03
1.301306e+03 8.708714e+02 -1.441411e+03
1.301173e+03 8.699936e+02 -1.441872e+03
1.301331e+03 8.273724e+02 -1.342697e+03
1.301191e+03 8.264421e+02 -1.343036e+03
1.301237e+03 8.000732e+02 -1.232823e+03
1.301101e+03 7.991008e+02 -1.233014e+03
1.301268e+03 7.858986e+02 -1.108373e+03
1.301135e+03 7.849127e+02 -1.108473e+03
1.301562e+03 7.750636e+02 -9.761321e+02
1.301426e+03 7.740771e+02 -9.762228e+02
1.302109e+03 7.598031e+02 -8.436528e+02
1.301974e+03 7.588204e+02 -8.437789e+02
1.302630e+03 7.382983e+02 -7.129125e+02
1.302495e+03 7.373240e+02 -7.130934e+02
1.303031e+03 7.086006e+02 -5.839402e+02
1.302891e+03 7.076418e+02 -5.841879e+02
1.303235e+03 6.692824e+02 -4.577827e+02
1.303089e+03 6.683447e+02 -4.580985e+02
1.303036e+03 6.209621e+02 -3.345606e+02
1.302886e+03 6.200520e+02 -3.349469e+02
1.303432e+03 5.663601e+02 -2.255750e+02
1.303254e+03 5.655240e+02 -2.260940e+02
1.304217e+03 4.751556e+02 -1.224411e+02
1.303992e+03 4.745922e+02 -1.232362e+02
1.303074e+03 3.566614e+02 -9.133930e+01
1.302847e+03 3.565670e+02 -9.230876e+01
1.302411e+03 2.370807e+02 -1.126226e+02
1.302193e+03 2.374814e+02 -1.135125e+02
1.302445e+03 1.681426e+02 -1.823140e+02
1.302277e+03 1.689677e+02 -1.828531e+02
1.302450e+03 1.372077e+02 -2.967059e+02
1.302363e+03 1.381767e+02 -2.969368e+02
1.302387e+03 1.139263e+02 -4.600898e+02
1.302350e+03 1.149165e+02 -4.602252e+02
1.302026e+03 1.079217e+02 -5.271211e+02
1.302012e+03 1.089157e+02 -5.272297e+02
1.160494e+03 1.116597e+03 -1.874864e+03
1.160415e+03 1.115694e+03 -1.875286e+03
1.162296e+03 1.057868e+03 -1.749610e+03
1.162206e+03 1.056976e+03 -1.750053e+03
1.163419e+03 9.984674e+02 -1.633538e+03
1.163317e+03 9.975935e+02 -1.634014e+03
1.163961e+03 9.377589e+02 -1.524425e+03
1.163845e+03 9.368915e+02 -1.524909e+03
1.164078e+03 8.817890e+02 -1.418545e+03
1.163947e+03 8.808958e+02 -1.418975e+03
1.163905e+03 8.389303e+02 -1.310749e+03
1.163768e+03 8.379873e+02 -1.311053e+03
1.163687e+03 8.137940e+02 -1.192060e+03
1.163554e+03 8.128165e+02 -1.192223e+03
1.163728e+03 8.012961e+02 -1.065016e+03
1.163594e+03 8.003096e+02 -1.065110e+03
1.164122e+03 7.892522e+02 -9.298231e+02
1.163983e+03 7.882674e+02 -9.299266e+02
1.164830e+03 7.708389e+02 -7.950660e+02
1.164691e+03 7.698596e+02 -7.952127e+02
1.165493e+03 7.463802e+02 -6.632953e+02
1.165355e+03 7.454102e+02 -6.634959e+02
1.165956e+03 7.135600e+02 -5.320199e+02
1.165813e+03 7.126073e+02 -5.322879e+02
1.166032e+03 6.702179e+02 -4.033201e+02
1.165882e+03 6.692894e+02 -4.036596e+02
1.165459e+03 6.167102e+02 -2.770960e+02
1.165302e+03 6.158158e+02 -2.775148e+02
1.166187e+03 5.549469e+02 -1.676319e+02
1.165991e+03 5.541602e+02 -1.682172e+02
1.167161e+03 4.554396e+02 -8.302644e+01
1.166920e+03 4.549890e+02 -8.388608e+01
1.165531e+03 3.244769e+02 -6.674130e+01
1.165302e+03 3.244970e+02 -6.771435e+01
1.164785e+03 2.088476e+02 -9.950245e+01
1.164564e+03 2.093611e+02 -1.003314e+02
1.165009e+03 1.524381e+02 -1.824247e+02
1.164851e+03 1.533247e+02 -1.828593e+02
1.165227e+03 1.271920e+02 -3.125509e+02
1.165150e+03 1.281740e+02 -3.127233e+02
1.165171e+03 1.108724e+02 -4.772231e+02
1.165140e+03 1.118674e+02 -4.773182e+02
1.164915e+03 1.083254e+02 -5.264096e+02
1.164907e+03 1.093229e+02 -5.264800e+02
1.024833e+03 1.125892e+03 -1.867514e+03
1.024754e+03 1.124985e+03 -1.867926e+03
1.026028e+03 1.068794e+03 -1.742332e+03
1.025938e+03 1.067896e+03 -1.742764e+03
1.026769e+03 1.010895e+03 -1.625457e+03
1.026668e+03 1.010013e+03 -1.625917e+03
1.027071e+03 9.508586e+02 -1.512446e+03
1.026957e+03 9.499801e+02 -1.512910e+03
1.026908e+03 8.939947e+02 -1.398116e+03
1.026779e+03 8.930886e+02 -1.398519e+03
1.026495e+03 8.512008e+02 -1.279591e+03
1.026360e+03 8.502478e+02 -1.279863e+03
1.026071e+03 8.272783e+02 -1.144660e+03
1.025939e+03 8.262969e+02 -1.144800e+03
1.026205e+03 8.167098e+02 -1.021291e+03
1.026071e+03 8.157231e+02 -1.021383e+03
1.026713e+03 8.029415e+02 -8.822946e+02
1.026571e+03 8.019586e+02 -8.824125e+02
1.027550e+03 7.817106e+02 -7.480187e+02
1.027408e+03 7.807347e+02 -7.481849e+02
1.028307e+03 7.552364e+02 -6.184001e+02
1.028168e+03 7.542704e+02 -6.186180e+02
1.028786e+03 7.201597e+02 -4.866282e+02
1.028642e+03 7.192124e+02 -4.869143e+02
1.028602e+03 6.725902e+02 -3.538800e+02
1.028451e+03 6.716702e+02 -3.542414e+02
1.027204e+03 6.145316e+02 -2.255919e+02
1.027040e+03 6.136554e+02 -2.260450e+02
1.028471e+03 5.412151e+02 -1.113639e+02
1.028257e+03 5.404964e+02 -1.120252e+02
1.029428e+03 4.303410e+02 -4.627241e+01
1.029180e+03 4.300161e+02 -4.718494e+01
1.027102e+03 2.927691e+02 -4.405684e+01
1.026876e+03 2.929024e+02 -4.502188e+01
1.026910e+03 1.789275e+02 -9.244298e+01
1.026693e+03 1.795634e+02 -9.318378e+01
1.027580e+03 1.365265e+02 -1.966635e+02
1.027439e+03 1.374646e+02 -1.969801e+02
1.027833e+03 1.187877e+02 -3.291341e+02
1.027768e+03 1.197784e+02 -3.292538e+02
1.027963e+03 1.092236e+02 -4.942981e+02
1.027931e+03 1.102207e+02 -4.943675e+02
1.027829e+03 1.087303e+02 -5.256885e+02
1.027824e+03 1.097289e+02 -5.257402e+02
3.000000e+02 0.000000e+00 -3.000000e+01
3.000000e+02 0.000000e+00 7.000000e+01
3.000000e+02 0.000000e+00 1.700000e+02
3.000000e+02 0.000000e+00 2.700000e+02
3.000000e+02 0.000000e+00 3.700000e+02
3.000000e+02 0.000000e+00 4.700000e+02
3.000000e+02 1.000000e+02 -3.000000e+01
3.000000e+02 1.000000e+02 7.000000e+01
3.000000e+02 1.000000e+02 1.700000e+02
3.000000e+02 1.000000e+02 2.700000e+02
3.000000e+02 1.000000e+02 3.700000e+02
3.000000e+02 1.000000e+02 4.700000e+02
3.000000e+02 2.000000e+02 -3.000000e+01
3.000000e+02 2.000000e+02 7.000000e+01
3.000000e+02 2.000000e+02 1.700000e+02
3.000000e+02 2.000000e+02 2.700000e+02
3.000000e+02 2.000000e+02 3.700000e+02
3.000000e+02 2.000000e+02 4.700000e+02
3.000000e+02 3.000000e+02 -3.000000e+01
3.000000e+02 3.000000e+02 7.000000e+01
3.000000e+02 3.000000e+02 1.700000e+02
3.000000e+02 3.000000e+02 2.700000e+02
3.000000e+02 3.000000e+02 3.700000e+02
3.000000e+02 3.000000e+02 4.700000e+02
3.000000e+02 4.000000e+02 -3.000000e+01
3.000000e+02 4.000000e+02 7.000000e+01
3.000000e+02 4.000000e+02 1.700000e+02
3.000000e+02 4.000000e+02 2.700000e+02
3.000000e+02 4.000000e+02 3.700000e+02
3.000000e+02 4.000000e+02 4.700000e+02
3.000000e+02 5.000000e+02 -3.000000e+01
3.000000e+02 5.000000e+02 7.000000e+01
3.000000e+02 5.000000e+02 1.700000e+02
3.000000e+02 5.000000e+02 2.700000e+02
3.000000e+02 5.000000e+02 3.700000e+02
3.000000e+02 5.000000e+02 4.700000e+02
3.000000e+02 6.000000e+02 -3.000000e+01
3.000000e+02 6.000000e+02 7.000000e+01
3.000000e+02 6.000000e+02 1.700000e+02
3.000000e+02 6.000000e+02 2.700000e+02
3.000000e+02 6.000000e+02 3.700000e+02
3.000000e+02 6.000000e+02 4.700000e+02
3.000000e+02 7.000000e+02 -3.000000e+01
3.000000e+02 7.000000e+02 7.000000e+01
3.000000e+02 7.000000e+02 1.700000e+02
3.000000e+02 7.000000e+02 2.700000e+02
3.000000e+02 7.000000e+02 3.700000e+02
3.000000e+02 7.000000e+02 4.700000e+02
3.000000e+02 8.000000e+02 -3.000000e+01
3.000000e+02 8.000000e+02 7.000000e+01
3.000000e+02 8.000000e+02 1.700000e+02
3.000000e+02 8.000000e+02 2.700000e+02
3.000000e+02 8.000000e+02 3.700000e+02
3.000000e+02 8.000000e+02 4.700000e+02
3.000000e+02 9.000000e+02 -3.000000e+01
3.000000e+02 9.000000e+02 7.000000e+01
3.000000e+02 9.000000e+02 1.700000e+02
3.000000e+02 9.000000e+02 2.700000e+02
3.000000e+02 9.000000e+02 3.700000e+02
3.000000e+02 9.000000e+02 4.700000e+02
3.000000e+02 1.000000e+03 -3.000000e+01
3.000000e+02 1.000000e+03 7.000000e+01
3.000000e+02 1.000000e+03 1.700000e+02
3.000000e+02 1.000000e+03 2.700000e+02
3.000000e+02 1.000000e+03 3.700000e+02
3.000000e+02 1.000000e+03 4.700000e+02
4.000000e+02 0.000000e+00 -3.000000e+01
4.000000e+02 0.000000e+00 7.000000e+01
4.000000e+02 0.000000e+00 1.700000e+02
4.000000e+02 0.000000e+00 2.700000e+02
4.000000e+02 0.000000e+00 3.700000e+02
4.000000e+02 0.000000e+00 4.700000e+02
4.000000e+02 1.000000e+02 -3.000000e+01
4.000000e+02 1.000000e+02 7.000000e+01
4.000000e+02 1.000000e+02 1.700000e+02
4.000000e+02 1.000000e+02 2.700000e+02
4.000000e+02 1.000000e+02 3.700000e+02
4.000000e+02 1.000000e+02 4.700000e+02
4.000000e+02 2.000000e+02 -3.000000e+01
4.000000e+02 2.000000e+02 7.000000e+01
4.000000e+02 2.000000e+02 1.700000e+02
4.000000e+02 2.000000e+02 2.700000e+02
4.000000e+02 2.000000e+02 3.700000e+02
4.000000e+02 2.000000e+02 4.700000e+02
4.000000e+02 3.000000e+02 -3.000000e+01
4.000000e+02 3.000000e+02 7.000000e+01
4.000000e+02 3.000000e+02 1.700000e+02
4.000000e+02 3.000000e+02 2.700000e+02
4.000000e+02 3.000000e+02 3.700000e+02
4.000000e+02 3.000000e+02 4.700000e+02
4.000000e+02 4.000000e+02 -3.000000e+01
4.000000e+02 4.000000e+02 7.000000e+01
4.000000e+02 4.000000e+02 1.700000e+02
4.000000e+02 4.000000e+02 2.700000e+02
4.000000e+02 4.000000e+02 3.700000e+02
4.000000e+02 4.000000e+02 4.700000e+02
4.000000e+02 5.000000e+02 -3.000000e+01
4.000000e+02 5.000000e+02 7.000000e+01
4.000000e+02 5.000000e+02 1.700000e+02
4.000000e+02 5.000000e+02 2.700000e+02
4.000000e+02 5.000000e+02 3.700000e+02
4.000000e+02 5.000000e+02 4.700000e+02
4.000000e+02 6.000000e+02 -3.000000e+01
4.000000e+02 6.000000e+02 7.000000e+01
4.000000e+02 6.000000e+02 1.700000e+02
4.000000e+02 6.000000e+02 2.700000e+02
4.000000e+02 6.000000e+02 3.700000e+02
4.000000e+02 6.000000e+02 4.700000e+02
4.000000e+02 7.000000e+02 -3.000000e+01
4.000000e+02 7.000000e+02 7.000000e+01
4.000000e+02 7.000000e+02 1.700000e+02
4.000000e+02 7.000000e+02 2.700000e+02
4.000000e+02 7.000000e+02 3.700000e+02
4.000000e+02 7.000000e+02 4.700000e+02
4.000000e+02 8.000000e+02 -3.000000e+01
4.000000e+02 8.000000e+02 7.000000e+01
4.000000e+02 8.000000e+02 1.700000e+02
4.000000e+02 8.000000e+02 2.700000e+02
4.000000e+02 8.000000e+02 3.700000e+02
4.000000e+02 8.000000e+02 4.700000e+02
4.000000e+02 9.000000e+02 -3.000000e+01
4.000000e+02 9.000000e+02 7.000000e+01
4.000000e+02 9.000000e+02 1.700000e+02
4.000000e+02 9.000000e+02 2.700000e+02
4.000000e+02 9.000000e+02 3.700000e+02
4.000000e+02 9.000000e+02 4.700000e+02
4.000000e+02 1.000000e+03 -3.000000e+01
4.000000e+02 1.000000e+03 7.000000e+01
4.000000e+02 1.000000e+03 1.700000e+02
4.000000e+02 1.000000e+03 2.700000e+02
4.000000e+02 1.000000e+03 3.700000e+02
4.000000e+02 1.000000e+03 4.700000e+02
5.000000e+02 0.000000e+00 -3.000000e+01
5.000000e+02 0.000000e+00 7.000000e+01
5.000000e+02 0.000000e+00 1.700000e+02
5.000000e+02 0.000000e+00 2.700000e+02
5.000000e+02 0.000000e+00 3.700000e+02
5.000000e+02 0.000000e+00 4.700000e+02
5.000000e+02 1.000000e+02 -3.000000e+01
5.000000e+02 1.000000e+02 7.000000e+01
5.000000e+02 1.000000e+02 1.700000e+02
5.000000e+02 1.000000e+02 2.700000e+02
5.000000e+02 1.000000e+02 3.700000e+02
5.000000e+02 1.000000e+02 4.700000e+02
5.000000e+02 2.000000e+02 -3.000000e+01
5.000000e+02 2.000000e+02 7.000000e+01
5.000000e+02 2.000000e+02 1.700000e+02
5.000000e+02 2.000000e+02 2.700000e+02
5.000000e+02 2.000000e+02 3.700000e+02
5.000000e+02 2.000000e+02 4.700000e+02
5.000000e+02 3.000000e+02 -3.000000e+01
5.000000e+02 3.000000e+02 7.000000e+01
5.000000e+02 3.000000e+02 1.700000e+02
5.000000e+02 3.000000e+02 2.700000e+02
5.000000e+02 3.000000e+02 3.700000e+02
5.000000e+02 3.000000e+02 4.700000e+02
5.000000e+02 4.000000e+02 -3.000000e+01
5.000000e+02 4.000000e+02 7.000000e+01
5.000000e+02 4.000000e+02 1.700000e+02
5.000000e+02 4.000000e+02 2.700000e+02
5.000000e+02 4.000000e+02 3.700000e+02
5.000000e+02 4.000000e+02 4.700000e+02
5.000000e+02 5.000000e+02 -3.000000e+01
5.000000e+02 5.000000e+02 7.000000e+01
5.000000e+02 5.000000e+02 1.700000e+02
5.000000e+02 5.000000e+02 2.700000e+02
5.000000e+02 5.000000e+02 3.700000e+02
5.000000e+02 5.000000e+02 4.700000e+02
5.000000e+02 6.000000e+02 -3.000000e+01
5.000000e+02 6.000000e+02 7.000000e+01
5.000000e+02 6.000000e+02 1.700000e+02
5.000000e+02 6.000000e+02 2.700000e+02
5.000000e+02 6.000000e+02 3.700000e+02
5.000000e+02 6.000000e+02 4.700000e+02
5.000000e+02 7.000000e+02 -3.000000e+01
5.000000e+02 7.000000e+02 7.000000e+01
5.000000e+02 7.000000e+02 1.700000e+02
5.000000e+02 7.000000e+02 2.700000e+02
5.000000e+02 7.000000e+02 3.700000e+02
5.000000e+02 7.000000e+02 4.700000e+02
5.000000e+02 8.000000e+02 -3.000000e+01
5.000000e+02 8.000000e+02 7.000000e+01
5.000000e+02 8.000000e+02 1.700000e+02
5.000000e+02 8.000000e+02 2.700000e+02
5.000000e+02 8.000000e+02 3.700000e+02
5.000000e+02 8.000000e+02 4.700000e+02
5.000000e+02 9.000000e+02 -3.000000e+01
5.000000e+02 9.000000e+02 7.000000e+01
5.000000e+02 9.000000e+02 1.700000e+02
5.000000e+02 9.000000e+02 2.700000e+02
5.000000e+02 9.000000e+02 3.700000e+02
5.000000e+02 9.000000e+02 4.700000e+02
5.000000e+02 1.000000e+03 -3.000000e+01
5.000000e+02 1.000000e+03 7.000000e+01
5.000000e+02 1.000000e+03 1.700000e+02
5.000000e+02 1.000000e+03 2.700000e+02
5.000000e+02 1.000000e+03 3.700000e+02
5.000000e+02 1.000000e+03 4.700000e+02
6.000000e+02 0.000000e+00 -3.000000e+01
6.000000e+02 0.000000e+00 7.000000e+01
6.000000e+02 0.000000e+00 1.700000e+02
6.000000e+02 0.000000e+00 2.700000e+02
6.000000e+02 0.000000e+00 3.700000e+02
6.000000e+02 0.000000e+00 4.700000e+02
6.000000e+02 1.000000e+02 -3.000000e+01
6.000000e+02 1.000000e+02 7.000000e+01
6.000000e+02 1.000000e+02 1.700000e+02
6.000000e+02 1.000000e+02 2.700000e+02
6.000000e+02 1.000000e+02 3.700000e+02
6.000000e+02 1.000000e+02 4.700000e+02
6.000000e+02 2.000000e+02 -3.000000e+01
6.000000e+02 2.000000e+02 7.000000e+01
6.000000e+02 2.000000e+02 1.700000e+02
6.000000e+02 2.000000e+02 2.700000e+02
6.000000e+02 2.000000e+02 3.700000e+02
6.000000e+02 2.000000e+02 4.700000e+02
6.000000e+02 3.000000e+02 -3.000000e+01
6.000000e+02 3.000000e+02 7.000000e+01
6.000000e+02 3.000000e+02 1.700000e+02
6.000000e+02 3.000000e+02 2.700000e+02
6.000000e+02 3.000000e+02 3.700000e+02
6.000000e+02 3.000000e+02 4.700000e+02
6.000000e+02 4.000000e+02 -3.000000e+01
6.000000e+02 4.000000e+02 7.000000e+01
6.000000e+02 4.000000e+02 1.700000e+02
6.000000e+02 4.000000e+02 2.700000e+02
6.000000e+02 4.000000e+02 3.700000e+02
6.000000e+02 4.000000e+02 4.700000e+02
6.000000e+02 5.000000e+02 -3.000000e+01
6.000000e+02 5.000000e+02 7.000000e+01
6.000000e+02 5.000000e+02 1.700000e+02
6.000000e+02 5.000000e+02 2.700000e+02
6.000000e+02 5.000000e+02 3.700000e+02
6.000000e+02 5.000000e+02 4.700000e+02
6.000000e+02 6.000000e+02 -3.000000e+01
6.000000e+02 6.000000e+02 7.000000e+01
6.000000e+02 6.000000e+02 1.700000e+02
6.000000e+02 6.000000e+02 2.700000e+02
6.000000e+02 6.000000e+02 3.700000e+02
6.000000e+02 6.000000e+02 4.700000e+02
6.000000e+02 7.000000e+02 -3.000000e+01
6.000000e+02 7.000000e+02 7.000000e+01
6.000000e+02 7.000000e+02 1.700000e+02
6.000000e+02 7.000000e+02 2.700000e+02
6.000000e+02 7.000000e+02 3.700000e+02
6.000000e+02 7.000000e+02 4.700000e+02
6.000000e+02 8.000000e+02 -3.000000e+01
6.000000e+02 8.000000e+02 7.000000e+01
6.000000e+02 8.000000e+02 1.700000e+02
6.000000e+02 8.000000e+02 2.700000e+02
6.000000e+02 8.000000e+02 3.700000e+02
6.000000e+02 8.000000e+02 4.700000e+02
6.000000e+02 9.000000e+02 -3.000000e+01
6.000000e+02 9.000000e+02 7.000000e+01
6.000000e+02 9.000000e+02 1.700000e+02
6.000000e+02 9.000000e+02 2.700000e+02
6.000000e+02 9.000000e+02 3.700000e+02
6.000000e+02 9.000000e+02 4.700000e+02
6.000000e+02 1.000000e+03 -3.000000e+01
6.000000e+02 1.000000e+03 7.000000e+01
6.000000e+02 1.000000e+03 1.700000e+02
6.000000e+02 1.000000e+03 2.700000e+02
6.000000e+02 1.000000e+03 3.700000e+02
6.000000e+02 1.000000e+03 4.700000e+02
7.000000e+02 0.000000e+00 -3.000000e+01
7.000000e+02 0.000000e+00 7.000000e+01
7.000000e+02 0.000000e+00 1.700000e+02
7.000000e+02 0.000000e+00 2.700000e+02
7.000000e+02 0.000000e+00 3.700000e+02
7.000000e+02 0.000000e+00 4.700000e+02
7.000000e+02 1.000000e+02 -3.000000e+01
7.000000e+02 1.000000e+02 7.000000e+01
7.000000e+02 1.000000e+02 1.700000e+02
7.000000e+02 1.000000e+02 2.700000e+02
7.000000e+02 1.000000e+02 3.700000e+02
7.000000e+02 1.000000e+02 4.700000e+02
7.000000e+02 2.000000e+02 -3.000000e+01
7.000000e+02 2.000000e+02 7.000000e+01
7.000000e+02 2.000000e+02 1.700000e+02
7.000000e+02 2.000000e+02 2.700000e+02
7.000000e+02 2.000000e+02 3.700000e+02
7.000000e+02 2.000000e+02 4.700000e+02
7.000000e+02 3.000000e+02 -3.000000e+01
7.000000e+02 3.000000e+02 7.000000e+01
7.000000e+02 3.000000e+02 1.700000e+02
7.000000e+02 3.000000e+02 2.700000e+02
7.000000e+02 3.000000e+02 3.700000e+02
7.000000e+02 3.000000e+02 4.700000e+02
7.000000e+02 4.000000e+02 -3.000000e+01
7.000000e+02 4.000000e+02 7.000000e+01
7.000000e+02 4.000000e+02 1.700000e+02
7.000000e+02 4.000000e+02 2.700000e+02
7.000000e+02 4.000000e+02 3.700000e+02
7.000000e+02 4.000000e+02 4.700000e+02
7.000000e+02 5.000000e+02 -3.000000e+01
7.000000e+02 5.000000e+02 7.000000e+01
7.000000e+02 5.000000e+02 1.700000e+02
7.000000e+02 5.000000e+02 2.700000e+02
7.000000e+02 5.000000e+02 3.700000e+02
7.000000e+02 5.000000e+02 4.700000e+02
7.000000e+02 6.000000e+02 -3.000000e+01
7.000000e+02 6.000000e+02 7.000000e+01
7.000000e+02 6.000000e+02 1.700000e+02
7.000000e+02 6.000000e+02 2.700000e+02
7.000000e+02 6.000000e+02 3.700000e+02
7.000000e+02 6.000000e+02 4.700000e+02
7.000000e+02 7.000000e+02 -3.000000e+01
7.000000e+02 7.000000e+02 7.000000e+01
7.000000e+02 7.000000e+02 1.700000e+02
7.000000e+02 7.000000e+02 2.700000e+02
7.000000e+02 7.000000e+02 3.700000e+02
7.000000e+02 7.000000e+02 4.700000e+02
7.000000e+02 8.000000e+02 -3.000000e+01
7.000000e+02 8.000000e+02 7.000000e+01
7.000000e+02 8.000000e+02 1.700000e+02
7.000000e+02 8.000000e+02 2.700000e+02
7.000000e+02 8.000000e+02 3.700000e+02
7.000000e+02 8.000000e+02 4.700000e+02
7.000000e+02 9.000000e+02 -3.000000e+01
7.000000e+02 9.000000e+02 7.000000e+01
7.000000e+02 9.000000e+02 1.700000e+02
7.000000e+02 9.000000e+02 2.700000e+02
7.000000e+02 9.000000e+02 3.700000e+02
7.000000e+02 9.000000e+02 4.700000e+02
7.000000e+02 1.000000e+03 -3.000000e+01
7.000000e+02 1.000000e+03 7.000000e+01
7.000000e+02 1.000000e+03 1.700000e+02
7.000000e+02 1.000000e+03 2.700000e+02
7.000000e+02 1.000000e+03 3.700000e+02
7.000000e+02 1.000000e+03 4.700000e+02
8.000000e+02 0.000000e+00 -3.000000e+01
8.000000e+02 0.000000e+00 7.000000e+01
8.000000e+02 0.000000e+00 1.700000e+02
8.000000e+02 0.000000e+00 2.700000e+02
8.000000e+02 0.000000e+00 3.700000e+02
8.000000e+02 0.000000e+00 4.700000e+02
8.000000e+02 1.000000e+02 -3.000000e+01
8.000000e+02 1.000000e+02 7.000000e+01
8.000000e+02 1.000000e+02 1.700000e+02
8.000000e+02 1.000000e+02 2.700000e+02
8.000000e+02 1.000000e+02 3.700000e+02
8.000000e+02 1.000000e+02 4.700000e+02
8.000000e+02 2.000000e+02 -3.000000e+01
8.000000e+02 2.000000e+02 7.000000e+01
8.000000e+02 2.000000e+02 1.700000e+02
8.000000e+02 2.000000e+02 2.700000e+02
8.000000e+02 2.000000e+02 3.700000e+02
8.000000e+02 2.000000e+02 4.700000e+02
8.000000e+02 3.000000e+02 -3.000000e+01
8.000000e+02 3.000000e+02 7.000000e+01
8.000000e+02 3.000000e+02 1.700000e+02
8.000000e+02 3.000000e+02 2.700000e+02
8.000000e+02 3.000000e+02 3.700000e+02
8.000000e+02 3.000000e+02 4.700000e+02
8.000000e+02 4.000000e+02 -3.000000e+01
8.000000e+02 4.000000e+02 7.000000e+01
8.000000e+02 4.000000e+02 1.700000e+02
8.000000e+02 4.000000e+02 2.700000e+02
8.000000e+02 4.000000e+02 3.700000e+02
8.000000e+02 4.000000e+02 4.700000e+02
8.000000e+02 5.000000e+02 -3.000000e+01
8.000000e+02 5.000000e+02 7.000000e+01
8.000000e+02 5.000000e+02 1.700000e+02
8.000000e+02 5.000000e+02 2.700000e+02
8.000000e+02 5.000000e+02 3.700000e+02
8.000000e+02 5.000000e+02 4.700000e+02
8.000000e+02 6.000000e+02 -3.000000e+01
8.000000e+02 6.000000e+02 7.000000e+01
8.000000e+02 6.000000e+02 1.700000e+02
8.000000e+02 6.000000e+02 2.700000e+02
8.000000e+02 6.000000e+02 3.700000e+02
8.000000e+02 6.000000e+02 4.700000e+02
8.000000e+02 7.000000e+02 -3.000000e+01
8.000000e+02 7.000000e+02 7.000000e+01
8.000000e+02 7.000000e+02 1.700000e+02
8.000000e+02 7.000000e+02 2.700000e+02
8.000000e+02 7.000000e+02 3.700000e+02
8.000000e+02 7.000000e+02 4.700000e+02
8.000000e+02 8.000000e+02 -3.000000e+01
8.000000e+02 8.000000e+02 7.000000e+01
8.000000e+02 8.000000e+02 1.700000e+02
8.000000e+02 8.000000e+02 2.700000e+02
8.000000e+02 8.000000e+02 3.700000e+02
8.000000e+02 8.000000e+02 4.700000e+02
8.000000e+02 9.000000e+02 -3.000000e+01
8.000000e+02 9.000000e+02 7.000000e+01
8.000000e+02 9.000000e+02 1.700000e+02
8.000000e+02 9.000000e+02 2.700000e+02
8.000000e+02 9.000000e+02 3.700000e+02
8.000000e+02 9.000000e+02 4.700000e+02
8.000000e+02 1.000000e+03 -3.000000e+01
8.000000e+02 1.000000e+03 7.000000e+01
8.000000e+02 1.000000e+03 1.700000e+02
8.000000e+02 1.000000e+03 2.700000e+02
8.000000e+02 1.000000e+03 3.700000e+02
8.000000e+02 1.000000e+03 4.700000e+02
CELLS 912 8208
8 0 1 2 3 4 5 6 7
8 8 9 10 11 12 13 14 15
8 11 16 17 18 15 19 20 21
8 22 23 24 25 26 27 28 29
8 30 24 23 31 32 28 27 33
8 34 22 25 35 36 26 29 37
8 38 39 40 41 42 43 44 45
8 46 47 48 49 50 51 52 53
8 54 55 56 57 58 59 60 61
8 57 62 18 63 61 64 21 65
8 8 11 18 62 12 15 21 64
8 66 56 1 0 67 60 5 4
8 68 62 66 69 70 64 67 71
8 62 57 56 66 64 61 60 67
8 8 62 68 9 12 64 70 13
8 68 69 72 73 70 71 74 75
8 73 76 9 68 75 77 13 70
8 10 9 76 78 14 13 77 79
8 24 16 80 25 28 19 81 29
8 82 83 84 49 85 86 87 53
8 88 89 90 91 92 93 94 95
8 46 49 84 96 50 53 87 97
8 98 46 96 99 100 50 97 101
8 102 34 35 47 103 36 37 51
8 104 25 80 41 105 29 81 45
8 98 102 47 46 100 103 51 50
8 63 18 17 30 65 21 20 32
8 41 40 106 104 45 44 107 105
8 40 49 48 106 44 53 52 107
8 108 90 82 39 109 94 85 43
8 110 54 57 63 111 58 61 65
8 17 16 24 30 20 19 28 32
8 25 104 106 35 29 105 107 37
8 69 66 0 112 71 67 4 113
8 31 110 63 30 33 111 65 32
8 90 108 114 91 94 109 115 95
8 89 83 82 90 93 86 85 94
8 116 72 69 112 117 74 71 113
8 108 39 38 114 109 43 42 115
8 3 116 112 0 7 117 113 4
8 2 1 56 55 6 5 60 59
8 47 35 106 48 51 37 107 52
8 39 82 49 40 43 85 53 44
8 99 96 118 119 101 97 120 121
8 96 84 122 118 97 87 123 120
8 84 83 124 122 87 86 125 123
8 83 89 126 124 86 93 127 125
8 89 88 128 126 93 92 129 127
8 119 118 130 131 121 120 132 133
8 118 122 134 130 120 123 135 132
8 122 124 136 134 123 125 137 135
8 124 126 138 136 125 127 139 137
8 126 128 140 138 127 129 141 139
8 131 130 142 143 133 132 144 145
8 130 134 146 142 132 135 147 144
8 134 136 148 146 135 137 149 147
8 136 138 150 148 137 139 151 149
8 138 140 152 150 139 141 153 151
8 143 142 154 155 145 144 156 157
8 142 146 158 154 144 147 159 156
8 146 148 160 158 147 149 161 159
8 148 150 162 160 149 151 163 161
8 150 152 164 162 151 153 165 163
8 155 154 166 167 157 156 168 169
8 154 158 170 166 156 159 171 168
8 158 160 172 170 159 161 173 171
8 160 162 174 172 161 163 175 173
8 162 164 176 174 163 165 177 175
8 167 166 178 179 169 168 180 181
8 166 170 182 178 168 171 183 180
8 170 172 184 182 171 173 185 183
8 172 174 186 184 173 175 187 185
8 174 176 188 186 175 177 189 187
8 179 178 190 191 181 180 192 193
8 178 182 194 190 180 183 195 192
8 182 184 196 194 183 185 197 195
8 184 186 198 196 185 187 199 197
8 186 188 200 198 187 189 201 199
8 191 190 202 203 193 192 204 205
8 190 194 206 202 192 195 207 204
8 194 196 208 206 195 197 209 207
8 196 198 210 208 197 199 211 209
8 198 200 212 210 199 201 213 211
8 203 202 214 215 205 204 216 217
8 202 206 218 214 204 207 219 216
8 206 208 220 218 207 209 221 219
8 208 210 222 220 209 211 223 221
8 210 212 224 222 211 213 225 223
8 215 214 226 227 217 216 228 229
8 214 218 230 226 216 219 231 228
8 218 220 232 230 219 221 233 231
8 220 222 234 232 221 223 235 233
8 222 224 236 234 223 225 237 235
8 227 226 238 239 229 228 240 241
8 226 230 242 238 228 231 243 240
8 230 232 244 242 231 233 245 243
8 232 234 246 244 233 235 247 245
8 234 236 248 246 235 237 249 247
8 239 238 250 251 241 240 252 253
8 238 242 254 250 240 243 255 252
8 242 244 256 254 243 245 257 255
8 244 246 258 256 245 247 259 257
8 246 248 260 258 247 249 261 259
8 251 250 262 263 253 252 264 265
8 250 254 266 262 252 255 267 264
8 254 256 268 266 255 257 269 267
8 256 258 270 268 257 259 271 269
8 258 260 272 270 259 261 273 271
8 263 262 274 275 265 264 276 277
8 262 266 278 274 264 267 279 276
8 266 268 280 278 267 269 281 279
8 268 270 282 280 269 271 283 281
8 270 272 284 282 271 273 285 283
8 286 287 288 289 290 291 292 293
8 287 294 295 288 291 296 297 292
8 294 203 215 295 296 205 217 297
8 289 288 298 299 293 292 300 301
8 288 295 302 298 292 297 303 300
8 295 215 227 302 297 217 229 303
8 299 298 304 305 301 300 306 307
8 298 302 308 304 300 303 309 306
8 302 227 239 308 303 229 241 309
8 305 304 310 311 307 306 312 313
8 304 308 314 310 306 309 315 312
8 308 239 251 314 309 241 253 315
8 311 310 316 317 313 312 318 319
8 310 314 320 316 312 315 321 318
8 314 251 263 320 315 253 265 321
8 317 316 322 323 319 318 324 325
8 316 320 326 322 318 321 327 324
8 320 263 275 326 321 265 277 327
8 119 131 328 329 121 133 330 331
8 131 143 332 328 133 145 333 330
8 143 155 334 332 145 157 335 333
8 155 167 336 334 157 169 337 335
8 167 179 338 336 169 181 339 337
8 179 191 340 338 181 193 341 339
8 191 203 294 340 193 205 296 341
8 329 328 342 343 331 330 344 345
8 328 332 346 342 330 333 347 344
8 332 334 348 346 333 335 349 347
8 334 336 350 348 335 337 351 349
8 336 338 352 350 337 339 353 351
8 338 340 354 352 339 341 355 353
8 340 294 287 354 341 296 291 355
8 287 286 356 354 291 290 357 355
8 354 356 358 352 355 357 359 353
8 352 358 360 350 353 359 361 351
8 350 360 362 348 351 361 363 349
8 348 362 364 346 349 363 365 347
8 346 364 366 342 347 365 367 344
8 342 366 368 343 344 367 369 345
8 368 370 329 343 369 371 331 345
8 370 99 119 329 371 101 121 331
8 372 373 374 375 376 377 378 379
8 380 381 382 383 384 385 386 387
8 388 389 390 391 392 393 394 395
8 391 396 397 398 395 399 400 401
8 402 398 397 403 404 401 400 405
8 406 407 408 409 410 411 412 413
8 414 388 402 415 416 392 404 417
8 390 389 418 419 394 393 420 421
8 422 382 423 424 425 386 426 427
8 428 383 382 422 429 387 386 425
8 383 428 430 431 387 429 432 433
8 434 408 407 435 436 412 411 437
8 408 434 438 403 412 436 439 405
8 409 397 396 440 413 400 399 441
8 442 443 440 444 445 446 441 447
8 448 449 450 451 452 453 454 455
8 456 451 450 457 458 455 454 459
8 440 443 460 409 441 446 461 413
8 462 463 464 465 466 467 468 469
8 406 409 460 456 410 413 461 458
8 443 442 448 451 446 445 452 455
8 457 450 449 470 459 454 453 471
8 451 456 460 443 455 458 461 446
8 462 465 435 407 466 469 437 411
8 414 472 389 388 416 473 393 392
8 474 418 389 472 475 420 393 473
8 418 474 372 375 420 475 376 379
8 424 423 374 476 427 426 378 477
8 373 478 476 374 377 479 477 378
8 403 438 415 402 405 439 417 404
8 397 409 408 403 400 413 412 405
8 388 391 398 402 392 395 401 404
8 382 381 480 423 386 385 481 426
8 457 470 464 463 459 471 468 467
8 456 457 463 406 458 459 467 410
8 406 463 462 407 410 467 466 411
8 419 418 381 380 421 420 385 384
8 375 480 381 418 379 481 385 420
8 374 423 480 375 378 426 481 379
8 478 482 483 476 479 484 485 477
8 482 486 487 483 484 488 489 485
8 486 490 491 487 488 492 493 489
8 490 494 495 491 492 496 497 493
8 494 498 499 495 496 500 501 497
8 498 502 503 499 500 504 505 501
8 502 506 507 503 504 508 509 505
8 506 510 511 507 508 512 513 509
8 510 514 515 511 512 516 517 513
8 514 518 519 515 516 520 521 517
8 518 522 523 519 520 524 525 521
8 522 526 527 523 524 528 529 525
8 526 530 531 527 528 532 533 529
8 530 534 535 531 532 536 537 533
8 476 483 538 424 477 485 539 427
8 483 487 540 538 485 489 541 539
8 487 491 542 540 489 493 543 541
8 491 495 544 542 493 497 545 543
8 495 499 546 544 497 501 547 545
8 499 503 548 546 501 505 549 547
8 503 507 550 548 505 509 551 549
8 507 511 552 550 509 513 553 551
8 511 515 554 552 513 517 555 553
8 515 519 556 554 517 521 557 555
8 519 523 558 556 521 525 559 557
8 523 527 560 558 525 529 561 559
8 527 531 562 560 529 533 563 561
8 531 535 564 562 533 537 565 563
8 424 538 566 422 427 539 567 425
8 538 540 568 566 539 541 569 567
8 540 542 570 568 541 543 571 569
8 542 544 572 570 543 545 573 571
8 544 546 574 572 545 547 575 573
8 546 548 576 574 547 549 577 575
8 548 550 578 576 549 551 579 577
8 550 552 580 578 551 553 581 579
8 552 554 582 580 553 555 583 581
8 554 556 584 582 555 557 585 583
8 556 558 586 584 557 559 587 585
8 558 560 588 586 559 561 589 587
8 560 562 590 588 561 563 591 589
8 562 564 592 590 563 565 593 591
8 422 566 594 428 425 567 595 429
8 566 568 596 594 567 569 597 595
8 568 570 598 596 569 571 599 597
8 570 572 600 598 571 573 601 599
8 572 574 602 600 573 575 603 601
8 574 576 604 602 575 577 605 603
8 576 578 606 604 577 579 607 605
8 578 580 608 606 579 581 609 607
8 580 582 610 608 581 583 611 609
8 582 584 612 610 583 585 613 611
8 584 586 614 612 585 587 615 613
8 586 588 616 614 587 589 617 615
8 588 590 618 616 589 591 619 617
8 590 592 620 618 591 593 621 619
8 428 594 622 430 429 595 623 432
8 594 596 624 622 595 597 625 623
8 596 598 626 624 597 599 627 625
8 598 600 628 626 599 601 629 627
8 600 602 630 628 601 603 631 629
8 602 604 632 630 603 605 633 631
8 604 606 634 632 605 607 635 633
8 606 608 636 634 607 609 637 635
8 608 610 638 636 609 611 639 637
8 610 612 640 638 611 613 641 639
8 612 614 642 640 613 615 643 641
8 614 616 644 642 615 617 645 643
8 616 618 646 644 617 619 647 645
8 618 620 648 646 619 621 649 647
8 358 356 650 651 359 357 652 653
8 356 286 654 650 357 290 655 652
8 286 289 656 654 290 293 657 655
8 289 299 658 656 293 301 659 657
8 299 305 660 658 301 307 661 659
8 305 311 662 660 307 313 663 661
8 311 317 664 662 313 319 665 663
8 317 323 666 664 319 325 667 665
8 651 650 668 669 653 652 670 671
8 650 654 672 668 652 655 673 670
8 654 656 674 672 655 657 675 673
8 656 658 676 674 657 659 677 675
8 658 660 678 676 659 661 679 677
8 660 662 680 678 661 663 681 679
8 662 664 682 680 663 665 683 681
8 664 666 684 682 665 667 685 683
8 669 668 686 687 671 670 688 689
8 668 672 690 686 670 673 691 688
8 672 674 692 690 673 675 693 691
8 674 676 694 692 675 677 695 693
8 676 678 696 694 677 679 697 695
8 678 680 698 696 679 681 699 697
8 680 682 700 698 681 683 701 699
8 682 684 702 700 683 685 703 701
8 687 686 704 705 689 688 706 707
8 686 690 708 704 688 691 709 706
8 690 692 710 708 691 693 711 709
8 692 694 712 710 693 695 713 711
8 694 696 714 712 695 697 715 713
8 696 698 716 714 697 699 717 715
8 698 700 718 716 699 701 719 717
8 700 702 720 718 701 703 721 719
8 705 704 722 723 707 706 724 725
8 704 708 726 722 706 709 727 724
8 708 710 728 726 709 711 729 727
8 710 712 730 728 711 713 731 729
8 712 714 732 730 713 715 733 731
8 714 716 734 732 715 717 735 733
8 716 718 736 734 717 719 737 735
8 718 720 738 736 719 721 739 737
8 723 722 740 741 725 724 742 743
8 722 726 744 740 724 727 745 742
8 726 728 746 744 727 729 747 745
8 728 730 748 746 729 731 749 747
8 730 732 750 748 731 733 751 749
8 732 734 752 750 733 735 753 751
8 734 736 754 752 735 737 755 753
8 736 738 756 754 737 739 757 755
8 758 759 760 761 762 763 764 765
8 761 760 766 767 765 764 768 769
8 767 766 770 771 769 768 772 773
8 771 770 774 775 773 772 776 777
8 775 774 778 779 777 776 780 781
8 779 778 782 783 781 780 784 785
8 783 782 786 787 785 784 788 789
8 759 790 791 760 763 792 793 764
8 790 510 506 791 792 512 508 793
8 760 791 794 766 764 793 795 768
8 791 506 502 794 793 508 504 795
8 766 794 796 770 768 795 797 772
8 794 502 498 796 795 504 500 797
8 770 796 798 774 772 797 799 776
8 796 498 494 798 797 500 496 799
8 774 798 800 778 776 799 801 780
8 798 494 490 800 799 496 492 801
8 778 800 802 782 780 801 803 784
8 800 490 486 802 801 492 488 803
8 782 802 804 786 784 803 805 788
8 802 486 482 804 803 488 484 805
8 482 478 806 804 484 479 807 805
8 804 806 787 786 805 807 789 788
8 510 790 808 514 512 792 809 516
8 790 759 810 808 792 763 811 809
8 759 758 812 810 763 762 813 811
8 514 808 814 518 516 809 815 520
8 808 810 816 814 809 811 817 815
8 810 812 818 816 811 813 819 817
8 518 814 820 522 520 815 821 524
8 814 816 822 820 815 817 823 821
8 816 818 824 822 817 819 825 823
8 522 820 826 526 524 821 827 528
8 820 822 828 826 821 823 829 827
8 822 824 830 828 823 825 831 829
8 526 826 832 530 528 827 833 532
8 826 828 834 832 827 829 835 833
8 828 830 836 834 829 831 837 835
8 530 832 838 534 532 833 839 536
8 832 834 840 838 833 835 841 839
8 834 836 842 840 835 837 843 841
8 767 844 845 761 769 846 847 765
8 844 848 849 845 846 850 851 847
8 848 852 853 849 850 854 855 851
8 852 856 857 853 854 858 859 855
8 856 860 861 857 858 862 863 859
8 860 741 740 861 862 743 742 863
8 761 845 864 758 765 847 865 762
8 845 849 866 864 847 851 867 865
8 849 853 868 866 851 855 869 867
8 853 857 870 868 855 859 871 869
8 857 861 872 870 859 863 873 871
8 861 740 744 872 863 742 745 873
8 758 864 874 812 762 865 875 813
8 864 866 876 874 865 867 877 875
8 866 868 878 876 867 869 879 877
8 868 870 880 878 869 871 881 879
8 870 872 882 880 871 873 883 881
8 872 744 746 882 873 745 747 883
8 812 874 884 818 813 875 885 819
8 874 876 886 884 875 877 887 885
8 876 878 888 886 877 879 889 887
8 878 880 890 888 879 881 891 889
8 880 882 892 890 881 883 893 891
8 882 746 748 892 883 747 749 893
8 818 884 894 824 819 885 895 825
8 884 886 896 894 885 887 897 895
8 886 888 898 896 887 889 899 897
8 888 890 900 898 889 891 901 899
8 890 892 902 900 891 893 903 901
8 892 748 750 902 893 749 751 903
8 824 894 904 830 825 895 905 831
8 894 896 906 904 895 897 907 905
8 896 898 908 906 897 899 909 907
8 898 900 910 908 899 901 911 909
8 900 902 912 910 901 903 913 911
8 902 750 752 912 903 751 753 913
8 830 904 914 836 831 905 915 837
8 904 906 916 914 905 907 917 915
8 906 908 918 916 907 909 919 917
8 908 910 920 918 909 911 921 919
8 910 912 922 920 911 913 923 921
8 912 752 754 922 913 753 755 923
8 836 914 924 842 837 915 925 843
8 914 916 926 924 915 917 927 925
8 916 918 928 926 917 919 929 927
8 918 920 930 928 919 921 931 929
8 920 922 932 930 921 923 933 931
8 922 754 756 932 923 755 757 933
8 358 651 934 360 359 653 935 361
8 651 669 936 934 653 671 937 935
8 669 687 938 936 671 689 939 937
8 687 705 940 938 689 707 941 939
8 705 723 942 940 707 725 943 941
8 723 741 944 942 725 743 945 943
8 360 934 946 362 361 935 947 363
8 934 936 948 946 935 937 949 947
8 936 938 950 948 937 939 951 949
8 938 940 952 950 939 941 953 951
8 940 942 954 952 941 943 955 953
8 942 944 956 954 943 945 957 955
8 362 946 958 364 363 947 959 365
8 946 948 960 958 947 949 961 959
8 948 950 962 960 949 951 963 961
8 950 952 964 962 951 953 965 963
8 952 954 966 964 953 955 967 965
8 954 956 968 966 955 957 969 967
8 364 958 970 366 365 959 971 367
8 958 960 972 970 959 961 973 971
8 960 962 974 972 961 963 975 973
8 962 964 976 974 963 965 977 975
8 964 966 978 976 965 967 979 977
8 966 968 980 978 967 969 981 979
8 366 970 982 368 367 971 983 369
8 970 972 984 982 971 973 985 983
8 972 974 986 984 973 975 987 985
8 974 976 988 986 975 977 989 987
8 976 978 990 988 977 979 991 989
8 978 980 992 990 979 981 993 991
8 368 982 994 370 369 983 995 371
8 982 984 996 994 983 985 997 995
8 984 986 998 996 985 987 999 997
8 986 988 1000 998 987 989 1001 999
8 988 990 1002 1000 989 991 1003 1001
8 990 992 1004 1002 991 993 1005 1003
8 370 994 1006 99 371 995 1007 101
8 994 996 1008 1006 995 997 1009 1007
8 996 998 1010 1008 997 999 1011 1009
8 998 1000 1012 1010 999 1001 1013 1011
8 1000 1002 1014 1012 1001 1003 1015 1013
8 1002 1004 1016 1014 1003 1005 1017 1015
8 99 1006 1018 98 101 1007 1019 100
8 1006 1008 1020 1018 1007 1009 1021 1019
8 1008 1010 1022 1020 1009 1011 1023 1021
8 1010 1012 1024 1022 1011 1013 1025 1023
8 1012 1014 1026 1024 1013 1015 1027 1025
8 1014 1016 1028 1026 1015 1017 1029 1027
8 98 1018 1030 102 100 1019 1031 103
8 1018 1020 1032 1030 1019 1021 1033 1031
8 1020 1022 1034 1032 1021 1023 1035 1033
8 1022 1024 1036 1034 1023 1025 1037 1035
8 1024 1026 1038 1036 1025 1027 1039 1037
8 1026 1028 1040 1038 1027 1029 1041 1039
8 102 1030 1042 34 103 1031 1043 36
8 1030 1032 1044 1042 1031 1033 1045 1043
8 1032 1034 1046 1044 1033 1035 1047 1045
8 1034 1036 1048 1046 1035 1037 1049 1047
8 1036 1038 1050 1048 1037 1039 1051 1049
8 1038 1040 1052 1050 1039 1041 1053 1051
8 34 1042 1054 22 36 1043 1055 26
8 1042 1044 1056 1054 1043 1045 1057 1055
8 1044 1046 1058 1056 1045 1047 1059 1057
8 1046 1048 1060 1058 1047 1049 1061 1059
8 1048 1050 1062 1060 1049 1051 1063 1061
8 1050 1052 1064 1062 1051 1053 1065 1063
8 22 1054 1066 23 26 1055 1067 27
8 1054 1056 1068 1066 1055 1057 1069 1067
8 1056 1058 1070 1068 1057 1059 1071 1069
8 1058 1060 1072 1070 1059 1061 1073 1071
8 1060 1062 1074 1072 1061 1063 1075 1073
8 1062 1064 1076 1074 1063 1065 1077 1075
8 23 1066 1078 31 27 1067 1079 33
8 1066 1068 1080 1078 1067 1069 1081 1079
8 1068 1070 1082 1080 1069 1071 1083 1081
8 1070 1072 1084 1082 1071 1073 1085 1083
8 1072 1074 1086 1084 1073 1075 1087 1085
8 1074 1076 1088 1086 1075 1077 1089 1087
8 31 1078 1090 110 33 1079 1091 111
8 1078 1080 1092 1090 1079 1081 1093 1091
8 1080 1082 1094 1092 1081 1083 1095 1093
8 1082 1084 1096 1094 1083 1085 1097 1095
8 1084 1086 1098 1096 1085 1087 1099 1097
8 1086 1088 1100 1098 1087 1089 1101 1099
8 110 1090 1102 54 111 1091 1103 58
8 1090 1092 1104 1102 1091 1093 1105 1103
8 1092 1094 1106 1104 1093 1095 1107 1105
8 1094 1096 1108 1106 1095 1097 1109 1107
8 1096 1098 1110 1108 1097 1099 1111 1109
8 1098 1100 1112 1110 1099 1101 1113 1111
8 54 1102 1114 55 58 1103 1115 59
8 1102 1104 1116 1114 1103 1105 1117 1115
8 1104 1106 1118 1116 1105 1107 1119 1117
8 1106 1108 1120 1118 1107 1109 1121 1119
8 1108 1110 1122 1120 1109 1111 1123 1121
8 1110 1112 1124 1122 1111 1113 1125 1123
8 55 1114 1126 2 59 1115 1127 6
8 1114 1116 1128 1126 1115 1117 1129 1127
8 1116 1118 1130 1128 1117 1119 1131 1129
8 1118 1120 1132 1130 1119 1121 1133 1131
8 1120 1122 1134 1132 1121 1123 1135 1133
8 1122 1124 1136 1134 1123 1125 1137 1135
8 2 1126 1138 3 6 1127 1139 7
8 1126 1128 1140 1138 1127 1129 1141 1139
8 1128 1130 1142 1140 1129 1131 1143 1141
8 1130 1132 1144 1142 1131 1133 1145 1143
8 1132 1134 1146 1144 1133 1135 1147 1145
8 1134 1136 1148 1146 1135 1137 1149 1147
8 3 1138 1150 116 7 1139 1151 117
8 1138 1140 1152 1150 1139 1141 1153 1151
8 1140 1142 1154 1152 1141 1143 1155 1153
8 1142 1144 1156 1154 1143 1145 1157 1155
8 1144 1146 1158 1156 1145 1147 1159 1157
8 1146 1148 1160 1158 1147 1149 1161 1159
8 116 1150 1162 72 117 1151 1163 74
8 1150 1152 1164 1162 1151 1153 1165 1163
8 1152 1154 1166 1164 1153 1155 1167 1165
8 1154 1156 1168 1166 1155 1157 1169 1167
8 1156 1158 1170 1168 1157 1159 1171 1169
8 1158 1160 1172 1170 1159 1161 1173 1171
8 72 1162 1174 73 74 1163 1175 75
8 1162 1164 1176 1174 1163 1165 1177 1175
8 1164 1166 1178 1176 1165 1167 1179 1177
8 1166 1168 1180 1178 1167 1169 1181 1179
8 1168 1170 1182 1180 1169 1171 1183 1181
8 1170 1172 1184 1182 1171 1173 1185 1183
8 73 1174 1186 76 75 1175 1187 77
8 1174 1176 1188 1186 1175 1177 1189 1187
8 1176 1178 1190 1188 1177 1179 1191 1189
8 1178 1180 1192 1190 1179 1181 1193 1191
8 1180 1182 1194 1192 1181 1183 1195 1193
8 767 771 1196 844 769 773 1197 846
8 771 775 1198 1196 773 777 1199 1197
8 775 779 1200 1198 777 781 1201 1199
8 779 783 1202 1200 781 785 1203 1201
8 783 787 1204 1202 785 789 1205 1203
8 787 806 1206 1204 789 807 1207 1205
8 806 478 1208 1206 807 479 1209 1207
8 478 373 1210 1208 479 377 1211 1209
8 373 372 1212 1210 377 376 1213 1211
8 372 474 1214 1212 376 475 1215 1213
8 474 472 1216 1214 475 473 1217 1215
8 472 414 1218 1216 473 416 1219 1217
8 414 415 1220 1218 416 417 1221 1219
8 415 438 1222 1220 417 439 1223 1221
8 438 434 1224 1222 439 436 1225 1223
8 434 435 1226 1224 436 437 1227 1225
8 435 465 1228 1226 437 469 1229 1227
8 465 464 1230 1228 469 468 1231 1229
8 464 470 1232 1230 468 471 1233 1231
8 470 449 1234 1232 471 453 1235 1233
8 449 448 1236 1234 453 452 1237 1235
8 448 442 1238 1236 452 445 1239 1237
8 844 1196 1240 848 846 1197 1241 850
8 1196 1198 1242 1240 1197 1199 1243 1241
8 1198 1200 1244 1242 1199 1201 1245 1243
8 1200 1202 1246 1244 1201 1203 1247 1245
8 1202 1204 1248 1246 1203 1205 1249 1247
8 1204 1206 1250 1248 1205 1207 1251 1249
8 1206 1208 1252 1250 1207 1209 1253 1251
8 1208 1210 1254 1252 1209 1211 1255 1253
8 1210 1212 1256 1254 1211 1213 1257 1255
8 1212 1214 1258 1256 1213 1215 1259 1257
8 1214 1216 1260 1258 1215 1217 1261 1259
8 1216 1218 1262 1260 1217 1219 1263 1261
8 1218 1220 1264 1262 1219 1221 1265 1263
8 1220 1222 1266 1264 1221 1223 1267 1265
8 1222 1224 1268 1266 1223 1225 1269 1267
8 1224 1226 1270 1268 1225 1227 1271 1269
8 1226 1228 1272 1270 1227 1229 1273 1271
8 1228 1230 1274 1272 1229 1231 1275 1273
8 1230 1232 1276 1274 1231 1233 1277 1275
8 1232 1234 1278 1276 1233 1235 1279 1277
8 1234 1236 1280 1278 1235 1237 1281 1279
8 1236 1238 1282 1280 1237 1239 1283 1281
8 848 1240 1284 852 850 1241 1285 854
8 1240 1242 1286 1284 1241 1243 1287 1285
8 1242 1244 1288 1286 1243 1245 1289 1287
8 1244 1246 1290 1288 1245 1247 1291 1289
8 1246 1248 1292 1290 1247 1249 1293 1291
8 1248 1250 1294 1292 1249 1251 1295 1293
8 1250 1252 1296 1294 1251 1253 1297 1295
8 1252 1254 1298 1296 1253 1255 1299 1297
8 1254 1256 1300 1298 1255 1257 1301 1299
8 1256 1258 1302 1300 1257 1259 1303 1301
8 1258 1260 1304 1302 1259 1261 1305 1303
8 1260 1262 1306 1304 1261 1263 1307 1305
8 1262 1264 1308 1306 1263 1265 1309 1307
8 1264 1266 1310 1308 1265 1267 1311 1309
8 1266 1268 1312 1310 1267 1269 1313 1311
8 1268 1270 1314 1312 1269 1271 1315 1313
8 1270 1272 1316 1314 1271 1273 1317 1315
8 1272 1274 1318 1316 1273 1275 1319 1317
8 1274 1276 1320 1318 1275 1277 1321 1319
8 1276 1278 1322 1320 1277 1279 1323 1321
8 1278 1280 1324 1322 1279 1281 1325 1323
8 1280 1282 1326 1324 1281 1283 1327 1325
8 852 1284 1328 856 854 1285 1329 858
8 1284 1286 1330 1328 1285 1287 1331 1329
8 1286 1288 1332 1330 1287 1289 1333 1331
8 1288 1290 1334 1332 1289 1291 1335 1333
8 1290 1292 1336 1334 1291 1293 1337 1335
8 1292 1294 1338 1336 1293 1295 1339 1337
8 1294 1296 1340 1338 1295 1297 1341 1339
8 1296 1298 1342 1340 1297 1299 1343 1341
8 1298 1300 1344 1342 1299 1301 1345 1343
8 1300 1302 1346 1344 1301 1303 1347 1345
8 1302 1304 1348 1346 1303 1305 1349 1347
8 1304 1306 1350 1348 1305 1307 1351 1349
8 1306 1308 1352 1350 1307 1309 1353 1351
8 1308 1310 1354 1352 1309 1311 1355 1353
8 1310 1312 1356 1354 1311 1313 1357 1355
8 1312 1314 1358 1356 1313 1315 1359 1357
8 1314 1316 1360 1358 1315 1317 1361 1359
8 1316 1318 1362 1360 1317 1319 1363 1361
8 1318 1320 1364 1362 1319 1321 1365 1363
8 1320 1322 1366 1364 1321 1323 1367 1365
8 1322 1324 1368 1366 1323 1325 1369 1367
8 1324 1326 1370 1368 1325 1327 1371 1369
8 856 1328 1372 860 858 1329 1373 862
8 1328 1330 1374 1372 1329 1331 1375 1373
8 1330 1332 1376 1374 1331 1333 1377 1375
8 1332 1334 1378 1376 1333 1335 1379 1377
8 1334 1336 1380 1378 1335 1337 1381 1379
8 1336 1338 1382 1380 1337 1339 1383 1381
8 1338 1340 1384 1382 1339 1341 1385 1383
8 1340 1342 1386 1384 1341 1343 1387 1385
8 1342 1344 1388 1386 1343 1345 1389 1387
8 1344 1346 1390 1388 1345 1347 1391 1389
8 1346 1348 1392 1390 1347 1349 1393 1391
8 1348 1350 1394 1392 1349 1351 1395 1393
8 1350 1352 1396 1394 1351 1353 1397 1395
8 1352 1354 1398 1396 1353 1355 1399 1397
8 1354 1356 1400 1398 1355 1357 1401 1399
8 1356 1358 1402 1400 1357 1359 1403 1401
8 1358 1360 1404 1402 1359 1361 1405 1403
8 1360 1362 1406 1404 1361 1363 1407 1405
8 1362 1364 1408 1406 1363 1365 1409 1407
8 1364 1366 1410 1408 1365 1367 1411 1409
8 1366 1368 1412 1410 1367 1369 1413 1411
8 1368 1370 1414 1412 1369 1371 1415 1413
8 860 1372 944 741 862 1373 945 743
8 1372 1374 956 944 1373 1375 957 945
8 1374 1376 968 956 1375 1377 969 957
8 1376 1378 980 968 1377 1379 981 969
8 1378 1380 992 980 1379 1381 993 981
8 1380 1382 1004 992 1381 1383 1005 993
8 1382 1384 1016 1004 1383 1385 1017 1005
8 1384 1386 1028 1016 1385 1387 1029 1017
8 1386 1388 1040 1028 1387 1389 1041 1029
8 1388 1390 1052 1040 1389 1391 1053 1041
8 1390 1392 1064 1052 1391 1393 1065 1053
8 1392 1394 1076 1064 1393 1395 1077 1065
8 1394 1396 1088 1076 1395 1397 1089 1077
8 1396 1398 1100 1088 1397 1399 1101 1089
8 1398 1400 1112 1100 1399 1401 1113 1101
8 1400 1402 1124 1112 1401 1403 1125 1113
8 1402 1404 1136 1124 1403 1405 1137 1125
8 1404 1406 1148 1136 1405 1407 1149 1137
8 1406 1408 1160 1148 1407 1409 1161 1149
8 1408 1410 1172 1160 1409 1411 1173 1161
8 1410 1412 1184 1172 1411 1413 1185 1173
8 1416 1482 1488 1422 1417 1483 1489 1423
8 1417 1483 1489 1423 1418 1484 1490 1424
8 1418 1484 1490 1424 1419 1485 1491 1425
8 1419 1485 1491 1425 1420 1486 1492 1426
8 1420 1486 1492 1426 1421 1487 1493 1427
8 1422 1488 1494 1428 1423 1489 1495 1429
8 1423 1489 1495 1429 1424 1490 1496 1430
8 1424 1490 1496 1430 1425 1491 1497 1431
8 1425 1491 1497 1431 1426 1492 1498 1432
8 1426 1492 1498 1432 1427 1493 1499 1433
8 1428 1494 1500 1434 1429 1495 1501 1435
8 1429 1495 1501 1435 1430 1496 1502 1436
8 1430 1496 1502 1436 1431 1497 1503 1437
8 1431 1497 1503 1437 1432 1498 1504 1438
8 1432 1498 1504 1438 1433 1499 1505 1439
8 1434 1500 1506 1440 1435 1501 1507 1441
8 1435 1501 1507 1441 1436 1502 1508 1442
8 1436 1502 1508 1442 1437 1503 1509 1443
8 1437 1503 1509 1443 1438 1504 1510 1444
8 1438 1504 1510 1444 1439 1505 1511 1445
8 1440 1506 1512 1446 1441 1507 1513 1447
8 1441 1507 1513 1447 1442 1508 1514 1448
8 1442 1508 1514 1448 1443 1509 1515 1449
8 1443 1509 1515 1449 1444 1510 1516 1450
8 1444 1510 1516 1450 1445 1511 1517 1451
8 1446 1512 1518 1452 1447 1513 1519 1453
8 1447 1513 1519 1453 1448 1514 1520 1454
8 1448 1514 1520 1454 1449 1515 1521 1455
8 1449 1515 1521 1455 1450 1516 1522 1456
8 1450 1516 1522 1456 1451 1517 1523 1457
8 1452 1518 1524 1458 1453 1519 1525 1459
8 1453 1519 1525 1459 1454 1520 1526 1460
8 1454 1520 1526 1460 1455 1521 1527 1461
8 1455 1521 1527 1461 1456 1522 1528 1462
8 1456 1522 1528 1462 1457 1523 1529 1463
8 1458 1524 1530 1464 1459 1525 1531 1465
8 1459 1525 1531 1465 1460 1526 1532 1466
8 1460 1526 1532 1466 1461 1527 1533 1467
8 1461 1527 1533 1467 1462 1528 1534 1468
8 1462 1528 1534 1468 1463 1529 1535 1469
8 1464 1530 1536 1470 1465 1531 1537 1471
8 1465 1531 1537 1471 1466 1532 1538 1472
8 1466 1532 1538 1472 1467 1533 1539 1473
8 1467 1533 1539 1473 1468 1534 1540 1474
8 1468 1534 1540 1474 1469 1535 1541 1475
8 1470 1536 1542 1476 1471 1537 1543 1477
8 1471 1537 1543 1477 1472 1538 1544 1478
8 1472 1538 1544 1478 1473 1539 1545 1479
8 1473 1539 1545 1479 1474 1540 1546 1480
8 1474 1540 1546 1480 1475 1541 1547 1481
8 1482 1548 1554 1488 1483 1549 1555 1489
8 1483 1549 1555 1489 1484 1550 1556 1490
8 1484 1550 1556 1490 1485 1551 1557 1491
8 1485 1551 1557 1491 1486 1552 1558 1492
8 1486 1552 1558 1492 1487 1553 1559 1493
8 1488 1554 1560 1494 1489 1555 1561 1495
8 1489 1555 1561 1495 1490 1556 1562 1496
8 1490 1556 1562 1496 1491 1557 1563 1497
8 1491 1557 1563 1497 1492 1558 1564 1498
8 1492 1558 1564 1498 1493 1559 1565 1499
8 1494 1560 1566 1500 1495 1561 1567 1501
8 1495 1561 1567 1501 1496 1562 1568 1502
8 1496 1562 1568 1502 1497 1563 1569 1503
8 1497 1563 1569 1503 1498 1564 1570 1504
8 1498 1564 1570 1504 1499 1565 1571 1505
8 1500 1566 1572 1506 1501 1567 1573 1507
8 1501 1567 1573 1507 1502 1568 1574 1508
8 1502 1568 1574 1508 1503 1569 1575 1509
8 1503 1569 1575 1509 1504 1570 1576 1510
8 1504 1570 1576 1510 1505 1571 1577 1511
8 1506 1572 1578 1512 1507 1573 1579 1513
8 1507 1573 1579 1513 1508 1574 1580 1514
8 1508 1574 1580 1514 1509 1575 1581 1515
8 1509 1575 1581 1515 1510 1576 1582 1516
8 1510 1576 1582 1516 1511 1577 1583 1517
8 1512 1578 1584 1518 1513 1579 1585 1519
8 1513 1579 1585 1519 1514 1580 1586 1520
8 1514 1580 1586 1520 1515 1581 1587 1521
8 1515 1581 1587 1521 1516 1582 1588 1522
8 1516 1582 1588 1522 1517 1583 1589 1523
8 1518 1584 1590 1524 1519 1585 1591 1525
8 1519 1585 1591 1525 1520 1586 1592 1526
8 1520 1586 1592 1526 1521 1587 1593 1527
8 1521 1587 1593 1527 1522 1588 1594 1528
8 1522 1588 1594 1528 1523 1589 1595 1529
8 1524 1590 1596 1530 1525 1591 1597 1531
8 1525 1591 1597 1531 1526 1592 1598 1532
8 1526 1592 1598 1532 1527 1593 1599 1533
8 1527 1593 1599 1533 1528 1594 1600 1534
8 1528 1594 1600 1534 1529 1595 1601 1535
8 1530 1596 1602 1536 1531 1597 1603 1537
8 1531 1597 1603 1537 1532 1598 1604 1538
8 1532 1598 1604 1538 1533 1599 1605 1539
8 1533 1599 1605 1539 1534 1600 1606 1540
8 1534 1600 1606 1540 1535 1601 1607 1541
8 1536 1602 1608 1542 1537 1603 1609 1543
8 1537 1603 1609 1543 1538 1604 1610 1544
8 1538 1604 1610 1544 1539 1605 1611 1545
8 1539 1605 1611 1545 1540 1606 1612 1546
8 1540 1606 1612 1546 1541 1607 1613 1547
8 1548 1614 1620 1554 1549 1615 1621 1555
8 1549 1615 1621 1555 1550 1616 1622 1556
8 1550 1616 1622 1556 1551 1617 1623 1557
8 1551 1617 1623 1557 1552 1618 1624 1558
8 1552 1618 1624 1558 1553 1619 1625 1559
8 1554 1620 1626 1560 1555 1621 1627 1561
8 1555 1621 1627 1561 1556 1622 1628 1562
8 1556 1622 1628 1562 1557 1623 1629 1563
8 1557 1623 1629 1563 1558 1624 1630 1564
8 1558 1624 1630 1564 1559 1625 1631 1565
8 1560 1626 1632 1566 1561 1627 1633 1567
8 1561 1627 1633 1567 1562 1628 1634 1568
8 1562 1628 1634 1568 1563 1629 1635 1569
8 1563 1629 1635 1569 1564 1630 1636 1570
8 1564 1630 1636 1570 1565 1631 1637 1571
8 1566 1632 1638 1572 1567 1633 1639 1573
8 1567 1633 1639 1573 1568 1634 1640 1574
8 1568 1634 1640 1574 1569 1635 1641 1575
8 1569 1635 1641 1575 1570 1636 1642 1576
8 1570 1636 1642 1576 1571 1637 1643 1577
8 1572 1638 1644 1578 1573 1639 1645 1579
8 1573 1639 1645 1579 1574 1640 1646 1580
8 1574 1640 1646 1580 1575 1641 1647 1581
8 1575 1641 1647 1581 1576 1642 1648 1582
8 1576 1642 1648 1582 1577 1643 1649 1583
8 1578 1644 1650 1584 1579 1645 1651 1585
8 1579 1645 1651 1585 1580 1646 1652 1586
8 1580 1646 1652 1586 1581 1647 1653 1587
8 1581 1647 1653 1587 1582 1648 1654 1588
8 1582 1648 1654 1588 1583 1649 1655 1589
8 1584 1650 1656 1590 1585 1651 1657 1591
8 1585 1651 1657 1591 1586 1652 1658 1592
8 1586 1652 1658 1592 1587 1653 1659 1593
8 1587 1653 1659 1593 1588 1654 1660 1594
8 1588 1654 1660 1594 1589 1655 1661 1595
8 1590 1656 1662 1596 1591 1657 1663 1597
8 1591 1657 1663 1597 1592 1658 1664 1598
8 1592 1658 1664 1598 1593 1659 1665 1599
8 1593 1659 1665 1599 1594 1660 1666 1600
8 1594 1660 1666 1600 1595 1661 1667 1601
8 1596 1662 1668 1602 1597 1663 1669 1603
8 1597 1663 1669 1603 1598 1664 1670 1604
8 1598 1664 1670 1604 1599 1665 1671 1605
8 1599 1665 1671 1605 1600 1666 1672 1606
8 1600 1666 1672 1606 1601 1667 1673 1607
8 1602 1668 1674 1608 1603 1669 1675 1609
8 1603 1669 1675 1609 1604 1670 1676 1610
8 1604 1670 1676 1610 1605 1671 1677 1611
8 1605 1671 1677 1611 1606 1672 1678 1612
8 1606 1672 1678 1612 1607 1673 1679 1613
8 1614 1680 1686 1620 1615 1681 1687 1621
8 1615 1681 1687 1621 1616 1682 1688 1622
8 1616 1682 1688 1622 1617 1683 1689 1623
8 1617 1683 1689 1623 1618 1684 1690 1624
8 1618 1684 1690 1624 1619 1685 1691 1625
8 1620 1686 1692 1626 1621 1687 1693 1627
8 1621 1687 1693 1627 1622 1688 1694 1628
8 1622 1688 1694 1628 1623 1689 1695 1629
8 1623 1689 1695 1629 1624 1690 1696 1630
8 1624 1690 1696 1630 1625 1691 1697 1631
8 1626 1692 1698 1632 1627 1693 1699 1633
8 1627 1693 1699 1633 1628 1694 1700 1634
8 1628 1694 1700 1634 1629 1695 1701 1635
8 1629 1695 1701 1635 1630 1696 1702 1636
8 1630 1696 1702 1636 1631 1697 1703 1637
8 1632 1698 1704 1638 1633 1699 1705 1639
8 1633 1699 1705 1639 1634 1700 1706 1640
8 1634 1700 1706 1640 1635 1701 1707 1641
8 1635 1701 1707 1641 1636 1702 1708 1642
8 1636 1702 1708 1642 1637 1703 1709 1643
8 1638 1704 1710 1644 1639 1705 1711 1645
8 1639 1705 1711 1645 1640 1706 1712 1646
8 1640 1706 1712 1646 1641 1707 1713 1647
8 1641 1707 1713 1647 1642 1708 1714 1648
8 1642 1708 1714 1648 1643 1709 1715 1649
8 1644 1710 1716 1650 1645 1711 1717 1651
8 1645 1711 1717 1651 1646 1712 1718 1652
8 1646 1712 1718 1652 1647 1713 1719 1653
8 1647 1713 1719 1653 1648 1714 1720 1654
8 1648 1714 1720 1654 1649 1715 1721 1655
8 1650 1716 1722 1656 1651 1717 1723 1657
8 1651 1717 1723 1657 1652 1718 1724 1658
8 1652 1718 1724 1658 1653 1719 1725 1659
8 1653 1719 1725 1659 1654 1720 1726 1660
8 1654 1720 1726 1660 1655 1721 1727 1661
8 1656 1722 1728 1662 1657 1723 1729 1663
8 1657 1723 1729 1663 1658 1724 1730 1664
8 1658 1724 1730 1664 1659 1725 1731 1665
8 1659 1725 1731 1665 1660 1726 1732 1666
8 1660 1726 1732 1666 1661 1727 1733 1667
8 1662 1728 1734 1668 1663 1729 1735 1669
8 1663 1729 1735 1669 1664 1730 1736 1670
8 1664 1730 1736 1670 1665 1731 1737 1671
8 1665 1731 1737 1671 1666 1732 1738 1672
8 1666 1732 1738 1672 1667 1733 1739 1673
8 1668 1734 1740 1674 1669 1735 1741 1675
8 1669 1735 1741 1675 1670 1736 1742 1676
8 1670 1736 1742 1676 1671 1737 1743 1677
8 1671 1737 1743 1677 1672 1738 1744 1678
8 1672 1738 1744 1678 1673 1739 1745 1679
8 1680 1746 1752 1686 1681 1747 1753 1687
8 1681 1747 1753 1687 1682 1748 1754 1688
8 1682 1748 1754 1688 1683 1749 1755 1689
8 1683 1749 1755 1689 1684 1750 1756 1690
8 1684 1750 1756 1690 1685 1751 1757 1691
8 1686 1752 1758 1692 1687 1753 1759 1693
8 1687 1753 1759 1693 1688 1754 1760 1694
8 1688 1754 1760 1694 1689 1755 1761 1695
8 1689 1755 1761 1695 1690 1756 1762 1696
8 1690 1756 1762 1696 1691 1757 1763 1697
8 1692 1758 1764 1698 1693 1759 1765 1699
8 1693 1759 1765 1699 1694 1760 1766 1700
8 1694 1760 1766 1700 1695 1761 1767 1701
8 1695 1761 1767 1701 1696 1762 1768 1702
8 1696 1762 1768 1702 1697 1763 1769 1703
8 1698 1764 1770 1704 1699 1765 1771 1705
8 1699 1765 1771 1705 1700 1766 1772 1706
8 1700 1766 1772 1706 1701 1767 1773 1707
8 1701 1767 1773 1707 1702 1768 1774 1708
8 1702 1768 1774 1708 1703 1769 1775 1709
8 1704 1770 1776 1710 1705 1771 1777 1711
8 1705 1771 1777 1711 1706 1772 1778 1712
8 1706 1772 1778 1712 1707 1773 1779 1713
8 1707 1773 1779 1713 1708 1774 1780 1714
8 1708 1774 1780 1714 1709 1775 1781 1715
8 1710 1776 1782 1716 1711 1777 1783 1717
8 1711 1777 1783 1717 1712 1778 1784 1718
8 1712 1778 1784 1718 1713 1779 1785 1719
8 1713 1779 1785 1719 1714 1780 1786 1720
8 1714 1780 1786 1720 1715 1781 1787 1721
8 1716 1782 1788 1722 1717 1783 1789 1723
8 1717 1783 1789 1723 1718 1784 1790 1724
8 1718 1784 1790 1724 1719 1785 1791 1725
8 1719 1785 1791 1725 1720 1786 1792 1726
8 1720 1786 1792 1726 1721 1787 1793 1727
8 1722 1788 1794 1728 1723 1789 1795 1729
8 1723 1789 1795 1729 1724 1790 1796 1730
8 1724 1790 1796 1730 1725 1791 1797 1731
8 1725 1791 1797 1731 1726 1792 1798 1732
8 1726 1792 1798 1732 1727 1793 1799 1733
8 1728 1794 1800 1734 1729 1795 1801 1735
8 1729 1795 1801 1735 1730 1796 1802 1736
8 1730 1796 1802 1736 1731 1797 1803 1737
8 1731 1797 1803 1737 1732 1798 1804 1738
8 1732 1798 1804 1738 1733 1799 1805 1739
8 1734 1800 1806 1740 1735 1801 1807 1741
8 1735 1801 1807 1741 1736 1802 1808 1742
8 1736 1802 1808 1742 1737 1803 1809 1743
8 1737 1803 1809 1743 1738 1804 1810 1744
8 1738 1804 1810 1744 1739 1805 1811 1745
CELL_TYPES 912
12
12
12
12
12
12
12
12
12
12
12
12
12
12
12
12
12
12
12
12
12
12
12
12
12
12
12
12
12
12
12
12
12
12
12
12
12
12
12
12
12
12
12
12
12
12
12
12
12
12
12
12
12
12
12
12
12
12
12
12
12
12
12
12
12
12
12
12
12
12
12
12
12
12
12
12
12
12
12
12
12
12
12
12
12
12
12
12
12
12
12
12
12
12
12
12
12
12
12
12
12
12
12
12
12
12
12
12
12
12
12
12
12
12
12
12
12
12
12
12
12
12
12
12
12
12
12
12
12
12
12
12
12
12
12
12
12
12
12
12
12
12
12
12
12
12
12
12
12
12
12
12
12
12
12
12
12
12
12
12
12
12
12
12
12
12
12
12
12
12
12
12
12
12
12
12
12
12
12
12
12
12
12
12
12
12
12
12
12
12
12
12
12
12
12
12
12
12
12
12
12
12
12
12
12
12
12
12
12
12
12
12
12
12
12
12
12
12
12
12
12
12
12
12
12
12
12
12
12
12
12
12
12
12
12
12
12
12
12
12
12
12
12
12
12
12
12
12
12
12
12
12
12
12
12
12
12
12
12
12
12
12
12
12
12
12
12
12
12
12
12
12
12
12
12
12
12
12
12
12
12
12
12
12
12
12
12
12
12
12
12
12
12
12
12
12
12
12
12
12
12
12
12
12
12
12
12
12
12
12
12
12
12
12
12
12
12
12
12
12
12
12
12
12
12
12
12
12
12
12
12
12
12
12
12
12
12
12
12
12
12
12
12
12
12
12
12
12
12
12
12
12
12
12
12
12
12
12
12
12
12
12
12
12
12
12
12
12
12
12
12
12
12
12
12
12
12
12
12
12
12
12
12
12
12
12
12
12
12
12
12
12
12
12
12
12
12
12
12
12
12
12
12
12
12
12
12
12
12
12
12
12
12
12
12
12
12
12
12
12
12
12
12
12
12
12
12
12
12
12
12
12
12
12
12
12
12
12
12
12
12
12
12
12
12
12
12
12
12
12
12
12
12
12
12
12
12
12
12
12
12
12
12
12
12
12
12
12
12
12
12
12
12
12
12
12
12
12
12
12
12
12
12
12
12
12
12
12
12
12
12
12
12
12
12
12
12
12
12
12
12
12
12
12
12
12
12
12
12
12
12
12
12
12
12
12
12
12
12
12
12
12
12
12
12
12
12
12
12
12
12
12
12
12
12
12
12
12
12
12
12
12
12
12
12
12
12
12
12
12
12
12
12
12
12
12
12
12
12
12
12
12
12
12
12
12
12
12
12
12
12
12
12
12
12
12
12
12
12
12
12
12
12
12
12
12
12
12
12
12
12
12
12
12
12
12
12
12
12
12
12
12
12
12
12
12
12
12
12
12
12
12
12
12
12
12
12
12
12
12
12
12
12
12
12
12
12
12
12
12
12
12
12
12
12
12
12
12
12
12
12
12
12
12
12
12
12
12
12
12
12
12
12
12
12
12
12
12
12
12
12
12
12
12
12
12
12
12
12
12
12
12
12
12
12
12
12
12
12
12
12
12
12
12
12
12
12
12
12
12
12
12
12
12
12
12
12
12
12
12
12
12
12
12
12
12
12
12
12
12
12
12
12
12
12
12
12
12
12
12
12
12
12
12
12
12
12
12
12
12
12
12
12
12
12
12
12
12
12
12
12
12
12
12
12
12
12
12
12
12
12
12
12
12
12
12
12
12
12
12
12
12
12
12
12
12
12
12
12
12
12
12
12
12
12
12
12
12
12
12
12
12
12
12
12
12
12
12
12
12
12
12
12
12
12
12
12
12
12
12
12
12
12
12
12
12
12
12
12
12
12
12
12
12
12
12
12
12
12
12
12
12
12
12
12
12
12
12
12
12
12
12
12
12
12
12
12
12
12
12
12
12
12
12
12
12
12
12
12
12
12
12
12
12
12
12
12
12
12
12
12
12
12
12
12
12
12
12
12
12
12
12
12
12
12
12
12
12
12
12
12
12
12
12
12
12
12
12
12
12
12
12
12
12
12
12
12
12
12
12
12
12
12
12
12
12
12
12
12
12
12
12
POINT_DATA 1812
VECTORS DISPLACEMENT float
1.052596e+00 -6.190628e-02 5.641357e+01
7.072280e-01 9.635037e-02 5.641515e+01
5.551065e-01 9.406740e-03 5.648178e+01
4.510381e-01 2.614246e-01 5.647851e+01
1.054210e+00 -5.167463e-02 5.643167e+01
7.061591e-01 1.005292e-01 5.643669e+01
5.471360e-01 1.567515e-02 5.646537e+01
4.461712e-01 2.695664e-01 5.646260e+01
7.661960e-01 -2.401777e-01 5.636115e+01
6.908151e-01 -3.562652e-01 5.637949e+01
6.914672e-01 -3.058055e-01 5.635253e+01
6.854062e-01 -2.162968e-01 5.626763e+01
7.651488e-01 -2.385365e-01 5.636267e+01
6.921066e-01 -3.559467e-01 5.638382e+01
6.907073e-01 -3.124726e-01 5.634657e+01
6.861820e-01 -2.185977e-01 5.626559e+01
6.485525e-01 -6.454419e-02 5.627201e+01
6.966957e-01 -1.166258e-01 5.629498e+01
7.161491e-01 -1.161835e-01 5.634022e+01
6.501133e-01 -6.528735e-02 5.626800e+01
6.965990e-01 -1.117594e-01 5.628749e+01
7.168318e-01 -1.211042e-01 5.634051e+01
2.893692e-01 -2.294407e-02 5.619154e+01
3.741794e-01 1.993543e-01 5.621744e+01
4.722889e-01 9.866526e-02 5.627794e+01
4.735788e-01 -3.455377e-03 5.621192e+01
2.914177e-01 -2.104847e-02 5.619069e+01
3.747181e-01 2.002798e-01 5.621699e+01
4.729797e-01 1.001008e-01 5.628161e+01
4.727959e-01 -3.908637e-03 5.621148e+01
6.263034e-01 -8.431321e-02 5.628252e+01
4.134841e-01 7.317391e-03 5.629388e+01
6.265815e-01 -8.537278e-02 5.628594e+01
4.130726e-01 1.072042e-02 5.628390e+01
2.730885e-01 2.113561e-01 5.616934e+01
3.927690e-01 8.854251e-02 5.617772e+01
2.696745e-01 2.096302e-01 5.616996e+01
3.950008e-01 9.339953e-02 5.617463e+01
2.416709e-01 -9.105096e-02 5.608901e+01
1.984742e-01 -6.664777e-02 5.606047e+01
3.038115e-01 -3.308005e-02 5.610093e+01
3.294288e-01 -3.955471e-02 5.613403e+01
2.398393e-01 -8.402604e-02 5.608441e+01
1.968867e-01 -6.533270e-02 5.606346e+01
3.013141e-01 -3.174605e-02 5.609777e+01
3.313169e-01 -4.620642e-02 5.613457e+01
2.727563e-01 4.732561e-02 5.607205e+01
2.544375e-01 4.936093e-02 5.612049e+01
3.660747e-01 3.619325e-03 5.611787e+01
2.593216e-01 2.209144e-03 5.607620e+01
2.718890e-01 4.934884e-02 5.607029e+01
2.548895e-01 5.052547e-02 5.612290e+01
3.666701e-01 9.057877e-03 5.611233e+01
2.592531e-01 -8.225191e-04 5.607870e+01
5.421367e-01 -1.034395e-01 5.644392e+01
7.488295e-01 1.719303e-02 5.633937e+01
8.441323e-01 -1.282613e-01 5.637206e+01
8.319995e-01 -1.737383e-01 5.637377e+01
5.394114e-01 -1.124508e-01 5.646076e+01
7.419510e-01 1.930823e-02 5.632370e+01
8.430148e-01 -1.197269e-01 5.637846e+01
8.327651e-01 -1.725450e-01 5.636986e+01
8.339206e-01 -1.455456e-01 5.639732e+01
8.096120e-01 -1.169680e-01 5.633487e+01
8.344991e-01 -1.465578e-01 5.639988e+01
8.098474e-01 -1.096456e-01 5.633239e+01
8.750281e-01 -1.775354e-01 5.643259e+01
8.791640e-01 -1.762960e-01 5.643551e+01
8.335704e-01 -2.511252e-01 5.642108e+01
9.433242e-01 -1.711376e-01 5.647308e+01
8.339560e-01 -2.533967e-01 5.641874e+01
9.441581e-01 -1.685185e-01 5.647452e+01
4.517779e-01 1.808272e-01 5.619792e+01
5.869352e-01 -5.696439e-01 5.641490e+01
4.551065e-01 1.892199e-01 5.620034e+01
5.834057e-01 -5.579816e-01 5.641596e+01
4.169703e-01 -3.607141e-01 5.625562e+01
4.162920e-01 -3.568210e-01 5.624645e+01
5.005581e-01 -2.027163e-01 5.622217e+01
5.104496e-01 -2.306913e-01 5.623628e+01
4.339135e-01 -1.111909e-01 5.622810e+01
4.328434e-01 -1.048667e-01 5.622403e+01
1.863270e-01 -2.768608e-02 5.603940e+01
1.714346e-01 -1.295657e-02 5.602628e+01
2.060059e-01 1.619635e-02 5.604906e+01
1.858760e-01 -2.993649e-02 5.603957e+01
1.731829e-01 -1.367228e-02 5.602698e+01
2.061445e-01 2.013994e-02 5.604666e+01
1.052354e-01 -3.519607e-02 5.595215e+01
1.529628e-01 -2.769741e-02 5.600220e+01
1.708710e-01 -4.915143e-02 5.601812e+01
1.302469e-01 -9.405956e-02 5.594666e+01
1.063195e-01 -3.473608e-02 5.595185e+01
1.501441e-01 -2.594012e-02 5.600038e+01
1.731393e-01 -4.681181e-02 5.601378e+01
1.285024e-01 -1.001650e-01 5.595140e+01
1.969458e-01 4.068388e-02 5.606545e+01
1.956990e-01 4.073883e-02 5.606360e+01
2.291931e-01 7.020394e-02 5.610717e+01
2.021234e-01 4.504394e-02 5.604873e+01
2.295266e-01 6.819286e-02 5.611516e+01
2.014973e-01 4.361622e-02 5.604535e+01
2.764189e-01 5.944651e-02 5.608649e+01
2.779536e-01 5.933547e-02 5.608658e+01
4.144055e-01 9.618553e-03 5.616087e+01
4.138377e-01 8.163465e-03 5.615701e+01
3.492528e-01 4.304271e-03 5.614142e+01
3.506598e-01 4.418109e-03 5.613946e+01
1.787422e-01 -6.681031e-02 5.602781e+01
1.784650e-01 -6.778057e-02 5.602030e+01
4.126655e-01 -2.451546e-02 5.631308e+01
4.168486e-01 -2.405889e-02 5.631857e+01
1.014848e+00 -2.799224e-01 5.650147e+01
1.014561e+00 -3.039333e-01 5.650319e+01
2.041456e-01 -7.764492e-02 5.602376e+01
2.016586e-01 -7.808013e-02 5.601151e+01
4.125115e-01 -7.372685e-01 5.681616e+01
4.020269e-01 -7.250022e-01 5.679350e+01
1.027824e-01 1.402447e-02 5.603490e+01
4.630998e-02 2.929768e-02 5.604594e+01
1.003159e-01 1.469150e-02 5.603615e+01
4.605638e-02 3.146584e-02 5.604141e+01
1.179373e-01 2.451201e-02 5.602267e+01
1.193529e-01 2.185813e-02 5.602257e+01
1.208693e-01 9.821817e-03 5.601674e+01
1.205451e-01 9.868944e-03 5.601642e+01
9.004316e-02 4.842481e-03 5.599984e+01
9.138660e-02 5.973244e-03 5.600175e+01
6.660707e-02 9.773196e-03 5.596777e+01
6.653428e-02 5.636763e-03 5.596583e+01
5.251312e-02 1.021117e-02 5.602876e+01
5.595181e-02 3.650296e-04 5.601831e+01
5.056768e-02 1.114523e-02 5.602117e+01
5.345940e-02 -1.853687e-03 5.602146e+01
5.193117e-02 1.269964e-02 5.601159e+01
5.298853e-02 1.294347e-02 5.601245e+01
5.023993e-02 1.929227e-02 5.601185e+01
4.996171e-02 1.712777e-02 5.601238e+01
4.161046e-02 2.564306e-02 5.600278e+01
4.370934e-02 2.259227e-02 5.600397e+01
8.110412e-03 3.324404e-02 5.598798e+01
8.616305e-03 3.687284e-02 5.599083e+01
1.818845e-02 1.315385e-02 5.601881e+01
1.195040e-02 9.390175e-03 5.601956e+01
1.636718e-02 1.348943e-02 5.601738e+01
1.233141e-02 8.776118e-03 5.602053e+01
2.425188e-02 1.401041e-02 5.600890e+01
2.369469e-02 1.314147e-02 5.600881e+01
1.954059e-02 1.735147e-02 5.600901e+01
2.165214e-02 1.763041e-02 5.600824e+01
2.419417e-02 2.403770e-02 5.600484e+01
2.373962e-02 2.500382e-02 5.600531e+01
5.593727e-02 3.212987e-02 5.600657e+01
5.709269e-02 3.161357e-02 5.600467e+01
1.139763e-02 1.208703e-02 5.601042e+01
1.671356e-02 1.354375e-02 5.601489e+01
1.184097e-02 9.791204e-03 5.601117e+01
1.491423e-02 1.472162e-02 5.601411e+01
1.219828e-02 1.526762e-02 5.600750e+01
1.248874e-02 1.554555e-02 5.600580e+01
1.189697e-02 1.878399e-02 5.600573e+01
1.214704e-02 1.626676e-02 5.600760e+01
1.238596e-02 1.541610e-02 5.600784e+01
1.249629e-02 1.744847e-02 5.600659e+01
2.399073e-03 1.844068e-02 5.601261e+01
2.100620e-03 1.627392e-02 5.601495e+01
2.861583e-03 1.537691e-02 5.600827e+01
1.595589e-04 1.474789e-02 5.600801e+01
2.586325e-03 1.399799e-02 5.600688e+01
2.143670e-03 1.268290e-02 5.600972e+01
5.383623e-03 1.305780e-02 5.600529e+01
4.380505e-03 1.364579e-02 5.600481e+01
7.340506e-03 1.323577e-02 5.600430e+01
7.319382e-03 1.173475e-02 5.600720e+01
8.608996e-03 1.692357e-02 5.600818e+01
9.695568e-03 1.779800e-02 5.600654e+01
1.616396e-02 1.753332e-02 5.600963e+01
1.834283e-02 1.555071e-02 5.601258e+01
-3.703034e-03 9.161660e-03 5.600505e+01
-5.346345e-03 1.286962e-02 5.600565e+01
-3.275252e-03 9.942534e-03 5.600499e+01
-3.309010e-03 1.339897e-02 5.600701e+01
1.506219e-03 1.086497e-02 5.600380e+01
1.502002e-03 1.306408e-02 5.600362e+01
4.130217e-03 1.182349e-02 5.600572e+01
4.609524e-03 1.252289e-02 5.600276e+01
8.676603e-03 9.952274e-03 5.600503e+01
9.061861e-03 7.014235e-03 5.600681e+01
7.325196e-03 6.827971e-03 5.601096e+01
7.832171e-03 1.245801e-02 5.601079e+01
-2.920402e-03 5.991429e-03 5.600229e+01
-2.892605e-03 5.238223e-03 5.600325e+01
-2.672696e-03 6.492224e-03 5.600349e+01
-1.768113e-03 4.862990e-03 5.600452e+01
-1.813409e-03 6.593022e-03 5.600192e+01
-1.109353e-03 5.045832e-03 5.600329e+01
2.756498e-03 3.938034e-03 5.600253e+01
3.296042e-03 5.142855e-03 5.600405e+01
6.630006e-03 9.748792e-03 5.600614e+01
6.764532e-03 6.355909e-03 5.600432e+01
2.203310e-02 -2.261939e-04 5.600933e+01
2.019253e-02 3.982023e-03 5.600887e+01
9.021470e-05 9.607591e-04 5.600053e+01
-1.883046e-03 6.608498e-03 5.600300e+01
1.263216e-04 3.360474e-03 5.600284e+01
-2.331113e-03 5.899348e-03 5.600166e+01
1.911507e-03 4.164913e-03 5.600325e+01
1.137380e-03 4.385933e-03 5.600067e+01
3.799386e-03 4.207823e-03 5.600253e+01
3.574353e-03 2.214083e-03 5.600240e+01
8.787849e-03 -1.555929e-03 5.600441e+01
7.540548e-03 1.214129e-03 5.600311e+01
-1.619942e-04 5.645852e-03 5.600366e+01
8.883493e-04 1.191179e-03 5.600318e+01
2.642534e-03 5.613155e-03 5.600187e+01
2.938989e-03 4.114358e-03 5.600149e+01
2.253284e-03 4.968292e-03 5.600016e+01
2.630168e-03 3.060541e-03 5.600086e+01
2.613849e-03 2.243912e-03 5.600158e+01
2.743064e-03 3.089788e-03 5.600088e+01
2.334708e-03 4.669278e-03 5.600101e+01
2.116406e-03 4.116647e-03 5.600220e+01
-3.457791e-03 5.442107e-03 5.600390e+01
-3.224925e-03 7.927553e-03 5.600197e+01
1.363650e-02 -4.197112e-03 5.600376e+01
1.203127e-02 -3.169087e-03 5.600151e+01
2.577149e-03 4.340296e-03 5.600025e+01
-1.115615e-03 4.679208e-03 5.599995e+01
2.890378e-03 1.941785e-03 5.600084e+01
-1.185196e-03 6.604158e-03 5.600115e+01
2.826212e-03 4.150991e-03 5.599946e+01
2.932192e-03 3.642154e-03 5.600103e+01
4.526335e-03 5.195539e-03 5.600066e+01
3.821928e-03 4.622915e-03 5.599912e+01
6.354688e-03 2.332379e-03 5.599639e+01
7.589030e-03 1.697944e-03 5.600199e+01
-8.107868e-03 4.500058e-03 5.600014e+01
-8.513487e-03 5.362798e-03 5.599607e+01
-9.414024e-04 6.003089e-03 5.600072e+01
3.641007e-03 1.288531e-03 5.600071e+01
5.823136e-05 5.895299e-03 5.599931e+01
1.744434e-03 7.502747e-04 5.599914e+01
4.013652e-03 4.237329e-03 5.600140e+01
2.383627e-03 3.451616e-03 5.599857e+01
5.644462e-03 -2.089520e-04 5.600076e+01
8.189990e-03 1.011524e-03 5.600006e+01
3.033064e-03 4.701714e-03 5.600140e+01
2.646939e-03 4.034664e-03 5.600016e+01
6.591557e-03 9.652499e-03 5.600298e+01
7.364745e-03 5.373035e-03 5.600619e+01
2.105181e-04 -4.732781e-05 5.599767e+01
-2.336853e-03 6.743203e-03 5.600008e+01
-5.219242e-04 2.400204e-03 5.600183e+01
-5.597656e-04 5.761405e-03 5.599887e+01
9.678578e-04 3.138832e-03 5.599998e+01
2.456202e-03 2.938881e-03 5.599983e+01
-7.629103e-04 2.291292e-03 5.599936e+01
-8.217591e-04 1.094924e-04 5.600013e+01
-2.125764e-03 -2.042685e-03 5.600017e+01
-6.430069e-04 -2.153155e-04 5.600018e+01
1.060704e-02 -5.379040e-03 5.600562e+01
1.137361e-02 -3.556628e-03 5.600411e+01
2.022107e-04 1.209375e-03 5.600113e+01
2.822314e-03 1.638168e-03 5.599728e+01
-3.527340e-04 3.731405e-03 5.599923e+01
3.553125e-03 9.667034e-04 5.600110e+01
6.019162e-04 -5.967181e-04 5.600109e+01
1.790345e-04 -2.372315e-03 5.599906e+01
3.087991e-04 -3.834342e-04 5.599862e+01
2.134341e-03 4.265246e-04 5.600139e+01
1.869158e-03 -2.064415e-04 5.599714e+01
1.509961e-04 -6.023805e-04 5.599765e+01
-2.455243e-02 2.753531e-03 5.600517e+01
-2.183602e-02 1.441029e-03 5.600411e+01
7.147741e-04 3.543111e-03 5.599776e+01
-6.807318e-04 5.710219e-03 5.600162e+01
-1.273752e-03 6.006822e-03 5.599828e+01
-2.949937e-03 7.714350e-04 5.600109e+01
4.992235e-03 5.661733e-03 5.599896e+01
3.169978e-03 5.686451e-03 5.599800e+01
1.916679e-03 2.556780e-03 5.600194e+01
-1.060000e-03 2.119355e-03 5.599824e+01
-1.827392e-03 8.236877e-03 5.600066e+01
-1.150147e-03 5.823946e-03 5.600010e+01
2.444737e-02 -1.812005e-02 5.597927e+01
2.436609e-02 -1.559514e-02 5.598865e+01
2.804786e-03 5.842362e-03 5.599986e+01
9.085095e-03 6.448636e-03 5.600357e+01
1.150863e-03 3.102237e-03 5.600093e+01
3.775586e-04 4.674761e-05 5.599747e+01
2.210497e-03 5.559993e-03 5.599964e+01
9.091597e-03 6.944941e-03 5.600247e+01
1.890493e-03 4.027016e-03 5.600212e+01
7.718027e-04 -7.369960e-04 5.600143e+01
9.770864e-04 1.771290e-03 5.600189e+01
7.580221e-04 4.358488e-03 5.600093e+01
3.305012e-03 2.891735e-03 5.600393e+01
2.732741e-04 4.430659e-03 5.600213e+01
-3.170776e-03 3.001571e-03 5.600088e+01
1.584047e-03 2.401633e-04 5.600018e+01
-2.610595e-03 1.357474e-03 5.600011e+01
-2.544871e-05 -1.151060e-03 5.600058e+01
9.605704e-04 3.035238e-03 5.600196e+01
1.573271e-03 3.471991e-03 5.599953e+01
3.349146e-03 -1.163415e-04 5.599916e+01
-3.593984e-03 -4.988346e-03 5.600090e+01
3.906048e-03 1.870979e-03 5.600099e+01
-5.270536e-03 -5.381603e-03 5.599917e+01
-5.008440e-03 2.061470e-03 5.599871e+01
-3.954041e-03 2.165239e-03 5.600173e+01
-2.142827e-03 -2.942963e-04 5.600122e+01
1.886315e-03 3.900389e-03 5.600168e+01
-3.217523e-03 -1.079667e-04 5.599922e+01
2.382581e-04 3.734531e-03 5.600017e+01
2.062834e-03 2.380369e-03 5.600014e+01
9.302541e-04 6.414148e-04 5.599946e+01
1.955957e-04 6.466352e-03 5.600164e+01
-5.841771e-03 4.499770e-03 5.599945e+01
-3.554965e-04 7.365505e-03 5.600075e+01
-7.050828e-03 2.530368e-03 5.600005e+01
3.402273e-03 1.498950e-03 5.600187e+01
3.754421e-03 3.899630e-03 5.599995e+01
-3.677968e-03 -2.919128e-03 5.599481e+01
-1.078999e-03 8.833340e-03 5.599307e+01
-3.510723e-03 -2.558949e-03 5.599655e+01
6.974804e-04 9.778962e-03 5.599347e+01
-8.164483e-04 2.659072e-03 5.600164e+01
-6.311251e-06 1.768787e-04 5.600342e+01
6.781628e-02 2.752852e-02 5.602436e+01
1.217165e-01 5.507453e-02 5.605177e+01
6.821996e-02 2.562484e-02 5.602842e+01
1.200007e-01 5.110790e-02 5.604482e+01
6.236531e-02 2.833125e-02 5.601541e+01
5.995485e-02 2.646935e-02 5.601128e+01
3.861194e-02 2.513193e-02 5.601466e+01
3.988700e-02 2.610231e-02 5.601734e+01
2.722306e-02 1.862384e-02 5.601104e+01
2.721370e-02 1.884054e-02 5.601449e+01
1.723516e-02 1.084064e-02 5.600796e+01
1.851117e-02 1.032684e-02 5.600692e+01
9.698894e-03 7.864493e-03 5.600521e+01
9.870542e-03 8.603950e-03 5.600612e+01
1.102663e-01 7.409685e-02 5.603237e+01
8.664208e-02 5.270995e-02 5.602130e+01
1.050282e-01 7.309826e-02 5.602499e+01
8.540903e-02 5.435958e-02 5.602497e+01
7.645535e-02 3.100856e-02 5.601063e+01
7.725023e-02 3.530230e-02 5.600922e+01
7.237824e-02 4.292299e-02 5.601273e+01
7.183990e-02 4.122918e-02 5.601115e+01
5.768538e-02 2.496882e-02 5.601327e+01
5.847728e-02 2.610038e-02 5.600978e+01
3.566269e-02 2.576324e-02 5.601712e+01
3.838931e-02 2.640170e-02 5.601920e+01
1.566872e-02 1.292163e-02 5.600553e+01
1.610135e-02 1.280612e-02 5.600623e+01
4.464478e-03 1.844674e-02 5.600648e+01
6.156853e-03 1.985590e-02 5.600582e+01
3.018121e-02 1.392148e-02 5.599792e+01
2.949871e-02 1.258406e-02 5.599722e+01
4.287259e-02 2.720204e-02 5.600765e+01
4.454554e-02 2.589083e-02 5.601107e+01
6.832686e-02 3.503144e-02 5.601031e+01
6.690457e-02 3.669017e-02 5.600618e+01
7.406141e-02 6.793085e-02 5.602669e+01
7.213817e-02 6.744256e-02 5.602748e+01
9.450263e-02 4.817974e-02 5.606290e+01
9.519818e-02 5.205351e-02 5.605885e+01
1.423556e-01 5.438641e-02 5.603883e+01
1.394901e-01 5.288690e-02 5.603671e+01
1.147656e-01 4.846162e-02 5.605847e+01
1.144852e-01 4.956741e-02 5.606345e+01
-1.811448e-02 6.388167e-02 5.597907e+01
-1.167315e-03 4.951771e-04 5.597599e+01
1.841073e-02 2.495137e-02 5.598378e+01
3.304343e-02 3.901616e-02 5.599484e+01
-1.567831e-02 6.301445e-02 5.597916e+01
-1.891925e-03 -7.363747e-04 5.597642e+01
1.891565e-02 2.592029e-02 5.598453e+01
3.222225e-02 3.883562e-02 5.599357e+01
1.038529e-02 1.925793e-02 5.600603e+01
1.602686e-02 1.940291e-02 5.599819e+01
-4.487856e-03 1.724661e-02 5.600374e+01
-1.969828e-03 2.582480e-02 5.601496e+01
9.066341e-03 1.779229e-02 5.600165e+01
1.725888e-02 2.145906e-02 5.599747e+01
-4.500570e-03 2.161367e-02 5.600166e+01
-7.881593e-04 2.488315e-02 5.601628e+01
-1.196869e-01 9.514780e-02 5.610106e+01
-1.537455e-02 1.032657e-01 5.604944e+01
-7.418726e-02 2.955166e-02 5.603296e+01
-9.534442e-02 4.014401e-02 5.603858e+01
-1.199811e-01 9.706574e-02 5.609957e+01
-1.679202e-02 1.045030e-01 5.604675e+01
-7.300304e-02 2.968699e-02 5.603584e+01
-9.682930e-02 3.638541e-02 5.603905e+01
-7.433396e-02 -1.325313e-02 5.601911e+01
-1.005181e-01 -2.306778e-02 5.606598e+01
-1.154486e-01 -1.170704e-03 5.607218e+01
-7.611726e-02 -1.775455e-02 5.602536e+01
-9.975412e-02 -2.318490e-02 5.606497e+01
-1.164036e-01 -1.084276e-03 5.607186e+01
-1.693075e-01 4.917241e-02 5.612891e+01
-1.665000e-01 -4.164193e-02 5.613408e+01
-1.701595e-01 4.900983e-02 5.613339e+01
-1.655806e-01 -4.221580e-02 5.612888e+01
-1.275364e-01 -4.793279e-02 5.612226e+01
-1.169284e-01 -8.112550e-02 5.616874e+01
-1.441122e-01 -4.680775e-02 5.615520e+01
-1.200415e-01 -6.591060e-02 5.606964e+01
-1.266475e-01 -4.838763e-02 5.611229e+01
-1.172696e-01 -8.175931e-02 5.617157e+01
-1.443107e-01 -4.575808e-02 5.615607e+01
-1.208320e-01 -6.578738e-02 5.607138e+01
-3.294680e-02 1.727089e-01 5.617106e+01
-4.177471e-01 5.710725e-02 5.620789e+01
-3.427877e-02 1.726848e-01 5.617060e+01
-4.177483e-01 5.762717e-02 5.620444e+01
-2.724979e-02 3.905227e-02 5.600891e+01
-4.536583e-02 2.144163e-02 5.601265e+01
-2.657085e-02 3.935225e-02 5.601026e+01
-4.518908e-02 2.270501e-02 5.601072e+01
-3.259044e-03 2.242348e-02 5.600432e+01
2.671707e-02 2.140836e-02 5.599613e+01
2.248840e-02 1.695734e-02 5.599704e+01
-2.630959e-03 1.949124e-02 5.600408e+01
2.783041e-02 2.158210e-02 5.599892e+01
2.265207e-02 1.712391e-02 5.599453e+01
-7.874604e-03 1.664453e-02 5.601506e+01
-8.404462e-03 1.839902e-02 5.601409e+01
-1.184299e-02 1.378962e-02 5.602272e+01
-2.376611e-02 2.136574e-02 5.602918e+01
-1.245343e-02 1.216860e-02 5.602074e+01
-2.357894e-02 2.251075e-02 5.603723e+01
-2.570376e-01 -1.097764e-01 5.621200e+01
1.340221e-01 4.929339e-02 5.632815e+01
-2.575809e-01 -1.076864e-01 5.621226e+01
1.320373e-01 5.057711e-02 5.632790e+01
-1.159788e-01 -5.088757e-02 5.619621e+01
-1.147726e-01 -5.089168e-02 5.619725e+01
-2.918181e-02 -5.568270e-02 5.601982e+01
-3.009122e-02 -5.376324e-02 5.601536e+01
-4.236812e-02 -1.178620e-01 5.605113e+01
-7.596728e-02 -5.290785e-02 5.604002e+01
-4.080557e-02 -1.166658e-01 5.602285e+01
-4.260699e-02 -1.180602e-01 5.604707e+01
-7.857855e-02 -4.925933e-02 5.604784e+01
-4.421611e-02 -1.143696e-01 5.603576e+01
-2.741827e-01 4.777422e-02 5.606196e+01
-1.379545e-01 -7.284007e-02 5.617835e+01
-1.415056e-01 -1.271115e-02 5.615260e+01
-2.703669e-02 -3.484670e-02 5.610227e+01
-2.724226e-01 4.902773e-02 5.606356e+01
-1.398203e-01 -7.098466e-02 5.617890e+01
-1.373993e-01 -8.409834e-03 5.615083e+01
-2.832424e-02 -3.665499e-02 5.609830e+01
-6.188857e-02 -6.849847e-02 5.610714e+01
-3.923642e-02 -3.672932e-02 5.617219e+01
-6.411904e-02 -7.112753e-02 5.610953e+01
-3.987649e-02 -3.596357e-02 5.617190e+01
-5.614233e-02 -6.126399e-02 5.607662e+01
-5.777935e-02 -6.068600e-02 5.607834e+01
-4.782980e-03 2.151475e-02 5.624105e+01
-2.070802e-01 3.515809e-03 5.615155e+01
2.543866e-02 -7.188889e-02 5.633002e+01
-2.647785e-01 -1.722471e-02 5.624925e+01
-3.075822e-03 1.833775e-02 5.623542e+01
-2.058117e-01 2.142205e-03 5.615238e+01
2.162900e-02 -7.294084e-02 5.633271e+01
-2.655942e-01 -1.486829e-02 5.625137e+01
-2.758937e-01 -2.621527e-02 5.621494e+01
-2.710736e-01 -2.990277e-02 5.620889e+01
-7.644189e-02 9.682687e-02 5.607039e+01
-7.619184e-02 9.492859e-02 5.607087e+01
7.375734e-02 1.219230e-01 5.602120e+01
7.310725e-02 1.227537e-01 5.602047e+01
1.338074e-02 8.435332e-03 5.598806e+01
1.498604e-02 7.960271e-03 5.598663e+01
-1.163402e-02 5.622182e-03 5.599219e+01
-9.135782e-03 6.393700e-03 5.598913e+01
-4.249084e-03 3.702621e-02 5.599632e+01
-2.010150e-03 2.936656e-02 5.599933e+01
-7.468811e-03 4.573636e-03 5.599438e+01
1.139891e-02 -3.268401e-04 5.599346e+01
-9.404091e-03 2.423614e-05 5.599507e+01
1.128759e-02 1.406538e-03 5.599573e+01
-4.453417e-03 6.194154e-03 5.599394e+01
4.124253e-03 8.693629e-03 5.599576e+01
-3.663303e-03 4.101146e-03 5.599477e+01
4.603546e-03 7.178628e-03 5.599647e+01
4.534722e-03 6.705759e-03 5.599378e+01
4.330042e-04 3.622512e-03 5.599629e+01
4.221150e-03 1.091151e-02 5.599259e+01
7.039922e-04 4.153295e-03 5.599710e+01
3.682468e-03 5.632622e-03 5.599825e+01
2.396679e-03 6.072965e-03 5.599681e+01
2.480040e-03 4.430210e-03 5.599546e+01
1.404357e-03 5.380982e-03 5.599856e+01
1.538318e-03 1.955966e-03 5.599749e+01
-1.657699e-03 6.233460e-03 5.599909e+01
1.931257e-03 2.591896e-03 5.599828e+01
-1.736288e-03 4.754754e-03 5.599791e+01
-1.655934e-03 4.616809e-03 5.599683e+01
-1.299053e-03 2.911587e-03 5.599970e+01
-1.314347e-03 5.817410e-03 5.600068e+01
-1.669207e-03 4.085982e-03 5.599869e+01
-1.800252e-03 1.206395e-03 5.599901e+01
-2.957672e-03 3.560940e-03 5.600008e+01
-2.282818e-03 6.025903e-04 5.599927e+01
-4.068377e-03 3.999452e-03 5.600008e+01
-3.347623e-03 1.731836e-03 5.599900e+01
-2.430356e-03 1.550678e-03 5.600135e+01
-1.823889e-03 1.201756e-04 5.600024e+01
-2.330248e-03 2.387248e-03 5.599916e+01
-1.481602e-03 -2.431237e-03 5.599983e+01
-4.775712e-03 1.700854e-03 5.599986e+01
-2.286866e-03 -2.997139e-03 5.599954e+01
-3.322738e-03 1.158550e-03 5.599981e+01
4.912994e-04 -1.346543e-03 5.599977e+01
-1.132872e-03 -1.205966e-03 5.600290e+01
1.306268e-03 -4.457442e-05 5.599978e+01
-2.784952e-04 -1.132545e-03 5.599727e+01
9.785626e-04 -3.271307e-03 5.600017e+01
2.362979e-04 -2.055005e-03 5.599810e+01
-1.619288e-04 -7.079210e-04 5.599971e+01
3.451585e-04 -1.599645e-03 5.600174e+01
3.755515e-03 -1.072309e-03 5.599944e+01
-1.283121e-03 -1.367109e-04 5.600148e+01
3.194195e-03 -9.251419e-04 5.600088e+01
-1.030230e-03 -1.600593e-03 5.599856e+01
-1.868570e-04 9.678373e-04 5.600274e+01
1.956398e-03 -8.276062e-04 5.599920e+01
1.010509e-03 -1.878514e-04 5.599880e+01
1.017836e-03 -1.839174e-03 5.600039e+01
-2.550644e-03 1.633914e-03 5.599491e+01
1.077544e-02 -7.952098e-03 5.599827e+01
-4.479309e-03 3.222511e-04 5.599402e+01
1.115913e-02 -5.247825e-03 5.600057e+01
1.287668e-02 1.566235e-02 5.599913e+01
1.356354e-02 1.512644e-02 5.599904e+01
7.911747e-03 6.770724e-03 5.600144e+01
8.975200e-03 7.705493e-03 5.599784e+01
1.023665e-02 1.019380e-02 5.599943e+01
9.791816e-03 1.037868e-02 5.600045e+01
5.004865e-03 6.523606e-03 5.600077e+01
5.788425e-03 4.762595e-03 5.599962e+01
3.827639e-03 3.892446e-03 5.599851e+01
2.508760e-03 5.469279e-03 5.600113e+01
2.042785e-03 2.752580e-03 5.600031e+01
2.165402e-03 2.794567e-03 5.599969e+01
4.243420e-03 8.824826e-04 5.600036e+01
3.711811e-03 -1.793747e-03 5.600040e+01
3.071001e-03 -2.553141e-04 5.600027e+01
2.673841e-03 4.391255e-03 5.600074e+01
1.607042e-03 3.075577e-03 5.599911e+01
7.121326e-04 1.078419e-03 5.600200e+01
1.263816e-03 3.001697e-03 5.600119e+01
1.321324e-03 1.665815e-03 5.599988e+01
9.794012e-04 -1.391950e-03 5.599845e+01
1.436162e-03 6.786698e-04 5.600198e+01
-8.868496e-04 -2.371483e-03 5.599959e+01
1.103641e-06 -9.771861e-04 5.600049e+01
2.715524e-03 -1.720333e-03 5.600040e+01
3.431244e-03 -1.013692e-03 5.599906e+01
-1.314735e-02 -3.972109e-03 5.600194e+01
-1.667067e-02 -5.971771e-03 5.600503e+01
3.070974e-03 1.698717e-02 5.600323e+01
3.775032e-03 1.739069e-02 5.600526e+01
5.406472e-03 1.293375e-02 5.600363e+01
3.951390e-03 1.376633e-02 5.600371e+01
2.267143e-03 6.025241e-03 5.600247e+01
3.530112e-03 8.007027e-03 5.600312e+01
6.363372e-03 9.510945e-03 5.600107e+01
5.395632e-03 6.482504e-03 5.600253e+01
1.721919e-03 2.318220e-03 5.600107e+01
6.604293e-04 5.300715e-03 5.600161e+01
1.943513e-03 2.718296e-03 5.600118e+01
2.564642e-03 1.583311e-03 5.600083e+01
1.701335e-03 4.339958e-03 5.600205e+01
1.421955e-03 2.873206e-03 5.599953e+01
1.942929e-03 -1.295178e-04 5.600074e+01
1.543083e-03 -1.277182e-04 5.600075e+01
2.453952e-03 1.738845e-03 5.600218e+01
1.459439e-03 1.329580e-03 5.599977e+01
-4.548648e-04 6.490725e-05 5.600015e+01
-8.782796e-04 1.803447e-03 5.600069e+01
-8.307167e-04 -1.385113e-04 5.600145e+01
-8.656046e-04 -3.514922e-04 5.599917e+01
1.919673e-03 7.879580e-04 5.600117e+01
4.345329e-03 2.223296e-03 5.599891e+01
4.356707e-03 7.122149e-04 5.600051e+01
5.099163e-03 -5.396737e-04 5.600075e+01
1.171119e-02 2.690522e-03 5.600024e+01
1.462564e-02 2.576264e-03 5.599981e+01
-6.154162e-03 1.490058e-02 5.601165e+01
-5.501200e-03 1.470681e-02 5.601012e+01
2.556545e-03 1.191242e-02 5.600977e+01
3.178929e-03 1.155484e-02 5.600621e+01
4.006982e-03 1.038282e-02 5.600440e+01
4.081187e-03 1.170132e-02 5.600637e+01
1.414610e-03 5.021579e-03 5.600454e+01
1.559421e-03 4.785815e-03 5.600230e+01
4.008806e-03 3.919344e-03 5.600364e+01
4.357557e-03 5.863338e-03 5.600129e+01
2.943014e-03 5.681553e-03 5.600236e+01
2.477016e-03 4.397333e-03 5.600173e+01
6.194248e-04 1.294253e-03 5.600131e+01
1.397668e-03 1.555099e-03 5.600217e+01
2.592356e-03 2.532857e-03 5.600204e+01
2.048333e-03 4.071120e-03 5.600146e+01
-7.506444e-05 5.958931e-04 5.600103e+01
-3.850751e-04 -1.077021e-03 5.600172e+01
-1.782508e-03 1.238726e-03 5.600046e+01
-3.352236e-03 9.359810e-04 5.600122e+01
-1.594861e-03 4.325321e-03 5.600022e+01
1.187643e-04 3.709651e-03 5.600017e+01
-3.382735e-03 4.152088e-03 5.600000e+01
-3.335967e-03 1.469814e-03 5.600060e+01
5.613024e-03 -9.147020e-04 5.599998e+01
7.717317e-03 -3.657775e-03 5.599916e+01
1.034420e-02 9.725478e-04 5.599823e+01
1.040915e-02 8.345048e-03 5.599895e+01
-3.446457e-03 1.250930e-02 5.601436e+01
-2.799462e-03 8.364770e-03 5.601477e+01
-2.863985e-03 9.115117e-03 5.600897e+01
-2.538899e-03 1.339552e-02 5.601187e+01
3.477614e-03 9.376867e-03 5.600625e+01
3.267914e-03 5.171628e-03 5.600652e+01
2.825338e-03 8.097422e-03 5.600422e+01
3.001294e-03 7.906504e-03 5.600481e+01
1.497887e-03 6.356582e-03 5.600188e+01
2.316224e-03 6.570773e-03 5.600734e+01
-3.333014e-05 4.514286e-03 5.600538e+01
-9.830008e-04 1.248590e-03 5.600199e+01
2.277867e-03 4.697413e-03 5.600252e+01
1.278883e-03 4.354023e-03 5.600397e+01
1.207691e-03 -2.153891e-03 5.600409e+01
1.125536e-03 1.715328e-03 5.600415e+01
-1.255214e-03 1.369546e-03 5.600016e+01
-2.505386e-03 1.978063e-03 5.600095e+01
4.819827e-04 3.872931e-03 5.600167e+01
2.253050e-03 5.721562e-04 5.599570e+01
7.536397e-04 2.335773e-04 5.600318e+01
-1.291853e-03 4.532621e-03 5.600404e+01
7.958519e-03 3.549211e-04 5.600442e+01
9.112490e-03 2.743074e-03 5.600073e+01
-3.777493e-03 5.907054e-03 5.599978e+01
-5.824306e-03 7.573304e-03 5.600282e+01
-8.072387e-03 -6.487497e-03 5.599361e+01
-8.707306e-03 -8.632421e-03 5.599084e+01
3.677258e-03 2.280267e-02 5.599645e+01
1.181956e-02 3.895851e-02 5.599679e+01
3.661155e-03 2.204452e-02 5.599757e+01
1.474635e-02 3.872514e-02 5.599790e+01
5.452008e-03 8.440644e-03 5.599910e+01
3.520165e-03 8.812976e-03 5.599745e+01
2.374024e-04 -1.739429e-03 5.600170e+01
3.575982e-03 -2.000838e-03 5.599754e+01
-8.378877e-04 -2.663084e-03 5.600057e+01
8.010416e-04 -1.865012e-03 5.599807e+01
1.688279e-03 3.891585e-03 5.599923e+01
2.892587e-03 4.790238e-03 5.600028e+01
2.073146e-03 -9.656578e-03 5.600053e+01
3.726292e-03 -1.004787e-02 5.600333e+01
2.652430e-03 1.462742e-02 5.600131e+01
1.532390e-03 1.370064e-02 5.599829e+01
1.597228e-03 -7.647131e-03 5.598767e+01
3.258316e-04 -8.691679e-03 5.598987e+01
6.605463e-03 2.533968e-02 5.599761e+01
1.162756e-02 4.567980e-02 5.599780e+01
6.124848e-03 2.575566e-02 5.599676e+01
8.977786e-03 4.544666e-02 5.599879e+01
3.808748e-03 9.327401e-03 5.599699e+01
6.197108e-03 9.255276e-03 5.599825e+01
4.983252e-03 9.110205e-04 5.599727e+01
1.616286e-03 1.261287e-03 5.600093e+01
1.943727e-03 5.762287e-03 5.599643e+01
1.562590e-03 6.131165e-03 5.599903e+01
5.470302e-03 -2.856607e-03 5.600119e+01
3.787916e-03 -2.315143e-03 5.599806e+01
1.595575e-04 2.000375e-03 5.599919e+01
7.095451e-05 2.555671e-03 5.600011e+01
2.389939e-03 2.308617e-04 5.599641e+01
2.594279e-03 -1.205100e-04 5.599810e+01
3.662715e-03 -6.630098e-05 5.600399e+01
4.521471e-03 2.846344e-04 5.600485e+01
2.893006e-03 2.684407e-02 5.599666e+01
2.619809e-03 5.191453e-02 5.599903e+01
2.120868e-03 2.722914e-02 5.599781e+01
6.006643e-03 5.163436e-02 5.599933e+01
2.243424e-03 8.289027e-03 5.599796e+01
2.341895e-03 8.069675e-03 5.599678e+01
2.515353e-03 8.440807e-04 5.599940e+01
3.722948e-03 -2.177774e-04 5.599849e+01
3.305994e-03 2.820472e-03 5.599916e+01
2.997045e-03 2.357625e-03 5.599831e+01
-1.731904e-03 7.578701e-04 5.599813e+01
7.621557e-04 -6.556415e-04 5.599949e+01
2.118939e-03 3.976425e-03 5.599876e+01
3.729846e-04 4.770206e-03 5.599747e+01
-2.235164e-03 -2.765917e-03 5.600112e+01
-5.024681e-04 -2.357417e-03 5.600172e+01
7.979222e-03 -4.065173e-03 5.600275e+01
5.946304e-03 -4.809878e-03 5.599910e+01
1.557740e-03 2.386019e-02 5.599634e+01
-5.759642e-03 4.317023e-02 5.599890e+01
4.228569e-03 2.260414e-02 5.599724e+01
-8.195047e-03 4.449294e-02 5.599634e+01
5.231515e-03 1.172303e-02 5.599705e+01
3.357018e-03 1.255718e-02 5.599674e+01
2.284547e-03 -1.130526e-03 5.599761e+01
3.680718e-03 -8.735981e-04 5.599871e+01
-1.164042e-04 3.034128e-03 5.599917e+01
9.878906e-04 2.152975e-03 5.599856e+01
7.756831e-04 1.839413e-03 5.599899e+01
-9.106240e-04 2.736843e-03 5.599870e+01
4.555476e-06 7.085241e-04 5.599887e+01
5.601901e-04 1.264721e-03 5.599947e+01
4.102702e-03 4.409220e-03 5.599889e+01
5.842239e-03 4.436066e-03 5.599743e+01
-4.343734e-03 -1.030390e-02 5.600175e+01
-9.615803e-03 -1.054972e-02 5.600721e+01
3.740927e-03 1.733446e-02 5.599609e+01
-4.611410e-03 3.430812e-02 5.599808e+01
1.996654e-03 1.753602e-02 5.599743e+01
-4.020474e-03 3.314844e-02 5.599605e+01
3.417725e-03 1.062121e-02 5.599781e+01
5.755853e-03 1.103548e-02 5.599671e+01
3.162232e-03 5.076220e-03 5.599979e+01
2.432183e-03 5.535779e-03 5.599987e+01
1.703660e-03 -5.320863e-04 5.599945e+01
6.207540e-04 1.744546e-04 5.600057e+01
2.206610e-04 7.327594e-03 5.599711e+01
1.527028e-03 6.469469e-03 5.599739e+01
1.197838e-03 -3.184306e-03 5.600034e+01
6.812294e-04 -2.765906e-03 5.600181e+01
2.057514e-03 2.469201e-03 5.600129e+01
1.363546e-03 1.890366e-04 5.599940e+01
-4.184276e-03 5.247222e-03 5.599116e+01
-3.247700e-03 5.519247e-03 5.599317e+01
2.341871e-03 1.684576e-02 5.599774e+01
-7.598199e-03 1.814051e-02 5.599571e+01
5.405515e-04 1.765130e-02 5.599756e+01
-5.246331e-03 1.854498e-02 5.599651e+01
4.081940e-03 1.108765e-02 5.599691e+01
3.549908e-03 1.101470e-02 5.599883e+01
6.423404e-03 1.005560e-02 5.599681e+01
5.292182e-03 1.010838e-02 5.599773e+01
-3.878041e-03 5.209547e-03 5.600055e+01
-7.533660e-04 4.846477e-03 5.599828e+01
4.098482e-03 5.653738e-04 5.599973e+01
6.727689e-04 9.997024e-04 5.599939e+01
-1.197867e-03 8.090576e-04 5.599959e+01
1.762059e-03 3.922018e-04 5.599897e+01
-4.310165e-03 -2.612622e-03 5.600214e+01
-4.912430e-03 -9.083710e-04 5.600418e+01
4.657607e-03 -6.965953e-04 5.599388e+01
5.852260e-03 -2.252673e-03 5.599282e+01
1.335951e-03 1.644486e-03 5.599824e+01
-1.102672e-03 -2.355433e-04 5.599942e+01
2.652288e-04 2.707618e-03 5.599703e+01
2.098104e-03 1.176877e-03 5.599728e+01
-3.291704e-04 1.873099e-03 5.599873e+01
-1.017289e-03 1.187861e-03 5.599798e+01
1.977025e-03 1.679882e-03 5.599866e+01
1.847166e-03 8.135346e-04 5.599691e+01
-1.939274e-03 3.537109e-03 5.599877e+01
-2.405539e-03 -3.049324e-03 5.599813e+01
-3.850916e-03 3.381450e-03 5.600014e+01
-2.295295e-03 -2.894341e-03 5.599797e+01
5.718679e-03 6.378552e-04 5.599575e+01
4.135391e-03 -1.926890e-03 5.599413e+01
7.112409e-03 1.242402e-03 5.599478e+01
3.977661e-03 -9.724514e-04 5.599408e+01
9.491195e-03 9.246858e-03 5.599484e+01
1.186732e-02 -6.556388e-03 5.597808e+01
5.874590e-03 1.029115e-02 5.599685e+01
1.288544e-02 -7.543629e-03 5.597690e+01
8.931671e-03 4.156259e-04 5.600272e+01
9.072145e-03 -7.493895e-03 5.598825e+01
9.973236e-03 8.311264e-04 5.599815e+01
5.200659e-03 -7.807783e-03 5.599052e+01
-1.192548e-02 -3.847454e-03 5.597294e+01
-1.787813e-04 9.611577e-03 5.598249e+01
-1.176296e-02 -1.964267e-03 5.597868e+01
2.176756e-03 1.090980e-02 5.598028e+01
1.460146e-02 3.581805e-02 5.599511e+01
1.014458e-02 3.751559e-03 5.599466e+01
1.495206e-02 2.057673e-02 5.600462e+01
1.252098e-02 5.902909e-03 5.599207e+01
4.331764e-04 -2.256627e-03 5.599971e+01
-9.676672e-04 4.062500e-03 5.599828e+01
5.337264e-04 2.816764e-04 5.599831e+01
-8.126077e-04 3.395164e-03 5.599901e+01
2.005822e-03 -4.076004e-04 5.599990e+01
2.107015e-03 5.672097e-04 5.599546e+01
1.558940e-05 5.215738e-03 5.599982e+01
-6.365236e-04 4.826033e-03 5.600193e+01
4.523353e-03 5.955821e-03 5.599892e+01
3.797782e-03 8.633726e-04 5.599638e+01
1.281957e-02 5.030769e-03 5.598597e+01
1.242649e-02 5.231574e-03 5.599088e+01
-1.578748e-02 1.123868e-02 5.599727e+01
-1.527700e-02 1.257059e-02 5.599073e+01
-2.025342e-03 7.884684e-03 5.598848e+01
1.213373e-03 1.630881e-02 5.598564e+01
-4.431510e-03 6.202927e-03 5.599448e+01
-5.457588e-03 7.783820e-03 5.599632e+01
-7.113450e-04 1.306185e-03 5.600039e+01
-8.726793e-04 1.703057e-03 5.599844e+01
1.080881e-03 1.492537e-03 5.599825e+01
9.133512e-04 -2.024463e-03 5.600019e+01
-6.380210e-05 2.060293e-04 5.599963e+01
1.551189e-03 -5.959891e-04 5.599805e+01
-1.251143e-03 -6.174924e-05 5.599943e+01
-1.496029e-03 7.760134e-04 5.600011e+01
2.951075e-04 1.054811e-04 5.600092e+01
1.024696e-03 -1.007506e-03 5.599855e+01
1.216019e-03 -2.467601e-03 5.599889e+01
-2.194766e-04 -2.607026e-03 5.599978e+01
-8.533641e-04 2.899473e-03 5.599927e+01
2.603121e-04 3.034434e-04 5.600028e+01
3.103070e-04 -2.835216e-04 5.599958e+01
8.052618e-05 1.511501e-03 5.599945e+01
-9.712938e-04 -2.393001e-03 5.599856e+01
-1.620588e-03 -1.525391e-03 5.600081e+01
4.513415e-04 -1.176701e-03 5.599925e+01
2.636558e-04 1.248154e-03 5.599994e+01
-1.050496e-03 2.157859e-03 5.600027e+01
-8.355523e-04 -8.685197e-04 5.599844e+01
-3.372312e-03 -4.999561e-04 5.600064e+01
-3.173157e-03 -3.497768e-04 5.600003e+01
1.809888e-06 3.983042e-03 5.599803e+01
3.722069e-04 4.008046e-03 5.600120e+01
-2.795038e-03 5.630797e-03 5.599802e+01
-2.297159e-03 3.999670e-03 5.599697e+01
-2.564415e-03 -5.597252e-03 5.600023e+01
-3.142133e-03 -4.453350e-03 5.600217e+01
9.784957e-04 2.021013e-03 5.599867e+01
2.778087e-03 2.764343e-03 5.599874e+01
7.011956e-03 1.696647e-03 5.599940e+01
5.872948e-03 3.947059e-03 5.599993e+01
5.988709e-03 3.226771e-04 5.600611e+01
5.601769e-03 -6.731585e-04 5.600539e+01
-2.522803e-03 1.630144e-03 5.599855e+01
2.919909e-04 -7.064225e-04 5.599826e+01
2.412437e-05 2.224453e-03 5.599834e+01
7.653478e-04 -8.260085e-04 5.599675e+01
-1.143152e-03 -5.455930e-03 5.599829e+01
3.189144e-03 3.586738e-03 5.599771e+01
-3.862294e-03 -4.387369e-03 5.599759e+01
2.215782e-03 5.022315e-03 5.599890e+01
-7.725148e-03 2.232983e-05 5.599751e+01
-1.326522e-03 2.103815e-04 5.599768e+01
-4.833744e-03 7.616951e-04 5.599601e+01
-1.054691e-03 -8.013674e-04 5.599742e+01
-6.585426e-03 -1.460803e-03 5.599353e+01
-4.461748e-03 1.789712e-03 5.599714e+01
-6.212334e-03 -1.166084e-03 5.599528e+01
-3.290181e-03 9.361013e-04 5.599694e+01
-5.768945e-03 5.986367e-03 5.599662e+01
-4.123318e-03 6.303733e-03 5.599756e+01
-7.360537e-03 7.839747e-03 5.599496e+01
-2.455728e-03 5.948046e-03 5.599718e+01
1.661095e-03 1.457298e-03 5.599870e+01
1.983154e-03 1.813571e-03 5.599777e+01
-1.303046e-03 2.825530e-03 5.599835e+01
-2.391976e-03 2.252489e-03 5.599944e+01
2.277527e-03 1.546296e-03 5.599786e+01
2.348295e-03 1.076476e-03 5.600018e+01
-4.872451e-03 1.590549e-03 5.599862e+01
-4.344788e-03 5.302336e-04 5.599723e+01
-8.667537e-04 4.716566e-03 5.599938e+01
5.973567e-04 4.959006e-03 5.599822e+01
-8.571133e-04 2.949342e-03 5.599864e+01
1.218361e-04 2.978100e-03 5.600028e+01
2.992885e-04 2.503922e-03 5.600000e+01
1.215616e-03 2.197269e-03 5.599849e+01
-1.486015e-03 -1.267436e-03 5.600013e+01
-1.973288e-03 -2.337689e-03 5.599778e+01
-2.385042e-03 7.961714e-03 5.599946e+01
-1.122926e-03 9.206166e-03 5.599954e+01
2.957192e-03 -7.506334e-03 5.599737e+01
-7.375957e-04 -7.131532e-03 5.599679e+01
3.810098e-04 4.161638e-03 5.600021e+01
1.472685e-04 3.935021e-03 5.599832e+01
1.134030e-03 -5.321937e-04 5.599849e+01
-6.930846e-04 -1.441680e-03 5.600067e+01
-2.920657e-03 1.220720e-03 5.599900e+01
-3.338869e-03 1.017390e-03 5.599965e+01
3.495685e-04 3.434152e-03 5.599846e+01
2.057386e-03 3.650276e-03 5.600026e+01
5.117766e-04 1.107996e-04 5.599661e+01
2.043496e-03 -4.708492e-04 5.599749e+01
-1.675361e-03 7.322951e-04 5.599947e+01
6.709791e-04 8.337568e-04 5.599914e+01
1.633571e-03 -3.889274e-04 5.599913e+01
-1.306082e-03 -1.562286e-04 5.600030e+01
-4.991851e-04 2.436629e-03 5.600023e+01
1.508132e-04 2.687669e-03 5.599864e+01
2.815400e-03 -3.339545e-03 5.600044e+01
3.133843e-03 -2.645403e-03 5.599969e+01
9.697712e-04 3.668043e-03 5.599997e+01
1.665774e-04 3.245956e-03 5.600017e+01
-1.151579e-04 2.193178e-03 5.600129e+01
4.017141e-04 3.257818e-03 5.599994e+01
-7.636066e-04 2.080325e-03 5.599963e+01
6.806318e-04 2.974431e-03 5.599952e+01
-1.252807e-03 1.884485e-03 5.600015e+01
-3.644247e-04 2.792035e-03 5.599848e+01
1.964620e-03 -2.826405e-04 5.599996e+01
2.275342e-03 -2.132336e-04 5.600002e+01
1.090041e-03 4.120724e-03 5.599930e+01
-2.362210e-03 3.976598e-03 5.600041e+01
-8.376951e-05 5.558063e-03 5.600496e+01
-2.652917e-04 4.979100e-03 5.600549e+01
1.622166e-03 3.706594e-03 5.599794e+01
-2.483739e-04 3.292560e-03 5.599749e+01
-2.157263e-03 4.340067e-03 5.599749e+01
4.623280e-04 4.272195e-03 5.600069e+01
3.570653e-03 -3.052528e-03 5.600355e+01
2.244247e-03 -4.119890e-03 5.600117e+01
-2.836833e-03 7.259550e-03 5.599783e+01
-2.468362e-03 5.996861e-03 5.600032e+01
8.579760e-04 -4.907025e-03 5.598536e+01
1.054928e-03 -5.711648e-03 5.598857e+01
-5.828492e-03 1.213892e-02 5.599862e+01
-8.882655e-03 1.039658e-02 5.599789e+01
-3.461001e-03 -1.097199e-02 5.600718e+01
-2.235923e-03 -1.137985e-02 5.600786e+01
8.888932e-03 -5.916683e-03 5.600013e+01
8.959706e-03 -6.784866e-03 5.600099e+01
4.172740e-03 1.275857e-02 5.600161e+01
5.572299e-03 1.396351e-02 5.599765e+01
3.453148e-02 4.468392e-02 5.601235e+01
3.420202e-02 4.394368e-02 5.601170e+01
1.975867e-02 5.760644e-02 5.600111e+01
1.942440e-02 5.772071e-02 5.600155e+01
8.958332e-03 5.975844e-02 5.600967e+01
9.413225e-03 6.111497e-02 5.600862e+01
1.835843e-03 5.483414e-02 5.599950e+01
8.771849e-04 5.328472e-02 5.600221e+01
-1.073044e-02 3.592999e-02 5.599528e+01
-8.952572e-03 3.578936e-02 5.599514e+01
-1.185840e-02 1.545311e-02 5.599311e+01
-1.321776e-02 1.473460e-02 5.599386e+01
5.247053e-02 5.953483e-02 5.602014e+01
5.132741e-02 5.946458e-02 5.602144e+01
4.252326e-02 6.748922e-02 5.600682e+01
4.111004e-02 6.883788e-02 5.600601e+01
2.789292e-02 8.071224e-02 5.599692e+01
2.832425e-02 8.110105e-02 5.599736e+01
4.276551e-03 6.846987e-02 5.599981e+01
1.966859e-03 6.870872e-02 5.599797e+01
-1.115470e-02 4.290338e-02 5.599727e+01
-1.007372e-02 4.179412e-02 5.599785e+01
-1.350266e-02 1.379550e-02 5.598922e+01
-1.590740e-02 1.432111e-02 5.598773e+01
6.724342e-02 4.713599e-02 5.602256e+01
7.151573e-02 4.552786e-02 5.602355e+01
7.018769e-02 8.840187e-02 5.603253e+01
7.002340e-02 8.822363e-02 5.603284e+01
4.175574e-02 1.075793e-01 5.602436e+01
3.964809e-02 1.075675e-01 5.602512e+01
1.148818e-02 9.585151e-02 5.601365e+01
1.229558e-02 9.559645e-02 5.601553e+01
-2.005372e-03 4.734720e-02 5.599455e+01
-3.047642e-03 4.995442e-02 5.599202e+01
-8.743947e-03 2.077562e-02 5.599139e+01
-6.685745e-03 2.176444e-02 5.598947e+01
1.126617e-01 5.206407e-02 5.602849e+01
1.123741e-01 5.028859e-02 5.602930e+01
7.791033e-02 1.057882e-01 5.604236e+01
7.895091e-02 1.026158e-01 5.604484e+01
6.069216e-02 1.364695e-01 5.604108e+01
6.114176e-02 1.380769e-01 5.603951e+01
3.583080e-02 1.250042e-01 5.602130e+01
3.661787e-02 1.246093e-01 5.602159e+01
5.241441e-03 7.327988e-02 5.599836e+01
4.346998e-03 7.251257e-02 5.600173e+01
-1.132471e-03 1.323571e-02 5.598149e+01
-1.852528e-03 1.612342e-02 5.597892e+01
1.051754e-01 5.851440e-02 5.603851e+01
1.046330e-01 5.665122e-02 5.604128e+01
1.084610e-01 1.233472e-01 5.603578e+01
1.090204e-01 1.220603e-01 5.603655e+01
9.133046e-02 1.496585e-01 5.605023e+01
8.957139e-02 1.479187e-01 5.604942e+01
5.636414e-02 1.693635e-01 5.604186e+01
5.760630e-02 1.706889e-01 5.604098e+01
2.751257e-02 9.292153e-02 5.599770e+01
2.552549e-02 9.312616e-02 5.599823e+01
8.014793e-03 2.672855e-02 5.598142e+01
1.008847e-02 2.775440e-02 5.598003e+01
1.439500e-01 7.256723e-02 5.601836e+01
1.474798e-01 7.394361e-02 5.601651e+01
1.246010e-01 1.235115e-01 5.605223e+01
1.256120e-01 1.255558e-01 5.605018e+01
1.033009e-01 1.878293e-01 5.606431e+01
1.043283e-01 1.890891e-01 5.606508e+01
7.690392e-02 1.912791e-01 5.605294e+01
7.722164e-02 1.909410e-01 5.605399e+01
3.626926e-02 1.489105e-01 5.600767e+01
3.560651e-02 1.486668e-01 5.600635e+01
3.420242e-02 -8.000969e-03 5.595825e+01
3.548979e-02 -7.034838e-03 5.595802e+01
1.619673e-01 8.331892e-02 5.605314e+01
1.618984e-01 8.090467e-02 5.606190e+01
1.254511e-01 1.755145e-01 5.604565e+01
1.236872e-01 1.756979e-01 5.604434e+01
1.090888e-01 1.783029e-01 5.607780e+01
1.110960e-01 1.791263e-01 5.608108e+01
8.938118e-02 2.520817e-01 5.604188e+01
8.979561e-02 2.527700e-01 5.603902e+01
1.062297e-01 1.125318e-01 5.599781e+01
1.009605e-01 1.128468e-01 5.599883e+01
8.752472e-02 4.759257e-02 5.596691e+01
8.875852e-02 4.763142e-02 5.596675e+01
1.923912e-01 1.188769e-01 5.606829e+01
1.935168e-01 1.188364e-01 5.605986e+01
1.767063e-01 1.907802e-01 5.611167e+01
1.789254e-01 1.921204e-01 5.611310e+01
1.257633e-01 2.344017e-01 5.604266e+01
1.238196e-01 2.334019e-01 5.604251e+01
1.496176e-01 1.951016e-01 5.603801e+01
1.513933e-01 1.959657e-01 5.603436e+01
1.226251e-01 1.948186e-01 5.600867e+01
1.231939e-01 1.942293e-01 5.601149e+01
5.425558e-02 5.046238e-02 5.595676e+01
5.476187e-02 5.090472e-02 5.595632e+01
2.081466e-01 2.267420e-01 5.613565e+01
2.064349e-01 2.256071e-01 5.614264e+01
1.360853e-01 1.706509e-01 5.605598e+01
1.363081e-01 1.704981e-01 5.605578e+01
1.942791e-01 2.509505e-01 5.608309e+01
1.952995e-01 2.527214e-01 5.608598e+01
1.391521e-01 2.181938e-01 5.598182e+01
1.363168e-01 2.204194e-01 5.598401e+01
1.401476e-01 1.958229e-01 5.593160e+01
1.421654e-01 1.940075e-01 5.593463e+01
-7.118854e-02 3.243215e-01 5.590139e+01
-6.973780e-02 3.241923e-01 5.590432e+01
2.545163e-01 1.599178e-01 5.611053e+01
2.571011e-01 1.619907e-01 5.610944e+01
3.061402e-01 2.605816e-01 5.615146e+01
3.078131e-01 2.632323e-01 5.614743e+01
1.511463e-01 2.632553e-01 5.597427e+01
1.506011e-01 2.617055e-01 5.598009e+01
1.794450e-01 2.390379e-01 5.592077e+01
1.799451e-01 2.401646e-01 5.592328e+01
-9.327484e-02 4.510557e-01 5.578190e+01
-9.257609e-02 4.508921e-01 5.578158e+01
-2.041504e-01 3.928723e-01 5.583212e+01
-2.097056e-01 3.940006e-01 5.582860e+01
3.790462e-01 3.113529e-01 5.625903e+01
3.793052e-01 3.111514e-01 5.625958e+01
2.463387e-01 2.088019e-01 5.601670e+01
2.437631e-01 2.097407e-01 5.601897e+01
3.001553e-01 4.171547e-01 5.595753e+01
3.051555e-01 4.174027e-01 5.596257e+01
-7.400395e-02 4.369833e-01 5.570755e+01
-7.882072e-02 4.347607e-01 5.571348e+01
2.943279e-02 4.178052e-01 5.567138e+01
3.531612e-02 4.189212e-01 5.567459e+01
-2.926021e-01 8.833629e-01 5.575748e+01
-2.916234e-01 8.831464e-01 5.576088e+01
3.318947e-01 5.879629e-02 5.614711e+01
3.308091e-01 5.799307e-02 5.614755e+01
4.855501e-01 4.387563e-01 5.615050e+01
4.874734e-01 4.400922e-01 5.614466e+01
1.087626e-01 5.208262e-01 5.567745e+01
1.104818e-01 5.181086e-01 5.568141e+01
1.956680e-01 6.256948e-01 5.550925e+01
1.935415e-01 6.228066e-01 5.551714e+01
-4.543762e-01 7.833081e-01 5.531110e+01
-4.572961e-01 7.826588e-01 5.530998e+01
-3.414377e-01 7.402899e-01 5.545589e+01
-3.420355e-01 7.423792e-01 5.545172e+01
4.162532e-01 2.749250e-01 5.625151e+01
4.175143e-01 2.743113e-01 5.625564e+01
3.384584e-01 1.477657e-01 5.594218e+01
3.378757e-01 1.403158e-01 5.595417e+01
5.023134e-01 1.006791e+00 5.575712e+01
5.051647e-01 1.003350e+00 5.576095e+01
-3.990851e-01 9.714851e-01 5.498929e+01
-4.005782e-01 9.686885e-01 5.498833e+01
-9.990805e-02 8.071911e-01 5.448517e+01
-9.552182e-02 8.057098e-01 5.447887e+01
-1.983510e-01 7.332745e-01 5.434754e+01
-1.971172e-01 7.348681e-01 5.433268e+01
5.152540e-01 2.028515e-01 5.634588e+01
5.136955e-01 1.986188e-01 5.634610e+01
2.891498e-01 5.030588e-01 5.596114e+01
2.905743e-01 5.023317e-01 5.595286e+01
1.264532e-01 6.350767e-01 5.570197e+01
1.357559e-01 6.294184e-01 5.570921e+01
7.229590e-01 1.646711e+00 5.398382e+01
7.172097e-01 1.630051e+00 5.399626e+01
-3.216134e-01 9.491087e-01 5.206429e+01
-3.357345e-01 9.522017e-01 5.202924e+01
-5.438844e-02 4.671496e-01 5.175515e+01
-2.720753e-02 4.639185e-01 5.173324e+01
3.657341e-01 3.266834e-01 5.625762e+01
3.698749e-01 3.197998e-01 5.626168e+01
3.342973e-01 6.426472e-01 5.592728e+01
3.270318e-01 6.404061e-01 5.592775e+01
1.095928e+00 -1.111643e-01 5.374436e+01
1.099822e+00 -1.289595e-01 5.376893e+01
9.290924e-01 1.993786e+00 5.124570e+01
9.603346e-01 2.042067e+00 5.116002e+01
-1.393647e-01 2.825431e+00 4.539088e+01
3.080389e-02 2.945022e+00 4.519426e+01
9.080487e-01 -2.341499e+00 4.287098e+01
7.631643e-01 -2.216381e+00 4.272483e+01
7.729296e-01 3.410821e-01 5.613556e+01
7.786855e-01 3.451448e-01 5.612591e+01
1.456594e+00 -3.123618e-02 5.500315e+01
1.474100e+00 8.814173e-05 5.496977e+01
9.236474e-01 3.975098e-01 5.164257e+01
8.894739e-01 4.212902e-01 5.161081e+01
7.175472e+00 -4.539690e+00 4.058121e+01
7.132750e+00 -4.376579e+00 4.054116e+01
1.070861e+01 7.734647e+00 1.443154e+01
9.858359e+00 7.652978e+00 1.424916e+01
-1.863490e-01 3.045936e+00 4.850866e+00
-7.001280e-02 3.291427e+00 4.761423e+00
7.584352e-01 1.018252e-01 5.626693e+01
7.602260e-01 8.155386e-02 5.626054e+01
6.928518e-01 -4.188363e-01 5.579230e+01
6.719631e-01 -4.337151e-01 5.579005e+01
3.328712e+00 -1.289421e+00 5.344317e+01
3.340589e+00 -1.424487e+00 5.346780e+01
-4.243535e-01 -4.827442e+00 3.062304e+01
-1.050679e+00 -4.836998e+00 3.050040e+01
-1.047138e+01 1.371551e+01 1.180427e+01
-8.101567e+00 1.290927e+01 1.176923e+01
-3.109028e-01 -1.752131e+00 -1.507742e+01
-5.292027e-01 -2.000521e+00 -1.513137e+01
4.895715e-01 -4.233947e-01 5.683202e+01
4.953191e-01 -3.920354e-01 5.682823e+01
7.500319e-01 -1.168266e-01 5.550641e+01
7.478009e-01 -1.132216e-01 5.549963e+01
-1.551441e+00 -2.052431e+00 5.382237e+01
-1.542532e+00 -1.949217e+00 5.386285e+01
-3.537642e+00 2.320264e+00 5.157117e+01
-3.509941e+00 2.256655e+00 5.152121e+01
6.632174e+00 5.189747e+00 4.664050e+01
6.307448e+00 5.144174e+00 4.653702e+01
5.293027e+00 -1.195882e+00 4.881407e+01
5.285677e+00 -1.222392e+00 4.846217e+01
4.647838e-01 3.684572e-01 5.575293e+01
4.713931e-01 3.689373e-01 5.572681e+01
1.137715e-01 -8.659607e-01 5.591974e+01
1.128430e-01 -8.406994e-01 5.592320e+01
2.028658e-01 9.575971e-01 5.440040e+01
2.053553e-01 9.531529e-01 5.437539e+01
1.704783e+00 -2.011171e-01 5.401244e+01
1.696254e+00 -1.774991e-01 5.400853e+01
2.086466e-01 -6.956881e-01 5.294226e+01
2.519928e-01 -6.832637e-01 5.290592e+01
3.835228e+00 2.349014e+00 5.242567e+01
3.844610e+00 2.366069e+00 5.250002e+01
4.775576e-01 -6.057309e-01 5.627837e+01
4.795491e-01 -5.936356e-01 5.626945e+01
6.307353e-01 2.810234e-01 5.555680e+01
6.268237e-01 2.945992e-01 5.555386e+01
7.422385e-01 -4.256763e-01 5.486657e+01
7.455448e-01 -4.037528e-01 5.486715e+01
6.322876e-01 -2.861388e-01 5.432964e+01
6.319697e-01 -2.740152e-01 5.432863e+01
1.227852e+00 2.345032e-01 5.350002e+01
1.223974e+00 2.531404e-01 5.350958e+01
1.438511e+00 -2.503651e+00 5.422479e+01
1.457957e+00 -2.495464e+00 5.419175e+01
5.631151e-01 5.492954e-03 5.607403e+01
5.636440e-01 1.832975e-02 5.606909e+01
2.880997e-01 -2.282712e-01 5.584330e+01
2.892294e-01 -2.123123e-01 5.583968e+01
3.890138e-01 -1.962753e-01 5.507184e+01
3.862451e-01 -1.813387e-01 5.507639e+01
3.079734e-02 -1.201761e-01 5.426796e+01
3.457511e-02 -1.009997e-01 5.428602e+01
8.432092e-01 -1.421475e+00 5.418622e+01
8.494495e-01 -1.411107e+00 5.417069e+01
1.007093e+00 -1.249329e+00 5.377397e+01
1.002501e+00 -1.246805e+00 5.378959e+01
3.557945e-01 -1.488455e-01 5.614508e+01
3.534429e-01 -1.331969e-01 5.615329e+01
4.532854e-01 7.771773e-02 5.596368e+01
4.496912e-01 8.784350e-02 5.595886e+01
-3.525831e-01 1.645152e-01 5.506988e+01
-3.460882e-01 1.793578e-01 5.508271e+01
4.812534e-01 -1.106578e+00 5.439734e+01
4.875371e-01 -1.088880e+00 5.438233e+01
3.692980e-01 -1.118631e+00 5.380638e+01
3.702532e-01 -1.108651e+00 5.381634e+01
3.609178e-03 -1.121424e-02 5.598956e+01
3.565245e-04 -9.643394e-03 5.598912e+01
-2.783683e-03 1.384921e-03 5.599664e+01
-1.886313e-03 2.649480e-03 5.599767e+01
-1.060380e-02 -6.783771e-03 5.599723e+01
-8.514945e-03 -6.115539e-03 5.599469e+01
9.817063e-04 9.710710e-03 5.600185e+01
-3.923656e-03 1.171134e-02 5.600358e+01
-1.258785e-03 -5.867748e-04 5.599817e+01
6.078581e-04 -9.778865e-04 5.599804e+01
-3.993477e-03 3.876577e-02 5.600070e+01
-6.525042e-03 3.988280e-02 5.600085e+01
-1.573649e-02 6.516349e-04 5.598163e+01
-1.760906e-02 -7.935390e-05 5.598316e+01
-2.971134e-02 8.927492e-03 5.598475e+01
-3.343360e-02 8.499469e-03 5.598527e+01
-1.224742e-02 4.452200e-02 5.600293e+01
-1.272589e-02 4.379973e-02 5.600317e+01
-5.234481e-02 9.228658e-02 5.604268e+01
-5.132850e-02 9.137943e-02 5.604267e+01
-2.915487e-02 2.519828e-01 5.609644e+01
-3.298965e-02 2.528086e-01 5.609681e+01
-2.842129e-01 2.188018e-01 5.616928e+01
-2.843992e-01 2.163124e-01 5.617218e+01
-1.710169e-01 2.646765e-01 5.622118e+01
-1.729130e-01 2.643028e-01 5.622113e+01
-4.889582e-01 -2.371270e-01 5.618904e+01
-4.911086e-01 -2.361258e-01 5.618497e+01
-1.213671e-01 -1.614145e-01 5.610589e+01
-1.209393e-01 -1.631380e-01 5.610906e+01
-3.791922e-01 9.128320e-03 5.649466e+01
-3.804772e-01 1.103243e-02 5.649741e+01
-4.822417e-02 6.895970e-02 5.683036e+01
-4.845241e-02 7.065466e-02 5.683401e+01
-4.460708e-01 -2.574834e-02 5.667851e+01
-4.438512e-01 -2.308148e-02 5.667846e+01
-2.074686e-01 -4.148476e-02 5.632126e+01
-2.070055e-01 -3.746808e-02 5.632561e+01
-5.000664e-01 1.080932e-01 5.612229e+01
-4.993971e-01 1.054440e-01 5.611984e+01
-2.524326e-01 -2.742590e-01 5.607744e+01
-2.569943e-01 -2.754738e-01 5.607761e+01
-2.564554e-01 -1.248027e-02 5.598849e+01
-2.588609e-01 -1.207239e-02 5.598921e+01
-2.370034e-03 4.297428e-03 5.599922e+01
-6.507611e-04 6.830124e-03 5.599867e+01
-2.243679e-03 1.453358e-03 5.598889e+01
-1.975758e-03 1.797559e-03 5.598978e+01
-2.240079e-03 9.103918e-03 5.599959e+01
-4.652824e-03 1.287008e-02 5.599839e+01
-1.180762e-02 -1.108829e-03 5.597991e+01
-1.159471e-02 -3.711481e-03 5.597924e+01
-1.402755e-02 1.483084e-02 5.598350e+01
-1.478693e-02 1.585196e-02 5.598509e+01
-2.811295e-02 4.300203e-02 5.598533e+01
-2.666711e-02 4.308177e-02 5.598456e+01
-3.494212e-02 1.915341e-02 5.598475e+01
-3.325154e-02 2.061235e-02 5.598280e+01
-4.667237e-02 7.010035e-03 5.598451e+01
-4.561150e-02 4.776548e-03 5.598687e+01
-5.682489e-02 3.268321e-02 5.601004e+01
-5.785531e-02 3.330399e-02 5.601180e+01
-6.501077e-02 1.412413e-01 5.604308e+01
-6.620336e-02 1.392908e-01 5.604496e+01
-1.635738e-01 2.727333e-01 5.611205e+01
-1.622029e-01 2.707309e-01 5.611403e+01
-2.221654e-01 5.043080e-01 5.616920e+01
-2.245979e-01 5.044290e-01 5.616728e+01
-4.751432e-01 1.099442e-01 5.618167e+01
-4.741808e-01 1.132915e-01 5.617512e+01
-2.517192e-01 1.463521e-02 5.602066e+01
-2.525323e-01 1.701540e-02 5.601850e+01
-6.386031e-01 -4.057387e-01 5.593107e+01
-6.377674e-01 -4.047900e-01 5.593224e+01
-3.073239e-01 1.791062e-01 5.625397e+01
-3.006979e-01 1.756801e-01 5.625977e+01
-7.736721e-01 3.573131e-02 5.688926e+01
-7.718526e-01 3.264783e-02 5.688984e+01
-3.795891e-01 -3.276238e-03 5.643816e+01
-3.707475e-01 9.929145e-04 5.644191e+01
-8.803994e-01 1.890713e-01 5.598498e+01
-8.772332e-01 1.846525e-01 5.598478e+01
-4.703884e-01 -2.429049e-01 5.598842e+01
-4.736789e-01 -2.459065e-01 5.598421e+01
-3.426751e-01 -2.888657e-01 5.598267e+01
-3.402388e-01 -2.897643e-01 5.598346e+01
-1.662831e-01 -1.603767e-01 5.601190e+01
-1.744727e-01 -1.594967e-01 5.602041e+01
-4.131501e-03 4.262462e-03 5.599579e+01
-4.382163e-03 4.885618e-03 5.599479e+01
-5.843845e-03 1.021143e-02 5.599408e+01
-5.046731e-03 1.003032e-02 5.599630e+01
-9.678861e-03 1.304406e-02 5.599162e+01
-9.674638e-03 1.316461e-02 5.599096e+01
-1.102094e-02 8.666254e-03 5.598442e+01
-9.102776e-03 9.344781e-03 5.598705e+01
-2.244600e-02 1.788339e-02 5.598774e+01
-2.479997e-02 1.850071e-02 5.598412e+01
-1.406956e-02 5.083072e-02 5.598942e+01
-1.484778e-02 4.959668e-02 5.599204e+01
-3.959067e-02 4.152619e-02 5.597527e+01
-4.021479e-02 3.988274e-02 5.597477e+01
-4.847235e-02 5.617965e-03 5.598216e+01
-4.978015e-02 6.107042e-03 5.598148e+01
-5.240008e-02 3.975051e-02 5.600654e+01
-5.159395e-02 3.815146e-02 5.600841e+01
-8.753136e-02 1.712504e-01 5.604962e+01
-8.689618e-02 1.710116e-01 5.605096e+01
-2.026328e-01 4.428582e-01 5.607177e+01
-2.023179e-01 4.420092e-01 5.607470e+01
-3.570037e-01 5.421035e-01 5.613703e+01
-3.550574e-01 5.426579e-01 5.613678e+01
-4.586809e-01 4.408668e-01 5.598838e+01
-4.618153e-01 4.437409e-01 5.598555e+01
-6.498600e-01 -3.381185e-01 5.571583e+01
-6.513623e-01 -3.359447e-01 5.571459e+01
-4.145516e-01 1.073356e-01 5.549802e+01
-4.090598e-01 1.109494e-01 5.549586e+01
-1.113473e+00 1.270079e-02 5.547979e+01
-1.105645e+00 2.355888e-02 5.547151e+01
-5.086549e-01 3.311703e-02 5.544231e+01
-4.807292e-01 1.520054e-02 5.543760e+01
-1.190598e+00 3.199232e-01 5.534406e+01
-1.179217e+00 3.278949e-01 5.534921e+01
-8.206499e-01 9.132499e-03 5.557303e+01
-8.238665e-01 -3.268403e-03 5.556285e+01
-6.031702e-01 -6.616775e-01 5.567601e+01
-6.050956e-01 -6.643320e-01 5.567519e+01
-1.641241e-01 -4.381014e-01 5.563901e+01
-1.645702e-01 -4.382660e-01 5.564037e+01
5.502047e-02 -3.908976e-01 5.572716e+01
5.471264e-02 -3.928248e-01 5.571739e+01
-6.123071e-03 9.379330e-03 5.599601e+01
-7.879692e-03 9.848407e-03 5.599709e+01
-1.118678e-02 9.190109e-03 5.599287e+01
-1.136818e-02 9.198799e-03 5.599053e+01
-9.480433e-03 1.864610e-02 5.599451e+01
-9.389934e-03 1.980639e-02 5.599416e+01
-2.267338e-02 1.949561e-02 5.598914e+01
-2.255821e-02 1.829506e-02 5.598942e+01
-1.657649e-02 1.641592e-02 5.598240e+01
-1.439195e-02 1.664936e-02 5.598181e+01
-2.577580e-02 4.841065e-02 5.597186e+01
-2.662332e-02 4.603406e-02 5.597430e+01
-2.106198e-02 5.695810e-02 5.596821e+01
-2.181671e-02 5.803504e-02 5.596624e+01
-3.361912e-02 1.086201e-02 5.597268e+01
-3.229615e-02 1.076725e-02 5.597428e+01
-4.069056e-02 4.136685e-02 5.599945e+01
-4.204117e-02 4.065108e-02 5.599818e+01
-1.212350e-01 2.827746e-01 5.601650e+01
-1.248696e-01 2.833765e-01 5.601626e+01
-2.566553e-01 5.809053e-01 5.604494e+01
-2.591964e-01 5.809377e-01 5.604249e+01
-4.120410e-01 7.187705e-01 5.592707e+01
-4.158262e-01 7.203350e-01 5.592658e+01
-5.180952e-01 4.811725e-01 5.574209e+01
-5.182034e-01 4.818895e-01 5.573998e+01
-7.577509e-01 6.999266e-02 5.516668e+01
-7.632738e-01 8.042263e-02 5.516216e+01
-7.302261e-01 -5.572628e-01 5.452311e+01
-7.222401e-01 -5.569328e-01 5.452726e+01
-1.528196e-02 7.448467e-01 5.299578e+01
-1.019211e-04 7.581899e-01 5.297279e+01
-1.213601e+00 -9.673473e-02 5.283861e+01
-1.196415e+00 -9.264306e-02 5.283118e+01
-9.627165e-01 9.410467e-01 5.297977e+01
-9.460061e-01 9.320081e-01 5.298788e+01
-1.196383e+00 -6.946611e-01 5.489182e+01
-1.195239e+00 -7.015253e-01 5.487927e+01
-1.876538e-01 -1.175078e+00 5.498596e+01
-1.917972e-01 -1.177418e+00 5.498859e+01
1.774203e-01 -7.144834e-01 5.525977e+01
1.720253e-01 -7.146272e-01 5.526515e+01
4.659260e-01 -6.091673e-01 5.543198e+01
4.696561e-01 -6.059109e-01 5.544670e+01
-1.223647e-02 1.085259e-02 5.599260e+01
-1.084179e-02 1.060519e-02 5.599354e+01
-1.339337e-02 1.373268e-02 5.599283e+01
-1.229094e-02 1.507717e-02 5.599165e+01
-1.701454e-02 1.809939e-02 5.598828e+01
-1.632792e-02 1.707661e-02 5.598972e+01
-1.194705e-02 2.426992e-02 5.598357e+01
-1.169497e-02 2.233173e-02 5.598686e+01
-2.252048e-02 1.324525e-02 5.596867e+01
-2.299503e-02 1.491812e-02 5.596755e+01
3.437558e-04 4.160445e-02 5.596519e+01
-7.698780e-04 4.192485e-02 5.596430e+01
5.815112e-03 5.276484e-02 5.596108e+01
5.759883e-03 5.421908e-02 5.596061e+01
2.203099e-02 1.926527e-02 5.597922e+01
2.065376e-02 1.954981e-02 5.597894e+01
-7.306197e-02 1.330366e-01 5.598646e+01
-7.515858e-02 1.341449e-01 5.598922e+01
-1.647182e-01 3.581928e-01 5.595945e+01
-1.572656e-01 3.567944e-01 5.596576e+01
-2.620776e-01 7.336309e-01 5.590112e+01
-2.618584e-01 7.316968e-01 5.590728e+01
-3.173451e-01 7.833487e-01 5.568634e+01
-3.150984e-01 7.842537e-01 5.568327e+01
-4.463680e-01 6.699483e-01 5.509736e+01
-4.484905e-01 6.738237e-01 5.509461e+01
-6.931481e-01 3.971740e-01 5.428429e+01
-6.889338e-01 3.925109e-01 5.429339e+01
-3.352038e-01 -1.216306e+00 5.033494e+01
-3.059176e-01 -1.173728e+00 5.027379e+01
-3.256330e-01 7.672528e-01 4.201164e+01
-1.439287e-01 8.354551e-01 4.193086e+01
-1.517484e-02 7.420143e-01 4.098845e+01
3.448444e-01 6.078597e-01 4.090718e+01
-5.440902e-01 8.418235e-01 5.011404e+01
-5.622056e-01 8.257740e-01 5.009807e+01
2.573313e-02 -8.504705e-01 5.376239e+01
3.923083e-02 -8.429712e-01 5.374882e+01
-7.075674e-02 -1.889347e+00 5.436241e+01
-7.863599e-02 -1.892385e+00 5.436265e+01
9.094279e-01 -1.331250e+00 5.452591e+01
9.087978e-01 -1.330435e+00 5.453228e+01
1.208862e+00 -5.863166e-01 5.461026e+01
1.212357e+00 -5.823907e-01 5.463402e+01
0.000000e+00 0.000000e+00 0.000000e+00
0.000000e+00 0.000000e+00 0.000000e+00
0.000000e+00 0.000000e+00 0.000000e+00
0.000000e+00 0.000000e+00 0.000000e+00
0.000000e+00 0.000000e+00 0.000000e+00
0.000000e+00 0.000000e+00 0.000000e+00
-2.110259e-03 -9.144431e-04 2.507770e-03
1.965677e-03 1.607549e-03 1.213023e-03
-2.720396e-03 -1.714504e-03 8.717118e-04
-2.928015e-03 -8.787025e-04 6.020459e-04
-3.808523e-03 -3.083286e-03 -1.947304e-03
-1.159541e-02 -1.426447e-03 -2.543585e-03
-5.473933e-04 3.120292e-03 9.542311e-03
-2.925274e-03 1.195564e-06 6.238496e-03
-3.427254e-03 -2.842398e-05 3.472141e-03
-4.705109e-03 -1.653186e-03 3.196253e-03
-6.020357e-03 -2.559784e-03 -1.804184e-03
-1.515010e-02 -4.854277e-03 -7.330220e-03
-6.633204e-03 -1.327647e-03 1.529095e-02
-4.720940e-03 2.602764e-03 1.072441e-02
-4.009141e-03 -4.983466e-04 4.371362e-03
-3.657840e-03 9.368231e-04 4.845286e-03
-4.128058e-03 -5.827053e-05 2.321410e-03
-1.438871e-02 -3.433094e-03 -2.240900e-03
-7.992476e-03 3.986631e-03 2.031786e-02
-3.600957e-03 1.404044e-03 8.962571e-03
-3.272329e-03 1.533698e-03 6.764688e-03
-1.917642e-03 -3.537304e-05 5.361240e-03
-1.989644e-03 3.598589e-04 5.554838e-03
-1.057470e-02 -1.342252e-03 9.618796e-04
-4.329333e-03 3.921421e-03 1.187976e-02
-1.584034e-03 2.008272e-03 8.543259e-03
-2.686812e-03 1.247648e-03 1.692757e-03
-3.267901e-03 -9.137448e-05 4.917876e-03
-2.190440e-03 -4.488959e-04 4.213554e-03
-9.170665e-03 8.528801e-04 1.900993e-03
2.903364e-03 1.070359e-03 4.271322e-03
2.036837e-03 4.768913e-03 1.452161e-04
-2.222551e-03 2.203621e-03 -1.173188e-03
-3.795734e-03 -6.185085e-04 1.788302e-04
-4.089188e-03 -8.729957e-04 2.546541e-04
-9.937769e-03 8.057898e-04 -1.750220e-03
5.257557e-03 6.669464e-03 -3.191241e-03
4.057207e-03 1.133337e-03 -4.619912e-03
-1.182610e-03 3.491774e-03 -5.194811e-03
-2.481384e-03 -1.253279e-03 -3.924449e-03
-4.839313e-03 -1.690299e-03 -4.115352e-03
-1.265334e-02 5.720218e-04 -3.461101e-03
1.169866e-02 1.470059e-03 -6.976906e-03
3.546899e-03 5.566995e-03 -6.094867e-03
2.083499e-03 9.094380e-04 -7.060252e-03
-1.889327e-03 -6.892097e-04 -6.128847e-03
-6.581768e-03 -2.600408e-03 -6.090974e-03
-1.087544e-02 -2.782842e-03 -6.227167e-03
9.876115e-03 6.706181e-03 -4.542525e-03
6.491583e-03 4.539912e-03 -7.388466e-03
3.581595e-03 2.159806e-03 -5.798646e-03
-6.937332e-04 -2.502873e-03 -7.172035e-03
-7.100444e-03 -3.500549e-03 -6.426117e-03
-1.209590e-02 -6.461850e-03 -8.019017e-03
1.088918e-02 8.345555e-03 -5.199362e-03
9.028501e-03 4.590955e-03 -3.222206e-03
2.936748e-03 1.931054e-03 -3.175926e-03
-2.777685e-03 -1.964734e-03 -3.745991e-03
-8.944857e-03 -5.683347e-03 -5.997427e-03
-1.803555e-02 -7.247829e-03 -4.390691e-03
0.000000e+00 0.000000e+00 0.000000e+00
0.000000e+00 0.000000e+00 0.000000e+00
0.000000e+00 0.000000e+00 0.000000e+00
0.000000e+00 0.000000e+00 0.000000e+00
0.000000e+00 0.000000e+00 0.000000e+00
0.000000e+00 0.000000e+00 0.000000e+00
4.296436e-03 1.538349e-03 9.932476e-03
2.158742e-04 -1.166751e-04 4.258034e-03
-1.086282e-03 6.102952e-04 4.317664e-03
-5.343431e-04 4.939050e-04 1.974404e-03
-1.798045e-03 4.258775e-04 3.226397e-03
-4.296219e-03 6.549091e-04 -1.699085e-03
2.709533e-03 2.169535e-03 8.103030e-03
-2.550788e-03 2.531357e-04 6.328708e-03
-2.693143e-03 5.917119e-04 7.853413e-03
-3.222763e-03 -3.364338e-04 4.373225e-03
-3.741700e-03 1.155671e-03 2.837263e-03
-1.036813e-02 -1.023347e-03 1.762744e-03
3.718073e-03 2.694037e-03 1.153403e-02
-2.996518e-03 2.339493e-03 4.791703e-03
-4.310991e-03 -4.756037e-04 6.694093e-03
-3.270068e-03 4.383371e-04 5.730379e-03
-2.989837e-03 -9.366921e-04 5.683369e-03
-9.206035e-03 -2.454648e-03 3.606374e-03
2.849963e-03 1.836286e-03 9.093754e-03
-1.643840e-03 2.144928e-03 4.179586e-03
-2.616490e-03 1.191436e-03 4.586281e-03
-3.894623e-03 2.281824e-04 5.447395e-03
-2.390440e-03 5.103756e-05 8.741926e-03
-6.667801e-03 -2.322900e-03 6.594109e-03
5.315814e-03 3.056816e-03 8.502983e-03
5.155956e-05 2.383882e-03 1.965653e-03
-3.341333e-03 2.009868e-03 5.615439e-03
-2.906497e-03 -6.007458e-04 4.786164e-03
-1.543606e-03 -1.099980e-03 6.005172e-03
-6.932700e-03 -9.152896e-04 6.382300e-03
8.593664e-03 2.101952e-03 4.053179e-03
1.323279e-03 2.976556e-03 2.283970e-03
-9.835388e-04 -3.517259e-04 3.197911e-03
-3.792778e-03 -1.206239e-03 1.156492e-03
-4.020299e-03 -3.345283e-03 3.278357e-03
-7.551251e-03 1.613885e-04 3.055895e-03
9.913112e-03 2.003649e-03 5.387319e-03
6.041833e-03 3.158261e-03 -5.390417e-04
-1.103535e-03 3.812537e-04 -6.722136e-04
-3.107009e-03 -2.990734e-03 -1.244301e-03
-5.610581e-03 -2.161068e-03 1.953257e-04
-9.009995e-03 -1.965272e-03 -2.153894e-03
7.009116e-03 4.839220e-03 -4.422031e-03
6.560045e-03 1.004551e-03 -2.612375e-03
3.697727e-04 -2.854984e-06 -3.716569e-03
-2.642058e-03 -2.125838e-03 -7.392720e-04
-4.728816e-03 -2.495765e-03 -2.029690e-03
-1.102533e-02 -1.838267e-03 -1.140078e-03
9.515625e-03 2.421115e-03 -4.100360e-03
4.400496e-03 2.540587e-03 -2.638648e-03
2.592838e-03 4.190459e-05 -1.980970e-03
-1.084731e-03 -1.446097e-03 -7.584123e-04
-5.557080e-03 -2.007191e-03 -9.498393e-04
-1.129820e-02 -2.459147e-03 -4.844926e-04
1.061049e-02 5.524397e-03 2.322190e-04
6.140485e-03 3.500209e-03 -4.603849e-04
2.544647e-03 1.442213e-03 1.085910e-03
-2.035809e-03 -4.846891e-04 7.251734e-04
-9.815949e-03 -9.686952e-04 1.726629e-03
-1.357142e-02 -4.705891e-03 -5.769888e-04
0.000000e+00 0.000000e+00 0.000000e+00
0.000000e+00 0.000000e+00 0.000000e+00
0.000000e+00 0.000000e+00 0.000000e+00
0.000000e+00 0.000000e+00 0.000000e+00
0.000000e+00 0.000000e+00 0.000000e+00
0.000000e+00 0.000000e+00 0.000000e+00
-2.992915e-04 3.263840e-03 6.954320e-04
-1.489773e-03 1.733669e-03 6.278260e-03
6.918153e-05 1.601804e-03 2.966980e-03
-1.057389e-03 -2.457250e-03 4.506718e-03
1.495777e-03 2.248901e-03 -3.410350e-04
-4.769502e-03 9.201880e-04 -2.551314e-03
6.580677e-04 2.904431e-03 5.105589e-03
1.867376e-03 3.766456e-03 8.068467e-03
-6.153579e-04 4.418188e-04 2.648066e-03
-2.139023e-03 -6.194832e-04 3.136338e-03
-1.314392e-03 1.016066e-03 1.295724e-03
-3.935306e-03 4.103289e-03 -3.104661e-03
7.294152e-03 4.144311e-03 -7.753655e-04
-2.967583e-03 -4.402284e-03 2.992383e-03
-2.532639e-03 1.464542e-03 2.708755e-03
-5.156679e-03 -1.316235e-04 2.330270e-03
-2.643796e-03 2.826890e-03 2.460404e-03
-2.787653e-03 8.603448e-04 -7.666556e-04
5.336035e-03 -7.987382e-04 -4.548509e-03
-8.957253e-03 4.048795e-03 2.339491e-03
-5.912595e-03 1.761791e-04 4.257249e-04
-6.265880e-03 1.695054e-03 4.779744e-03
-7.986878e-04 5.478517e-04 3.402705e-03
-2.983600e-03 -6.705004e-04 1.663172e-03
6.587101e-03 2.820836e-03 2.667837e-03
5.050944e-04 7.112053e-03 2.128559e-03
-1.060597e-03 1.230717e-03 2.679156e-03
-3.059428e-03 1.157068e-03 1.265021e-03
-2.824211e-03 -7.193158e-04 4.248805e-03
-3.706149e-03 -1.952209e-03 2.598102e-03
7.517984e-03 9.492257e-03 2.043982e-03
5.003166e-03 1.476141e-03 5.990026e-03
3.813272e-04 1.911601e-03 -1.739106e-05
-3.235547e-03 1.320998e-04 3.756727e-03
-1.894631e-03 -2.294007e-03 1.590662e-03
-7.290463e-03 -2.411801e-03 1.966162e-03
1.576043e-02 4.190148e-04 6.269999e-06
5.128380e-03 4.140583e-03 2.784577e-03
1.176629e-03 -1.845516e-03 1.858752e-03
-4.166007e-03 -1.595407e-04 2.825934e-03
-3.776054e-03 -4.306212e-03 8.273282e-04
-9.265117e-03 -1.334549e-03 1.032732e-03
1.466246e-02 2.953217e-04 7.026122e-03
7.027586e-03 6.294426e-05 -1.004204e-03
-3.642426e-04 5.007853e-04 4.225125e-03
-2.455754e-03 -3.203329e-03 4.717038e-04
-7.488730e-03 -1.060366e-03 3.366394e-03
-8.531580e-03 -1.591060e-03 3.071561e-04
5.639040e-03 5.808806e-04 -5.765955e-05
4.710937e-03 -1.767196e-03 2.724342e-03
7.669094e-05 -9.778067e-04 2.161575e-03
-3.032436e-03 -1.320759e-06 4.423488e-03
-6.375993e-03 5.911334e-05 2.878549e-03
-9.662678e-03 -2.782956e-04 1.655807e-03
8.198299e-03 -1.008112e-03 1.561119e-03
2.899040e-03 -8.134712e-04 3.473611e-03
3.253242e-04 5.538478e-04 4.654992e-03
-4.148264e-03 1.207073e-03 5.195235e-03
-7.711488e-03 1.595054e-03 4.031652e-03
-1.328895e-02 -2.134811e-05 3.941426e-03
0.000000e+00 0.000000e+00 0.000000e+00
0.000000e+00 0.000000e+00 0.000000e+00
0.000000e+00 0.000000e+00 0.000000e+00
0.000000e+00 0.000000e+00 0.000000e+00
0.000000e+00 0.000000e+00 0.000000e+00
0.000000e+00 0.000000e+00 0.000000e+00
-2.154525e-02 6.044077e-03 -6.138484e-03
-3.111843e-03 1.969564e-04 -1.995714e-05
6.461965e-04 -1.801425e-03 2.627980e-03
3.940532e-03 3.399885e-04 -2.102657e-03
-1.964671e-04 -1.031276e-03 4.419629e-04
-1.000506e-03 2.376714e-03 -3.971001e-03
-2.838446e-03 7.641265e-03 -6.851557e-03
3.726677e-03 4.176055e-03 -4.159693e-03
-2.476349e-03 -8.756400e-04 -2.821301e-03
-1.519024e-03 -4.162691e-03 -1.380430e-03
-1.143019e-03 2.668711e-03 -1.190359e-03
1.141565e-03 4.443904e-03 -5.140708e-03
-7.871108e-03 1.082735e-02 -9.149248e-03
1.522567e-03 4.931664e-03 -3.062856e-03
-4.763372e-03 5.094170e-03 -6.125495e-04
-8.354654e-03 -4.067561e-03 -3.089908e-03
-2.065265e-03 3.278138e-03 -2.684382e-03
3.705765e-03 3.833240e-03 -2.226565e-03
-6.566246e-03 -5.595900e-04 -1.194309e-02
-4.158062e-03 -1.897811e-03 4.000478e-03
-2.049093e-03 -1.199530e-03 -1.286547e-03
-7.112620e-03 3.697321e-03 -2.340499e-03
-3.185892e-03 1.963967e-03 -1.591164e-03
2.746275e-03 6.421331e-04 1.010983e-03
-1.145458e-02 -3.833844e-03 -2.666626e-03
-3.171143e-03 -9.270687e-04 -3.330337e-04
-2.901826e-03 -3.478113e-03 2.137550e-04
-5.122539e-03 5.745297e-03 -9.480065e-04
-2.382552e-03 1.712655e-04 3.137583e-03
8.338597e-04 -2.196370e-03 2.803193e-03
9.489577e-03 4.735489e-03 5.747712e-04
7.313029e-03 2.304109e-03 -7.029557e-04
-1.762371e-03 3.085755e-03 4.719077e-03
1.747116e-03 1.762691e-03 2.367929e-03
-4.007874e-03 -1.312497e-03 4.508605e-03
-3.563195e-03 -1.912274e-03 2.749616e-03
7.479134e-03 -8.306097e-04 -3.118260e-03
7.431140e-03 1.410795e-03 6.149256e-03
2.003859e-03 2.753397e-03 6.738780e-03
-1.749519e-03 -3.239777e-04 4.974353e-03
-4.550429e-03 -1.364202e-04 5.866589e-03
-7.176339e-03 -2.610098e-03 4.804229e-03
1.609518e-02 -1.339319e-03 3.828452e-03
7.812107e-03 1.053792e-03 8.834447e-03
2.234140e-03 -1.440462e-03 3.736232e-03
-7.677224e-03 2.655446e-03 9.381226e-03
-4.239420e-03 -2.012467e-03 6.627346e-03
-1.040670e-02 -1.431661e-03 5.562282e-03
1.028088e-02 -1.344889e-03 8.940167e-03
3.704503e-03 -1.638523e-03 7.460523e-03
-1.847019e-03 2.097291e-03 9.761542e-03
-3.845636e-03 5.638743e-04 8.035157e-03
-7.066583e-03 1.481924e-03 7.329586e-03
-1.025220e-02 8.950237e-04 4.582282e-03
-5.908220e-04 -8.810969e-04 4.258338e-03
1.100056e-03 -1.746677e-03 7.460178e-03
-1.088670e-03 1.493994e-03 8.864603e-03
-4.701010e-03 2.635666e-03 8.187628e-03
-8.380397e-03 3.474676e-03 7.664055e-03
-1.133454e-02 1.875822e-03 7.612101e-03
0.000000e+00 0.000000e+00 0.000000e+00
0.000000e+00 0.000000e+00 0.000000e+00
0.000000e+00 0.000000e+00 0.000000e+00
0.000000e+00 0.000000e+00 0.000000e+00
0.000000e+00 0.000000e+00 0.000000e+00
0.000000e+00 0.000000e+00 0.000000e+00
-7.496064e-03 -4.376676e-03 1.852342e-02
5.690296e-04 -2.924592e-03 -4.299564e-03
6.454570e-04 5.339588e-04 -6.558096e-03
3.311946e-03 9.995249e-04 -1.271929e-03
2.534765e-03 -1.189078e-03 -5.078210e-03
-2.742770e-03 3.002100e-03 -4.869934e-03
9.456111e-03 -9.543671e-03 -2.725867e-04
-2.773846e-03 -6.811846e-03 -6.257013e-03
-4.461308e-03 2.167946e-03 -5.788023e-03
-4.204662e-04 -1.341634e-03 -2.084139e-03
5.819736e-05 -5.082605e-04 -2.983153e-03
1.222059e-03 3.828886e-03 -4.349665e-03
-1.780614e-02 2.021634e-03 7.272437e-03
-6.273239e-03 -6.494897e-03 5.444363e-04
-4.551912e-03 1.041619e-03 6.356091e-03
-7.120025e-03 -4.814357e-03 1.572976e-03
-1.514201e-03 4.010216e-03 -3.995643e-03
2.738822e-03 2.881069e-03 -3.400890e-03
-2.057756e-02 1.540158e-02 4.895844e-03
8.450791e-03 6.036396e-03 8.703949e-04
-3.676751e-03 -2.641233e-03 -1.329056e-03
-1.012991e-02 1.760780e-03 5.803720e-03
-1.588580e-03 2.403042e-03 -1.612300e-03
3.052972e-03 1.181269e-03 1.308306e-03
3.293449e-03 -3.224274e-03 3.223699e-03
-2.305251e-03 2.587079e-03 -7.121720e-04
-4.472983e-03 -6.945313e-03 4.436407e-03
-9.011036e-04 2.606471e-03 5.017097e-03
-1.791804e-04 5.079573e-04 3.374470e-03
-1.870113e-03 -1.138630e-03 5.651841e-03
-3.248130e-04 -4.332074e-03 1.884310e-02
2.451585e-04 -2.686801e-03 1.731233e-02
-2.472797e-03 -4.323319e-03 6.796449e-03
1.147978e-04 -1.801714e-03 8.464339e-03
3.597299e-04 -8.622077e-04 5.997571e-03
-3.473518e-03 -3.398140e-03 6.571784e-03
1.290807e-02 1.469324e-02 3.414554e-02
1.979535e-02 -3.660014e-03 1.533479e-02
3.722737e-03 6.941989e-04 1.082358e-02
-2.025559e-03 1.613408e-04 9.656857e-03
-3.852419e-03 -3.537786e-03 7.606069e-03
-6.994399e-03 -5.658948e-03 9.020119e-03
1.343061e-02 -3.206485e-03 5.417201e-03
9.921766e-03 -3.520988e-03 1.116593e-02
-2.498882e-03 1.379907e-03 1.233860e-02
-4.601867e-03 8.420665e-04 9.627934e-03
-9.023172e-03 -2.996343e-03 1.237369e-02
-7.666686e-03 -2.090214e-03 1.066905e-02
4.612829e-03 -7.968466e-03 9.443851e-03
2.572360e-03 -4.899622e-04 1.184184e-02
-8.868301e-04 1.604391e-03 1.246879e-02
-7.237332e-03 1.836115e-03 1.256882e-02
-7.474249e-03 1.417095e-03 1.199694e-02
-9.830309e-03 -1.320662e-03 8.543072e-03
7.418699e-04 -7.511212e-03 6.876929e-03
1.809354e-03 -3.790285e-03 9.947698e-03
8.181582e-04 -2.765876e-04 9.194804e-03
-4.749853e-03 1.955824e-03 1.219745e-02
-8.109043e-03 3.842563e-03 1.097069e-02
-1.394100e-02 4.591398e-04 1.210446e-02
0.000000e+00 0.000000e+00 0.000000e+00
0.000000e+00 0.000000e+00 0.000000e+00
0.000000e+00 0.000000e+00 0.000000e+00
0.000000e+00 0.000000e+00 0.000000e+00
0.000000e+00 0.000000e+00 0.000000e+00
0.000000e+00 0.000000e+00 0.000000e+00
-5.116819e-03 1.626571e-02 -4.894633e-02
-2.364300e-02 7.397683e-04 -1.346263e-02
4.881186e-03 1.830071e-03 8.645127e-03
5.802947e-03 7.161347e-04 -7.282632e-03
-2.160858e-03 -3.605565e-03 1.692696e-03
3.002991e-03 -3.280632e-05 2.142716e-03
2.455089e-02 1.451659e-02 -1.678892e-02
-4.385273e-03 3.952100e-03 -7.217127e-03
-1.323637e-02 6.719077e-03 -2.779356e-03
-2.613372e-04 -1.899524e-05 2.771123e-03
9.043568e-04 -4.516696e-03 2.786753e-03
-2.269956e-03 7.030075e-04 3.446740e-03
1.892912e-02 -1.399181e-02 7.001537e-03
-2.118729e-02 -3.123131e-03 -1.875341e-03
7.720353e-03 1.004118e-02 4.807480e-03
-9.990710e-03 2.260058e-04 7.538720e-04
-3.790373e-03 -1.673398e-03 6.943156e-03
1.573791e-03 2.470542e-04 7.219260e-03
-2.568074e-02 -1.553352e-02 -1.700158e-02
-3.987434e-03 -9.171948e-03 -1.940802e-02
-9.222913e-04 -9.752874e-03 -7.455660e-04
-7.846872e-03 -2.357470e-03 6.211608e-03
-3.925961e-03 3.826948e-03 1.038286e-02
-1.206871e-03 1.128653e-03 1.386295e-02
2.847916e-02 2.035850e-02 8.119560e-03
-2.015419e-02 4.229428e-03 2.197383e-03
-3.141071e-03 -1.840798e-02 1.003616e-02
-2.064369e-03 -4.044053e-03 4.181983e-03
-8.419045e-04 4.328892e-03 1.315049e-02
-2.074942e-03 -3.642341e-04 1.719792e-02
-7.283689e-02 2.752312e-02 -5.447305e-02
1.997223e-02 -1.057694e-02 1.676722e-02
-6.421758e-03 -6.731273e-03 2.054479e-02
5.846100e-03 -3.813523e-03 1.195899e-02
-3.317525e-04 1.048619e-03 1.268103e-02
-3.745548e-03 -3.251792e-03 1.737246e-02
4.662197e-02 -1.943998e-03 2.608808e-02
-3.048487e-03 -5.781075e-03 2.340746e-02
5.622813e-03 -6.513830e-04 2.513273e-02
-2.065723e-03 -5.303537e-05 1.286800e-02
-5.693223e-03 -7.993819e-04 1.254625e-02
-3.778715e-03 -4.046250e-03 1.339007e-02
1.448524e-02 8.412576e-03 2.586544e-02
1.012990e-02 8.537474e-03 2.198070e-02
-5.378755e-04 7.988201e-03 1.834327e-02
-7.181033e-03 4.438125e-03 1.892128e-02
-4.132916e-03 -1.678636e-03 1.345267e-02
-9.351022e-03 -6.077046e-03 7.386325e-03
5.745580e-03 1.665646e-03 7.325170e-03
6.182526e-03 2.175417e-03 1.162920e-02
-2.365772e-03 4.875858e-03 1.514834e-02
-3.203073e-03 2.338509e-03 1.921673e-02
-9.527178e-03 2.150797e-04 1.336306e-02
-1.071973e-02 3.323723e-04 1.135253e-02
-2.720644e-03 -6.569171e-03 -2.792615e-03
1.808835e-04 -2.567609e-03 3.961464e-03
3.584410e-03 -1.806982e-03 1.388972e-02
-4.592579e-03 -1.023634e-03 1.218769e-02
-1.113039e-02 5.771677e-03 1.563039e-02
-1.209768e-02 -9.360679e-05 1.476152e-02
SCALARS Vx float 1
LOOKUP_TABLE default
-1.447305e+03
-1.957388e+03
-5.191630e+02
-8.319942e+02
-1.009336e+03
-1.190382e+03
-4.617305e+02
-1.175334e+03
5.515833e+01
-6.001430e+01
1.785761e+02
-3.930518e+02
-5.300506e+02
-3.762608e+02
1.506326e+03
-1.403368e+03
4.033233e+02
6.213732e+02
-8.113214e+02
4.387584e+02
4.617454e+02
-9.161654e+02
-1.344512e+03
-2.481038e+02
-2.377396e+02
-1.841305e+02
-6.427271e+02
-8.682288e+02
-2.479825e+02
3.055742e+02
-1.152565e+02
-1.385510e+03
1.547331e+01
-6.197915e+02
2.681389e+02
3.682917e+02
-2.652313e+01
9.357443e+02
2.708110e+02
-2.225644e+02
2.862100e+02
-1.586097e+02
2.169428e+03
-1.860459e+02
1.430911e+02
6.806107e+02
-5.265414e+02
-3.158161e+02
2.046695e+02
-2.696691e+02
-8.447535e+02
2.375398e+02
1.978820e+02
2.727869e+02
-7.006214e+02
-5.957073e+02
-2.330040e+02
-4.734458e+02
-7.595759e+02
-4.868185e+00
-7.935070e+02
-7.287738e+02
-2.930023e+02
-4.011549e+01
-1.138361e+02
2.827857e+02
-1.072370e+03
-9.419509e+02
-1.343466e+02
-1.182407e+03
-8.111407e+01
-5.117338e+02
-7.123060e+02
3.813570e+02
-4.165341e+02
-4.982601e+02
-7.275449e+02
-1.550340e+02
-3.119039e+02
6.320722e+02
6.408724e+02
-1.165308e+02
4.323407e+02
-2.957932e+01
-5.542246e+02
1.223699e+02
-4.576385e+01
-4.230071e+02
2.657513e+02
3.974622e+01
1.630121e+02
6.860144e+02
3.528171e+02
-8.448074e+01
-3.498550e+02
8.798361e+02
7.368551e+01
-2.917443e+02
6.034482e+02
2.086552e+02
8.736577e+02
1.783949e+02
-1.589125e+02
-5.262795e+02
3.434138e+02
-1.292039e+03
2.842039e+02
3.536665e+02
-3.897959e+02
5.195017e+02
-4.069733e+02
-8.595201e+02
-7.022085e+02
-1.045062e+03
-7.206082e+02
3.035026e+02
-4.145324e+02
-1.518251e+02
5.949385e+01
-2.131873e+02
8.840712e+02
-2.419663e+02
-2.729765e+02
-5.120763e+02
-5.435458e+02
-2.563727e+02
5.822340e+02
4.392622e+02
1.175092e+02
1.284507e+02
4.377960e+02
2.208592e+02
-1.654762e+02
2.170989e+02
-4.092747e+02
-4.766610e+02
1.296406e+02
-4.245858e+02
5.526368e+02
3.438886e+02
5.582190e+02
-2.603472e+02
-1.736934e+02
2.977989e+01
2.567923e+01
1.182371e+02
-4.778792e+02
-3.454858e+02
1.242111e+02
5.156318e+01
-6.774350e+00
4.319270e+02
5.781048e+02
-8.940342e+00
-4.747058e+02
4.096266e+01
-5.386874e+02
1.538963e+02
3.822017e+02
3.101560e+02
-3.439403e+02
1.526140e+02
2.922777e+02
-3.272577e+02
-4.532198e+02
4.931564e+02
-4.871263e+01
3.628113e+02
4.102869e+02
-3.088926e+02
7.628505e+01
-3.830612e+00
-1.988953e+01
1.270596e+02
-1.627855e+02
-1.951619e+02
-1.788414e+02
3.700322e+01
5.001167e+02
-6.438706e+02
-1.054686e+02
-2.622729e+02
2.344374e+02
6.280865e+02
-1.431327e+02
-4.870187e+02
-2.571871e+02
5.379581e+02
-4.280453e+01
-4.192957e+02
-6.090910e+01
2.320422e+02
1.647457e+02
-6.002838e+02
8.819934e+02
5.347080e+02
-5.327724e+02
9.483806e+01
3.018011e+02
5.819251e+01
-6.985881e+02
-8.551427e+01
1.318112e+03
-8.007445e+02
4.248391e+02
-6.191417e+02
-6.401091e+02
-1.805834e+02
7.737654e+02
2.698923e+02
-3.062870e+02
-3.377839e+02
-3.015776e+02
-4.244975e+01
-1.170937e+02
1.534264e+02
8.023590e+02
-1.033073e+01
1.891160e+01
-2.755133e+02
1.360335e+02
-1.488204e+02
-4.040438e+02
1.276340e+02
-2.442170e+02
-4.314139e+02
3.129598e+02
1.996063e+02
-1.145816e+02
-5.617739e+01
-4.944374e+02
4.771229e+01
1.566735e+02
-1.779707e+01
-1.758159e+02
8.718314e+01
-9.009232e+02
-1.539535e+02
-4.115059e+02
7.518047e+01
2.340433e+02
-2.991883e+02
-3.976259e+02
-3.020657e+02
4.009748e+02
5.087525e+02
-3.705664e+02
7.090831e-01
1.109406e+02
-3.058257e+02
-2.989768e+02
6.822386e+01
-8.603226e+02
4.811055e+02
6.355639e+02
3.591505e+02
-8.384390e+01
-2.179177e+02
1.514444e+02
4.951223e+02
-2.838975e+02
-1.001215e+02
1.691034e+01
-4.093919e+01
-4.669704e+02
3.127053e+02
2.540017e+02
1.834379e+02
-1.587599e+02
1.597926e+02
3.120788e+02
6.502015e+01
-6.352114e+02
3.490143e+02
-3.461911e+02
9.993126e+02
-4.449921e+01
-2.372218e+02
-1.266751e+02
-6.287686e+01
3.956000e+02
-4.856012e+01
1.410358e+02
-2.154061e+02
5.074250e+02
-1.040858e+02
1.488370e+02
-3.412463e+02
-3.087449e+02
9.387683e+01
6.337477e+02
-2.977476e+01
-1.828892e+02
4.470414e+01
7.759925e+02
3.475566e+02
6.748323e+02
1.369090e+01
6.457417e+02
-1.484185e+02
2.930654e+02
-5.968294e+02
-7.474670e+01
2.214067e+02
2.438767e+02
7.578533e+01
8.478851e+02
-1.026748e+03
-1.281874e+02
5.179611e+02
4.809779e+02
-3.438380e+02
-5.768740e+02
-2.456770e+02
9.326637e+01
3.451860e+02
-8.527874e+02
2.237620e+02
1.478699e+02
-8.885487e+02
9.334855e+02
-7.684010e+01
8.724620e+02
-7.478950e+02
-2.689716e+02
-7.286011e+02
-7.835613e+02
2.172523e+02
-1.231167e+02
1.157321e+03
2.056463e+02
2.079238e+03
3.872822e+02
-3.811661e+02
-7.544546e+02
-2.394011e+02
2.674306e+01
-1.408678e+02
-4.779182e+01
2.865358e+00
1.807101e+02
-1.245480e+02
7.793684e+02
9.840631e+02
3.121952e+02
3.247382e+03
1.185823e+03
1.180917e+03
3.599893e+02
7.346819e+02
-9.329434e+00
-2.857006e+02
-8.031984e+01
2.663322e+02
9.125439e+01
-4.695213e+01
-9.925098e+02
4.228197e+02
1.738501e+02
-2.960202e+02
5.819030e+02
6.860274e+00
-7.517822e+02
3.715275e+02
-2.976965e+02
8.461031e+02
-2.361171e+02
-2.664658e+02
-2.833362e+02
2.217554e+02
-6.540222e+01
-2.822013e+02
-4.374739e+02
2.705342e+02
-2.335030e+02
-2.165746e+02
-2.845588e+01
5.545782e+02
-4.921009e+02
-6.968680e+02
-5.004199e+02
7.472808e+02
2.278084e+02
7.993330e+01
-5.388476e+02
1.876489e+02
6.006964e+02
6.651980e+02
-1.098976e+03
1.650361e+02
-6.771302e+02
8.259337e+00
-9.635877e+02
8.070611e+02
-4.768107e+02
1.388248e+01
5.620991e+01
4.695215e+02
-3.683554e+02
1.910743e+03
3.518482e+01
1.077369e+03
1.685079e+02
1.148711e+02
-6.845981e+02
5.108716e+01
3.431580e+02
-1.785579e+02
3.312385e+02
-7.247103e+02
-2.795362e+02
7.011572e+02
1.487922e+02
-1.094380e+02
1.874155e+02
-1.044747e+03
4.916121e+02
-1.448609e+03
1.554230e+02
-1.389173e+03
4.479435e+02
-3.168228e+02
4.182489e+01
-1.666463e+02
2.265421e+02
-8.041656e+01
3.496057e+02
-5.953688e+01
-2.105383e+02
-1.155077e+02
-3.450683e+01
9.558855e+02
1.771549e+02
-2.068398e+01
-8.922705e+02
1.882429e+02
-8.288775e+02
-2.846517e+02
4.686849e+00
-4.981482e+00
-5.508704e+02
-1.350543e+03
-6.192179e+02
4.979396e+02
6.857905e+02
-1.150851e+03
7.316738e+02
1.535663e+03
4.542889e+02
-6.230614e+02
4.686742e+02
3.221601e+02
-5.067367e+02
-9.830487e+02
1.156691e+03
-3.221578e+01
2.228733e+02
-2.054141e+02
-2.598228e+02
-1.563248e+02
-2.646440e+02
-3.496672e+02
-2.101039e+02
4.836246e+02
-4.731623e+02
-5.602542e+01
2.965141e+02
3.045803e+02
-2.221004e+03
5.868990e+02
-2.281889e+02
6.052469e+02
-1.206642e+02
-6.524511e+02
-7.643819e+01
2.248063e+02
4.364661e+01
4.227568e+02
-2.164642e+02
3.401499e+02
4.930088e+02
9.514187e+02
2.461682e+02
-7.476039e+01
-8.058566e+02
1.221163e+01
6.650580e+02
2.835443e+01
3.669012e+02
-9.426682e+01
-3.299579e+02
-1.478126e+01
-1.105809e+03
4.872514e+02
1.432374e+02
-1.202715e+02
6.512451e+02
-7.876169e+02
-1.767912e+02
6.342095e+01
-5.585851e+02
4.460249e+02
-8.174471e+01
-2.881944e+02
5.048359e+02
-1.910619e+02
-3.236402e+02
4.482226e+02
-4.462467e+02
2.849383e+02
-5.001856e+02
-6.446120e+01
1.180939e+02
-4.125571e+02
6.520861e+02
-3.878385e+02
3.888371e+02
-1.308689e+02
6.430842e+01
8.434962e+02
-7.546093e+00
5.141814e+02
2.201925e+02
-4.256769e+02
3.804938e+01
-7.660736e+02
2.171975e+02
-1.903499e+02
-2.392666e+02
4.720741e+02
9.222607e+01
2.939369e+02
8.331215e+02
-2.397240e+02
1.010879e+03
-2.390302e+02
-5.571679e+02
4.161104e+02
-1.079935e+02
1.073244e+02
2.646161e+02
3.298042e+02
-2.279340e+02
-8.044700e+02
-3.117699e+02
3.756022e+02
5.608053e+02
-3.583651e+02
-9.264325e+01
3.027364e+02
-5.104690e+01
2.019126e+02
-1.562824e+02
-3.620336e+02
-5.643750e+01
3.970599e+01
4.021300e+02
-4.360778e+00
2.782328e+01
8.072551e+01
-1.237782e+02
-2.508759e+02
1.330289e+01
-8.520928e+01
1.987706e+02
1.657094e+02
-2.037209e+02
-1.498700e+02
7.471211e+02
-4.140812e+02
-7.156012e+02
-5.265016e+02
-4.246602e+02
1.517269e+02
8.336661e+02
2.448022e+02
2.169534e+02
-2.434720e+02
1.495635e+02
-1.317105e+02
-2.878043e+02
-3.582556e+02
8.893616e+01
3.112135e+02
-2.552991e+02
5.005656e+01
5.425855e+02
4.846869e+02
-5.449924e+02
-4.749521e+02
-3.949999e+01
2.993621e+02
2.533212e+00
2.935626e+02
-5.861396e+01
-4.546403e+02
-2.256423e+02
-4.136220e+02
1.427045e+02
5.682785e+02
-6.013233e+02
-4.381672e+02
5.455458e+02
8.106520e+02
8.777281e+01
-3.715642e+02
1.897347e+01
3.899521e+02
-5.230064e+01
-2.389234e+02
-6.503628e+02
-1.264317e+02
5.729865e+02
3.103170e+02
5.657985e+02
-3.641830e+02
-5.466189e+02
1.818393e+02
-1.231530e+02
2.333722e+01
-4.307734e+01
-6.339966e-02
-8.522042e+02
-6.687667e+02
7.228727e+01
3.568116e+02
-1.788014e+02
-3.923648e+01
9.827374e+02
7.101138e+02
-8.867333e+02
-7.336818e+02
8.629079e+02
6.658373e+02
8.221901e+01
-1.098107e+03
2.276556e+02
5.851869e+00
-4.889031e+01
-1.400767e+02
-8.668103e+01
7.828453e+01
5.270085e+02
5.681241e+02
-1.548916e+02
-7.029155e+02
1.073768e+02
-2.531142e+02
2.365914e+02
-1.364286e+02
-1.151170e+02
3.626304e+02
2.358204e+02
-7.941874e+01
1.238718e+02
2.638726e+02
-6.554298e+02
3.523020e+02
-9.157723e+02
7.472960e+02
-6.293986e+02
3.561380e+02
1.028455e+02
7.552459e+02
-8.650560e+01
4.394457e+02
-1.063099e+03
-2.396173e+02
-2.449998e+02
-3.038129e+02
1.941861e+02
-5.600901e+02
-1.716617e+01
-1.609666e+02
7.065203e+02
-1.900099e+02
3.372569e+02
-3.707457e+02
-5.763782e+01
-5.886164e+02
8.055871e+02
-3.892239e+02
-4.354591e+01
1.245566e+02
-2.890782e+02
9.534048e+01
-2.959590e+02
-2.281898e+02
-7.979069e+01
5.225346e+02
8.140503e+02
2.569729e+02
-2.502073e+01
2.020651e+02
2.196069e+02
-1.618057e+02
-2.287346e+02
-6.546362e+02
-2.425311e+02
-7.239174e+01
7.819683e+01
4.197776e+02
-3.764261e+01
1.585245e+02
-3.696303e+02
-7.668888e+02
2.758788e+02
-6.808913e+02
5.992874e+02
3.311747e+02
-1.463028e+01
-3.355248e+02
9.027686e+01
-8.386521e+01
-8.523033e+01
-3.013427e+02
-4.439999e+02
2.431025e+02
1.860175e+02
5.515701e+01
1.196326e+03
-8.280654e+02
1.696871e+02
4.659021e+02
-3.560478e+02
3.421865e+02
3.075376e+02
-5.161772e+02
3.490860e+02
3.507839e+02
-1.006686e+03
6.076278e+02
1.870007e+02
-3.628003e+01
2.239119e+02
-7.565715e+01
-5.078170e+02
1.977899e+02
-6.694576e+02
7.788825e+02
-7.593514e+01
1.792809e+02
-1.127417e+01
5.160861e+02
-1.381795e+03
8.533643e+02
3.869839e+02
5.597698e+02
4.997115e+02
-1.014947e+02
3.018304e+02
-1.863277e+02
-2.987638e+02
-3.978378e+02
5.201953e+02
-6.508008e+02
2.633357e+02
-1.527090e+02
3.428354e+02
7.260628e+01
-3.564285e+02
3.374481e+02
-1.747089e+01
-1.489202e+02
-1.623306e+02
2.140587e+02
-9.435381e+01
-4.936321e+02
-2.531349e+02
-2.823565e+01
-1.821082e+02
2.409626e+02
5.177838e+02
-9.520736e+02
-3.052406e+01
-9.815073e+02
-4.260873e+02
2.463572e+02
3.385685e+02
5.758924e+02
-5.204749e+02
-2.172520e+02
-2.377563e+02
2.626717e+02
1.270463e+03
2.444914e+01
-9.582415e+02
-4.393013e+02
-1.392056e+03
-2.143079e+02
-4.530096e+01
3.333691e+02
1.536880e+02
1.143337e+02
4.530703e+02
-7.580582e+01
2.357935e+02
2.274675e+02
4.623330e+02
6.968941e+02
5.415819e+02
4.892230e+02
7.143704e+01
-1.766036e+02
-1.010248e+03
2.383569e+02
-2.223300e+02
-2.126553e+02
1.751884e+02
-5.029349e+02
-1.839576e+02
3.051568e+02
-1.674626e+02
-4.726653e+01
1.866453e+02
-4.471635e+02
8.994730e+01
1.542102e+01
3.636124e+02
7.185796e+01
-7.147064e+02
2.360063e+02
-2.050890e+02
-6.491193e+01
1.029348e+02
1.103286e+03
-5.101871e+01
-4.566717e+01
-5.398456e+02
3.776039e+02
-2.435114e+02
-2.509582e+02
8.235717e+01
-1.495930e+02
4.026918e+02
-1.306854e+02
-2.898960e+02
-6.321310e+02
-8.773159e+02
2.821743e+02
-6.271647e+02
5.327244e+02
9.408044e+02
-1.309075e+02
-1.947454e+02
-6.794385e+02
-4.808971e+02
2.924422e+02
-5.866077e+02
5.628765e+02
-3.421894e+02
-4.626116e+01
-4.015790e+02
1.826073e+02
-5.057988e+02
-3.922149e+02
-2.443756e+02
-1.098974e+03
5.234909e+02
1.469553e+02
5.999224e+02
6.948741e+02
-2.169452e+02
1.100929e+02
4.348239e+02
-6.873144e+02
1.463928e+02
-3.749457e+02
-4.504230e+02
7.232238e+02
2.353530e+02
-9.412680e+02
4.048005e+02
6.022308e+02
-1.790859e+02
7.498163e+02
-1.618596e+02
-6.541216e+02
-7.210465e+01
6.346449e+02
-1.947542e+01
-3.918007e+02
-1.217401e+02
-1.635856e+02
-8.634077e+02
4.241343e+02
2.150159e+02
-2.582517e+02
4.701178e+02
-4.330299e+02
-2.967164e+02
3.243256e+02
-7.618983e+02
7.211312e+01
-5.665505e+02
-5.399090e+02
2.630718e+02
7.111623e+02
-4.276576e+02
-2.292606e+02
-5.253787e+02
7.531187e+02
-3.828859e+01
6.060350e+01
-9.907550e-01
3.431025e+01
6.851833e+00
6.853000e+01
-2.593257e+02
-1.902881e+02
6.214107e+02
5.903338e+01
6.175127e+02
3.351237e+01
5.674309e+02
-1.523988e+02
-5.762164e+02
-2.167244e+02
-3.994945e+02
4.796625e+02
5.003240e+02
3.135144e+02
3.223046e+02
-4.806440e+02
5.682699e+02
-7.183932e+02
-7.654787e+02
-7.734782e+01
9.280917e+02
-1.396795e+02
-2.302615e+02
4.121213e+02
-1.083370e+03
3.739398e+01
1.444402e+01
4.076634e+02
-1.709621e+02
-3.321243e+02
-6.272451e+02
1.661503e+02
6.855875e+01
-3.198501e+02
1.589061e+02
-1.196368e+02
1.408102e+02
3.457703e+02
-1.427202e+02
1.914195e+02
4.624680e+02
-5.650131e+02
-2.832127e+02
-2.446367e+02
2.190782e+02
-2.052407e+02
7.506006e+01
-1.649542e+01
3.381745e+02
-3.157866e+01
-4.834685e+02
-5.857450e+02
4.861932e+02
9.464436e+02
-8.727374e+02
-1.303320e+03
9.703819e+02
6.664895e+02
-5.760956e+02
-8.354162e+02
7.153903e+02
1.163107e+03
1.358397e+03
3.263291e+02
-1.013925e+03
-7.093053e+02
5.667288e+02
9.574876e+02
-5.157422e+02
-5.102649e+02
4.471927e+02
-1.471358e+02
-7.668993e+02
-1.755227e+02
-1.864734e+02
-2.700085e+02
9.539866e+02
1.316739e+03
-7.971325e+02
-1.028362e+03
8.433632e+02
6.854745e+02
-9.804266e+02
-2.028235e+02
9.338954e+02
4.024341e+02
9.226493e+01
7.626512e+02
4.937156e+02
4.727242e+02
-2.999711e+02
-4.600225e+02
2.759390e+02
-6.715217e+02
7.191729e+01
6.163116e+02
-8.005272e+02
-4.525630e+02
5.551381e+02
3.665166e+02
7.882406e+02
-2.648654e+02
-1.039567e+03
-1.873202e+02
2.132133e+02
3.242181e+02
2.928405e+02
4.126413e+02
2.268495e+02
4.621146e+02
2.091784e+02
3.743773e+02
-7.474648e+02
2.506041e+02
-8.139390e+01
1.120703e+01
7.603514e+02
-1.333510e+01
-8.165433e+02
4.779712e+02
-7.217597e+02
-3.507696e+02
-8.539467e+02
8.789282e+01
2.935927e+02
2.184044e+02
1.615494e+02
3.442569e+02
5.042798e+02
-2.002176e+02
2.361212e+02
-3.325378e+02
-2.661998e+02
-7.495789e+01
-3.398213e+02
1.221245e+03
-2.040552e+02
-1.514019e+03
6.605690e+02
8.306108e+02
3.033625e+02
4.980396e+02
-3.516858e+02
-9.745562e+01
4.517928e+01
-3.832947e+02
-1.727325e+02
-7.202886e+02
9.443130e+02
3.245168e+00
-8.320608e+02
3.346273e+02
5.689211e+02
6.869272e+02
1.916332e+02
3.471618e+02
-1.627250e+02
5.917008e+02
-8.187994e+01
-2.674145e+02
-7.474350e+02
-7.677708e+01
6.166848e+02
8.470453e+02
-9.754760e+01
-6.444336e+02
3.630866e+02
-6.081386e+02
-1.047800e+03
-2.120213e+02
3.875342e+02
-5.831328e+02
-1.081018e+03
1.852736e+02
1.072083e+03
4.232705e+02
-5.695751e+02
-2.139476e+02
9.265270e+02
1.596505e+03
1.078017e+03
7.737751e+02
4.201796e+02
-1.225741e+03
-1.175619e+03
1.279456e+02
1.857294e+02
2.430237e+01
3.679919e+03
3.154999e+03
-1.316338e+03
-8.902569e+02
-1.192386e+03
-8.490585e+02
-1.282551e+02
-5.062276e+02
5.142413e+02
1.290010e+03
1.677673e+03
7.161091e+02
-2.505094e+03
-1.893364e+03
5.692490e+03
5.706430e+03
3.106891e+02
-5.119423e+02
1.050550e+02
-7.126269e+02
-1.785590e+03
-1.664962e+03
5.717057e+02
4.495942e+02
6.874914e+03
6.779935e+03
-7.202240e+03
-7.113390e+03
-1.009794e+03
-1.861091e+03
-1.587438e+03
-1.300916e+03
-8.157042e+02
-7.251918e+02
-3.435350e+03
-3.857023e+03
-1.492807e+04
-1.566854e+04
-8.098909e+03
-8.129182e+03
-9.813315e+03
-1.073163e+04
-1.471348e+03
-7.933143e+02
-3.059499e+03
-3.211271e+03
-5.049891e+03
-5.105752e+03
8.302043e+02
6.170569e+02
-6.104998e+03
-5.777602e+03
4.877820e+02
8.110849e+02
-8.829948e+02
-2.251420e+03
-5.653016e+02
-5.124264e+02
7.779033e+02
6.651837e+02
-4.844631e+03
-4.584641e+03
5.800497e+03
5.951137e+03
1.626512e+03
9.084627e+02
-9.792574e+02
-4.874521e+02
-7.514370e+02
3.129664e+02
-2.210782e+03
-2.309867e+03
4.297467e+03
3.674730e+03
-2.585822e+03
-2.631384e+03
1.562298e+03
1.490575e+03
4.369254e+02
-4.187058e+01
-1.596805e+03
-1.654070e+03
1.505188e+03
1.676362e+03
-2.028375e+03
-2.441593e+03
3.456980e+03
3.534414e+03
-6.617884e+01
6.259613e+02
-9.204322e+02
-1.079401e+03
6.301701e+02
5.228387e+02
-2.523778e+03
-2.467320e+03
1.369501e+03
2.637905e+03
1.649742e+03
7.014638e+02
2.823257e+02
-4.267216e+01
2.661646e+02
8.469360e+01
7.471366e+02
-7.994068e+02
4.458876e+01
-7.211489e+01
-3.809249e+02
1.069632e+03
-8.697103e+02
-8.989728e+02
1.389818e+02
2.749166e+02
-5.824060e+01
8.911369e+01
2.688258e+02
1.643467e+02
-6.542205e+01
-1.895671e+02
5.171563e+02
-2.463179e+01
-6.783572e+02
-2.463047e+02
7.633956e+02
9.928834e+02
-4.180472e+02
-7.145173e+02
6.630179e+02
1.488315e+01
-4.542396e+02
-4.620031e+02
-6.633681e+02
-6.285497e+02
-1.941687e+02
5.918570e+01
-4.441131e+01
-8.225203e+02
-2.029599e+02
4.267045e+01
1.058661e+02
1.647121e+01
-1.743350e+02
-3.667140e+02
5.761167e+02
3.782127e+01
9.664704e+01
4.286883e+02
-6.389691e+02
2.272188e+02
2.686916e+02
6.061254e+02
2.189700e+02
-1.681645e+03
-2.957993e+01
1.021640e+03
-3.587433e+02
-1.178919e+03
9.567458e+02
1.385998e+02
-2.004316e+02
-4.422730e+02
4.190442e+02
1.465145e+03
-1.030140e+03
-5.764032e+02
6.877768e+02
1.340736e+02
-3.185259e+02
1.237130e+01
4.406568e+02
1.633294e+02
-8.064953e+02
-4.534034e+02
-6.011141e+02
-1.392911e+02
4.097675e+02
-5.185554e+02
-9.510186e+02
5.208889e+01
-4.965422e+02
-2.019002e+02
-1.190345e+02
-7.485271e+02
1.278143e+02
-5.243392e+02
-4.575257e+02
-8.999077e+01
2.875570e+02
-3.662511e+02
4.732022e+02
-1.785531e+02
5.065227e+01
7.481026e+01
-6.922959e+01
5.530903e+02
3.463495e+01
-5.157392e+02
-3.342450e+02
1.122453e+00
-2.234798e+02
-5.411703e+02
1.738347e+02
9.835386e+01
3.876309e+02
-4.016938e+01
7.930082e+01
5.335630e+02
-2.178381e+02
-6.130053e+01
-7.383934e+02
-8.079038e+02
2.069055e+02
3.494486e+02
-5.018914e+02
-8.244601e+02
-4.718670e+02
-1.359507e+02
5.158163e+02
-5.634615e+02
-2.644863e+02
3.224129e+02
-4.494881e+02
-1.508610e+03
-1.603661e+02
-1.053702e+02
-1.046104e+03
-9.221436e+02
-2.842255e+01
-1.934639e+02
-7.842038e+02
6.192320e+02
-3.977767e+02
-1.943812e+02
-3.936298e+02
4.990108e+02
-6.284741e+02
-4.083487e+02
1.228267e+02
4.763867e+02
1.065300e+02
4.467943e+02
3.055253e+02
-2.605407e+02
-3.478699e+02
3.136907e+02
1.086946e+02
-2.631268e+02
1.139203e+02
-3.061696e+02
-1.816703e+02
-1.345714e+02
2.197292e+02
5.665874e+01
-7.593764e+02
-6.904260e+02
-1.498856e+02
5.949215e+02
-7.032132e+02
-6.525538e+02
-5.253615e+02
-1.121545e+01
1.884815e+03
8.537326e+02
-4.072198e+02
-1.147814e+03
1.077772e+03
1.121232e+03
-1.632630e+03
-7.925972e+02
-4.888991e+02
1.311113e+02
-7.603064e+01
9.143895e+00
8.581878e+02
5.625662e+02
-5.277287e+01
-7.151480e+01
-2.798449e+02
-1.553868e+02
2.259450e+02
-5.099450e+02
1.747244e+02
2.395737e+02
-3.598322e+02
-8.598399e+01
8.498068e+02
3.279908e+02
1.991980e+02
-2.511879e+02
6.982401e+02
-1.751076e+02
-1.006789e+03
-1.963531e+02
4.783084e+02
5.338043e+02
-6.331626e+02
-6.306069e+02
7.633204e+02
7.108281e+02
-4.321890e+02
-6.020528e+01
1.403268e+03
1.719063e+03
-9.033753e+02
-1.067734e+03
-4.309146e+03
-4.138903e+03
2.043165e+03
1.894572e+03
-2.235734e+03
-1.825453e+03
1.498880e+03
1.214542e+03
3.775232e+01
-6.176924e+01
5.969983e+02
1.429024e+03
1.354124e+03
1.431574e+03
0.000000e+00
0.000000e+00
0.000000e+00
0.000000e+00
0.000000e+00
0.000000e+00
4.655496e+01
7.515072e+00
8.214853e+00
1.263565e+01
2.520538e+01
2.125318e+01
4.876831e+01
1.534311e+01
-3.595372e+00
-1.149226e+01
4.323567e+00
-9.849272e+00
2.814436e+01
2.449522e+01
1.088744e+01
-1.489049e+01
-2.082782e+00
-1.172131e+01
2.161917e+01
2.107119e+01
5.619047e+00
-1.691546e+01
2.955174e+00
4.263468e+00
5.330114e+01
1.679718e+01
9.625539e-01
-1.508349e+01
1.585323e+01
4.094414e+01
7.008430e+01
2.372233e+01
2.942706e+00
2.085980e+00
3.465447e+01
4.875919e+01
1.013021e+02
3.526166e+01
1.886072e+01
5.792448e+00
3.346786e+01
6.673899e+01
6.247893e+01
2.450143e+01
1.050736e+01
2.759941e+00
2.522617e+01
6.318006e+01
-2.159809e+01
1.993893e+00
-2.192427e+00
-3.866729e+00
2.216684e-01
-7.388257e-01
-8.874504e+00
-7.782558e+00
7.931583e+00
-6.171345e+00
-2.512003e+01
-2.559052e+01
0.000000e+00
0.000000e+00
0.000000e+00
0.000000e+00
0.000000e+00
0.000000e+00
-2.885201e+01
2.238641e+01
8.262881e+00
-6.367542e+00
4.558587e+00
1.052164e+01
-1.238469e+00
1.864328e+01
3.961831e+01
-3.618046e-01
4.421077e+00
5.030153e+00
-4.541219e+00
1.746582e+01
3.127287e+01
-5.504158e+00
-9.125770e+00
-7.145298e+00
-1.391249e+01
2.803334e+01
2.683685e+01
-1.522992e+01
-2.183467e+01
-5.908673e+00
-5.122211e+00
6.054228e+00
3.571327e+01
-7.130906e+00
-1.961409e+01
-2.781371e+01
-3.979729e+00
1.857709e+01
1.970520e+01
-1.458048e+01
-2.681432e+01
-3.701752e+01
-1.747836e+01
2.102583e+01
-1.960453e-01
-1.573457e+01
-2.385816e+01
-4.859959e+01
-6.230473e-01
-1.289162e+01
-2.044271e+00
-1.737758e+01
-1.732879e+01
-3.395629e+01
-1.563998e+01
-2.160050e+01
-1.941369e+01
-1.686568e+01
-1.504479e+01
-5.869099e+00
-2.149364e+01
-3.312527e+00
-2.221949e+01
-2.023804e+01
-1.231317e+01
-1.084468e+01
0.000000e+00
0.000000e+00
0.000000e+00
0.000000e+00
0.000000e+00
0.000000e+00
-9.560139e+00
-2.015147e+01
1.202761e+01
1.566159e+01
-5.043770e+00
-9.031763e-01
-5.484627e+00
4.068555e+01
1.762216e+01
-1.358332e+00
-1.262597e+01
-3.142112e+00
3.512036e+00
3.158864e+01
8.501806e+00
-1.011313e+01
-2.672332e+01
4.317507e+00
-4.438122e+01
-1.370472e+00
6.279970e+00
-1.815281e+00
-2.605455e+01
-3.751628e+00
-2.137443e+01
1.329583e+01
-1.469419e+00
-1.271104e+01
-2.371445e+01
-2.176484e+00
-1.671158e+01
-2.932028e+00
2.384680e+01
4.917850e+00
-7.068917e+00
8.368831e-01
3.927962e+00
-7.789164e+00
1.701475e+01
2.665508e+01
-2.761649e+00
4.877876e+00
-3.722487e+00
3.244089e+01
1.641918e+01
1.692260e+01
1.447858e+00
5.221377e-01
5.433478e+00
1.332193e+01
6.743332e+00
-3.691782e+00
1.197164e+01
3.287142e+00
1.533446e+01
-7.793765e+00
-1.310412e+01
7.810532e-03
4.187214e+00
1.464734e+01
0.000000e+00
0.000000e+00
0.000000e+00
0.000000e+00
0.000000e+00
0.000000e+00
5.682586e+00
-4.908408e+00
1.031069e+01
-1.145135e+01
3.814720e+00
1.463708e-01
-5.373311e+01
2.688793e+01
1.440075e+01
5.653426e+00
-2.812367e+01
1.204618e+01
-6.663235e+01
3.468390e+01
7.695381e+00
-1.008030e+01
-3.736179e+01
2.642767e+01
-1.623975e+01
5.763842e+01
3.851641e+01
-1.395418e+01
-4.803786e+01
1.788652e+01
-1.314920e+02
3.289155e+01
-6.496211e-01
3.612585e+00
-4.105931e+01
5.422953e+00
-7.900137e+01
-2.641896e+01
-3.996616e+00
8.057255e+00
-2.324418e+01
-1.375704e+01
-2.493510e+01
-2.367917e+01
3.828589e+01
3.987285e+00
9.176628e+00
-1.568094e+01
1.205448e+01
1.767619e+01
2.866938e+01
2.087705e+01
8.223072e+00
-7.683732e+00
1.828237e+01
1.753468e+01
-5.422278e+00
1.100632e+00
-1.035830e+01
6.072020e+00
1.245890e+01
1.581755e+01
-8.947098e+00
-2.542931e+01
-8.255420e+00
-6.483102e+00
0.000000e+00
0.000000e+00
0.000000e+00
0.000000e+00
0.000000e+00
0.000000e+00
2.272051e+01
4.405998e+01
-2.738757e+01
1.965843e+01
-1.572505e+01
1.547510e+01
1.730936e+01
-3.296043e+01
-1.111113e+01
8.147116e+00
-1.305884e+01
5.377648e+01
2.492303e+01
7.461916e+00
3.409117e+01
-5.094735e-01
-5.051007e+01
3.627037e+01
1.338025e+02
-1.384479e+01
1.558969e+01
-1.101903e+01
-5.429731e+01
3.568016e+01
2.986835e+01
2.814005e+01
2.226948e+00
-7.442881e+00
-2.652256e+01
3.594660e+01
-2.415451e+02
-1.102911e+01
-2.376207e+01
2.403127e+00
1.014413e+01
3.439268e+01
-1.422590e+02
2.878726e+01
-3.817634e+00
2.173463e+01
9.293018e+00
2.223367e+01
-7.552666e+00
-1.153196e+01
3.741518e+01
6.205925e+00
1.486272e+00
1.948395e+01
1.924290e+01
3.849421e+00
1.592796e-01
-1.503477e+01
-1.011349e+01
-4.288551e-01
1.138646e+01
2.889258e+00
-1.615046e+01
-8.175881e+00
-2.111257e+01
-7.120911e+00
0.000000e+00
0.000000e+00
0.000000e+00
0.000000e+00
0.000000e+00
0.000000e+00
-7.017866e+00
1.077844e+01
5.258773e+01
-5.139182e+01
4.108017e+01
-8.497284e+00
1.940014e+02
-2.064302e+01
1.886469e+01
3.842264e+01
-2.602460e+01
-2.814691e+01
1.133024e+02
-4.804798e+01
9.383637e+01
2.471302e+00
-5.554708e+01
1.791368e+01
-6.788665e+01
-3.970110e+01
7.122255e+01
3.141335e+01
-6.659173e+01
1.513349e+01
7.369585e+01
-1.630677e+02
6.574012e+01
2.892264e+00
-3.416271e+01
-1.834050e+01
2.711892e+02
3.535137e+01
-2.243642e+01
-6.768834e+00
-1.729948e+01
-4.360017e+01
-4.328368e+01
-9.177628e+01
1.348744e+01
-3.104451e+01
4.388281e+00
-7.430333e+01
3.494995e+01
9.167164e+01
-3.238235e+01
4.547600e+01
-1.666763e-01
-4.902581e+01
6.512105e+01
9.879829e+00
-1.422000e+00
2.514369e+01
-3.461592e-01
2.848458e+01
-2.571177e+01
-3.722909e+01
-9.685132e+00
2.768953e+00
2.952123e+01
3.661260e+01
SCALARS Vy float 1
LOOKUP_TABLE default
7.372189e+02
2.605353e+02
4.665675e+02
4.016836e+02
-1.607599e+02
1.478103e+03
1.090995e+02
6.045823e+02
-4.172413e+02
-2.586751e+02
-2.621083e+01
-7.815555e+02
1.237612e+02
5.063098e+02
1.251776e+03
-3.329488e+02
6.282445e+02
8.603979e+02
-2.738417e+02
-8.072900e+02
-4.580282e+02
8.102937e+01
9.125080e+02
-4.903703e+02
-2.988795e+02
-9.674365e+02
1.125108e+03
-1.143263e+03
1.011361e+02
-6.747884e+02
-1.272911e+03
-6.822410e+02
-1.090943e+03
3.541957e+02
-1.039798e+03
-2.427590e+02
-1.420153e+03
2.936969e+02
1.207095e+03
-1.637121e+02
-6.251644e+02
-1.490459e+01
1.279184e+03
1.554195e+03
-3.314405e+02
-1.354702e+03
8.475475e+02
-4.407295e+01
-1.675308e+03
8.463520e+01
3.454423e+01
3.522914e+02
-3.206699e+02
-1.717753e+02
-1.227271e+03
3.670949e+02
5.610504e+02
5.233285e+02
-6.807099e+02
3.025519e+02
-4.856078e+02
9.686154e+01
2.548917e+02
-4.319979e+02
6.556186e+01
-3.541180e+02
-1.180664e+03
7.993218e+02
1.170897e+03
-6.795046e+02
-1.854807e+02
-6.987495e+02
5.770490e+02
1.987655e+02
6.982755e+02
-2.293319e+02
1.906379e+02
-9.377755e+01
1.856857e+03
-1.352338e+03
-4.624287e+02
1.054358e+03
2.063867e+02
-4.501229e+02
2.522877e+02
7.432291e+02
-2.944478e+00
3.827286e+02
-3.548768e+02
-6.638202e+02
1.326763e+03
-1.271621e+03
5.703880e+02
1.408563e+02
-6.746736e+02
-1.441157e+02
-7.027056e+02
4.486359e+02
-4.847174e+02
9.810657e+02
-5.240681e+02
8.101354e+02
1.652531e+03
9.017710e+02
-1.718365e+02
-3.719661e+02
-4.619522e+02
-7.187902e+02
1.370397e+03
-3.556198e+02
-5.183969e+01
-4.852613e+02
6.578071e+02
8.894768e+02
-1.052751e+02
-1.252293e+03
4.808403e+02
1.179157e+02
-7.926680e+02
-2.833211e+02
-1.963727e+01
-2.365118e+02
-4.748999e+01
-7.161034e+02
7.177227e+01
-3.661801e+02
-5.883673e+02
1.480679e+02
9.983250e+02
-9.356681e+02
-1.886071e+02
8.745074e+02
1.498164e+02
-7.619192e+02
-3.457199e+02
-3.170734e+02
9.283929e+01
-5.165319e+02
-2.890692e+02
4.845312e+02
2.207289e+02
-6.263335e+02
-1.467988e+00
8.848897e+02
6.213649e+01
1.637261e+01
4.990602e+02
2.062196e+01
5.499100e+02
3.138445e+02
-1.440147e+01
2.851181e+02
9.269694e+01
3.904847e+02
-1.303816e+02
1.409293e+02
-2.718404e+01
-6.567295e+02
3.815045e+02
-2.885930e+02
4.587736e+02
4.344564e+02
3.843725e+02
2.342495e+02
9.812359e+02
-1.016733e+03
7.857511e+00
-9.212824e+02
2.040145e+02
-6.999791e+02
2.712774e+02
3.333905e+02
-5.949995e+01
-3.964416e+02
-6.355087e+02
5.047232e+02
-4.496848e+02
6.641085e+02
-6.661650e+02
-4.646559e+02
-6.312317e+02
-4.417903e+02
-3.725557e+02
-4.027429e+02
1.338437e+02
2.337450e+02
1.319529e+02
-2.085062e+02
2.110946e+02
-4.225881e+00
-6.891045e+01
-3.905084e+02
2.903847e+02
-5.234228e+02
-1.547095e+02
1.403484e+02
-6.857905e+02
3.604883e+02
7.437035e+02
-3.675742e+02
5.099627e+01
1.531673e+02
4.302229e+02
4.631357e+02
7.492432e+02
3.003603e+02
1.739102e+02
6.112776e+02
1.511953e+02
1.849939e+02
2.366603e+02
-1.238238e+02
-6.577126e+02
-5.341136e+01
7.823581e+01
-4.720065e+02
3.209766e+02
6.045458e+02
7.661108e+02
-4.220126e+02
4.473374e+02
-1.733523e+02
-5.502692e+02
4.146293e+02
8.898826e+02
2.249069e+02
1.296208e+02
2.395914e+02
2.929243e+01
6.542943e+02
-8.948101e+02
4.528606e+02
4.187641e+02
-8.142331e+02
-1.224242e+02
4.548207e+02
-4.457551e+00
-7.603807e+02
-9.730634e+01
-4.274343e+02
-1.035500e+03
-7.485558e+02
-4.359431e+02
-6.329805e+02
-1.681854e+02
-4.701641e+02
-4.836579e+02
-3.573224e+02
4.573772e+02
-4.052408e+02
-8.755223e+02
-2.708889e+02
4.009265e+01
-2.726147e+02
3.362716e+01
-1.730488e+02
-4.429193e+02
3.519473e+02
-1.407285e+01
2.702938e+00
-2.326364e+02
4.236409e+02
9.502204e+01
4.896573e+02
9.291903e+02
-1.278491e+02
7.654404e+02
-3.627785e+02
-4.989946e+02
6.153820e+02
3.256401e+02
-3.160083e+02
-1.407537e+03
9.203749e+02
-6.950654e+02
9.674250e+02
7.437271e+02
-5.561098e+02
6.612827e+02
-3.786371e+01
-1.437483e+02
6.151532e+02
9.878830e+02
-7.718511e+02
-1.251775e+02
3.804730e+02
5.361385e+02
-2.268346e+02
3.460844e+02
-9.648650e+01
-3.253400e+00
6.325346e+02
3.647330e+02
-1.213643e+02
-3.535285e+02
1.946237e+02
-3.489379e+02
3.490801e+02
-5.315509e+02
-3.287871e+01
-2.424120e+02
1.085487e+02
4.781339e+02
1.389693e+02
3.252741e+02
-1.218563e+02
-7.996715e+01
-3.322064e+02
-9.010607e+02
6.296989e+01
-6.731389e+02
2.535364e+02
-1.071515e+03
4.011565e+01
-8.854804e+02
-7.086535e+02
2.572233e+02
6.670863e+02
1.388768e+03
2.457147e+02
2.647138e+02
9.714837e+02
1.176026e+03
8.241730e+02
-5.140349e+02
6.543972e+02
6.771739e+02
-6.751231e+01
-6.403223e+02
-5.563408e+02
1.184566e+03
-9.080798e+02
-2.533731e+02
7.772026e+02
1.016299e+03
3.329377e+02
6.524585e+02
3.721674e+02
2.242522e+02
6.520678e+02
2.396072e+02
-3.501579e+01
-4.585793e+02
-2.320044e+03
-1.124842e+03
-1.618407e+03
-4.863686e+02
-1.622430e+03
-4.602897e+02
4.741371e+02
-1.184881e+02
4.930002e+02
-8.906211e+00
-4.192372e+02
-1.243370e+02
2.789704e+02
-1.262517e+03
2.817200e+02
-5.942839e+02
-4.238044e+00
6.734774e+00
2.807757e+02
2.888137e+02
5.060539e+02
-1.092944e+02
-2.597188e+01
-1.403877e+03
-1.120347e+03
1.677163e+03
1.550398e+03
-1.994353e+03
-8.714935e+02
-4.325689e+02
-7.293254e+02
-4.119358e+02
5.916011e+02
1.655496e+02
-5.141296e+02
2.717995e+02
6.928299e+02
8.290276e+02
-1.179564e+02
1.602378e+02
-7.539392e+02
-1.191245e+03
-4.309028e+02
2.875057e+02
7.376683e+02
-7.616148e+02
3.126239e+02
7.509451e+02
-1.178831e+03
-6.563453e+02
-6.821539e+02
-1.232731e+03
-1.060945e+03
-2.335541e+02
2.108181e+02
1.825647e+03
-8.908990e+02
-3.111122e+01
1.432240e+03
-4.755501e+02
1.146083e+03
5.490927e+02
1.009913e+03
1.948228e+02
1.447255e+03
-1.407093e+03
1.251442e+01
-2.438104e+01
-5.244934e+02
8.726386e+02
6.321461e+01
3.592913e+02
-5.245659e+02
4.744398e+02
-7.995957e+02
2.247651e+02
-2.965802e+02
-1.902025e+01
1.113522e+03
5.691328e+02
2.244146e+01
3.766317e+02
-4.885683e+02
3.094698e+02
8.107369e+02
-1.160490e+02
7.144979e+01
-2.480815e+02
-2.505985e+02
-8.651232e+02
-6.619912e+02
-2.336406e+02
1.170382e+03
-3.006750e+02
5.377422e+02
7.796541e+02
1.356551e+03
-3.026790e+02
-8.681918e+02
3.317458e+02
-4.312899e+02
-1.773770e+03
1.600723e+03
6.201533e+02
-1.307724e+03
-4.214711e+02
5.853183e+01
-1.463660e+03
4.273023e+02
-9.272976e+02
1.237763e+02
-2.004989e+02
5.733224e+02
2.546641e+02
-3.681431e+02
3.664445e+02
-2.564678e+02
-2.050314e+02
-6.120698e+02
-9.862788e+02
-4.482992e+02
-1.080143e+03
6.154547e+01
3.666496e+02
-1.207253e+03
-4.312994e+02
1.012918e+03
3.068723e+02
3.855104e+02
-1.752359e+02
6.948823e+00
4.074321e+02
-4.410950e+02
-9.280841e+02
2.039390e+02
-4.829707e+02
-3.359580e+02
1.511116e+03
-2.048912e+02
4.764836e+02
3.157108e+02
3.677636e+02
-5.463431e+02
-2.924024e+02
4.016101e+02
1.905079e+01
-6.835786e+02
-2.968324e+02
-3.434819e+02
5.282654e+02
5.754225e+02
-4.784228e+02
-8.747535e+01
9.424147e+02
-2.955143e+02
2.533141e+02
-2.193511e+02
1.014617e+02
-3.558932e+02
-1.880542e+01
-3.546939e+02
-6.032099e+02
6.566139e+02
-7.998008e+02
4.237321e+02
4.274312e+02
6.273921e+00
-1.669067e+02
1.229139e+02
-3.641466e+01
1.558555e+03
3.453627e+02
-2.128173e+02
-3.233933e+02
8.376588e+01
-2.710579e+02
-6.361445e+00
-9.643251e+01
-1.725217e+02
-9.062636e+01
-6.323380e+02
5.562969e+02
8.199343e+02
-7.117617e+01
5.636726e+02
-3.609517e+02
-4.476072e+02
1.661955e+02
7.185185e+02
-3.880631e+02
-2.022975e+02
-7.433208e+02
-1.353248e+02
3.058386e+02
-2.607581e+02
2.447254e+02
5.849929e+01
6.859619e+02
2.886634e+02
-5.974220e+02
2.975566e+02
5.592259e+02
-8.365976e+02
4.518902e+02
1.000159e+02
-9.439817e+01
1.776339e+02
7.317480e+02
-7.031680e+02
-1.575331e+03
-3.025220e+02
5.296456e+02
-2.149220e+02
3.544427e+02
-4.306187e+02
-3.019584e+02
2.016680e+02
4.717079e+02
9.079713e+01
-2.227783e+02
-4.384354e+02
-8.495554e+02
9.169947e+02
1.307620e+02
1.755386e+02
-9.458012e+02
7.161923e+01
-5.940356e+02
4.554699e+02
-1.560854e+01
-7.154518e+02
-1.357288e+03
3.485188e+02
5.467196e+01
3.915893e+01
2.867884e+02
-4.853791e+02
2.249952e+02
1.234060e+03
1.020581e+02
-5.433573e+02
-1.742927e+02
-6.037438e+01
7.297565e+01
2.101845e+01
-8.714999e+01
-2.164521e+02
1.891732e+02
3.911215e+02
1.366917e+02
4.915702e+01
-5.890417e+01
-5.622787e+02
-2.856167e+02
-3.568488e+02
-2.733229e+02
-2.092193e+02
9.271168e+02
3.451645e+02
1.642345e+01
1.035199e+03
-2.759374e+02
2.165747e+02
5.189422e+02
-1.718663e+02
-4.645908e+02
-9.856356e+01
4.567009e+02
7.134867e+01
3.718614e+02
-1.266002e+02
4.240699e+02
-1.764204e+02
4.400292e+02
7.394311e+01
-6.034698e+00
-6.998000e+01
-6.899025e+02
7.041626e+02
4.599582e+02
-2.347813e+02
5.915867e+02
7.882447e+02
2.151411e+02
9.801467e+02
-6.063011e+02
3.710593e+02
7.313706e+02
-1.030986e+03
4.909172e+02
-7.088029e+02
1.860320e+02
-9.184396e+02
5.682133e+01
-2.048376e+01
3.796559e+02
-3.853360e+02
8.604695e+01
1.032022e+02
-1.159339e+03
2.487586e+02
-5.050949e+02
-5.607097e+02
5.444450e+02
-5.528411e+02
-4.047216e+02
3.709715e+02
9.819535e+02
9.039586e+02
3.933501e+02
5.404371e+02
1.593007e+02
2.842512e+02
-5.158886e+02
-3.838825e+02
-2.642897e+02
-4.091170e+02
-3.993164e+02
-6.774415e+01
-1.601239e+02
-3.720960e+02
-4.482392e+02
1.214347e+02
4.210378e+02
-6.008815e+02
-6.211403e+02
-1.621220e+01
-7.381533e+01
3.595382e+02
-1.950804e+02
-2.720464e+02
4.234962e+02
5.891732e+02
8.184069e+02
8.521655e+02
6.802288e+02
4.490919e+02
-3.143767e+01
3.905769e+02
1.909276e+02
-6.615219e+02
-4.861772e+02
-3.187005e+02
-3.109930e+02
1.160268e+02
5.296001e+01
-9.857428e+01
3.664751e+02
-9.290517e+01
-6.437406e+01
-2.170643e+02
-1.597739e+02
-9.286376e+02
-3.585465e+02
-2.826976e+02
-4.542514e+02
-3.281419e+02
-6.255742e+02
3.900143e+02
7.485620e+02
-2.547778e+02
3.826301e+02
-2.661916e+02
2.125665e+02
-2.950610e+01
-1.286360e+02
3.324016e+02
4.980081e+01
-3.362510e+01
-1.553331e+02
3.963178e+02
3.296463e+02
-1.082019e+02
5.082927e+02
4.244328e+02
2.532935e+02
-6.769945e+01
-8.194267e+02
-1.012504e+02
-1.769666e+02
7.186319e+01
4.190662e+02
-6.887469e+02
-2.694739e+02
-2.633274e+02
-1.948313e+02
-3.728048e+02
3.712717e+02
-5.068054e+02
-2.518662e+02
2.954135e+02
5.777136e-02
1.275308e+02
3.175568e+02
3.524954e+02
7.032067e+02
4.458031e+02
3.649342e+01
-4.254903e+02
5.299128e+02
-2.372191e+02
3.511741e+02
-6.093322e+01
-4.281445e+02
3.724470e+02
4.878091e+00
4.623259e+01
8.710531e+01
2.979907e+02
2.613367e+02
-2.164699e+02
-7.332933e+02
-5.470492e+02
3.474696e+02
-1.949863e+02
-2.498400e+02
-3.015563e+02
3.774433e+02
3.517794e+02
3.718058e+02
6.348197e+02
-5.152224e+02
-7.241422e+01
-5.385085e+02
-3.532092e+02
-1.500253e+02
-5.443260e+02
-4.461104e+02
-9.156679e+02
4.425058e+02
2.325854e+02
1.297033e+03
1.041853e+02
-2.593158e+02
-9.647075e+01
7.845644e+01
-1.026710e+03
-4.422670e+02
-6.827407e+02
6.807260e+02
2.654199e+02
-8.849786e+01
7.804826e+02
4.819199e+02
2.695408e+02
1.585433e+03
3.400510e+02
-2.040720e+02
-1.493180e+01
4.429015e+02
-1.789304e+02
-2.932567e+02
-2.503677e+02
2.091882e+02
2.069976e+02
5.310545e+02
-5.209208e+02
1.161288e+03
-1.817132e+02
-1.061637e+03
-5.039636e+02
-9.232679e+01
-1.190984e+02
-6.747220e+02
-1.061475e+03
1.930844e+02
3.783434e+02
6.945003e+02
-4.263300e+02
-2.015469e+02
3.754978e+02
-2.700109e+02
-7.002758e+02
-6.399767e+01
-5.405343e+02
3.121448e+02
-1.998641e+02
6.751356e+02
-1.001257e+02
-3.516215e+02
-6.509912e+01
-3.607433e+02
-4.609450e+02
-4.786484e+02
8.784820e+02
1.505779e+03
5.272281e+02
6.675950e+02
1.821877e+02
4.597872e+01
-3.546483e+02
-2.462484e+02
-1.247546e+03
-3.542943e+02
6.172498e+01
-9.022352e+01
-3.701253e+02
-2.079653e+00
3.020803e+02
-5.044561e+02
1.853995e+02
-3.321882e+02
-2.818635e+02
-2.405102e+02
3.791681e+02
3.471041e+02
-3.838757e+02
-1.902611e+00
-7.025397e+02
9.554854e+02
-5.056802e+02
5.101558e+02
-3.085628e+02
1.538566e+02
-1.721586e+02
-4.334224e+02
-6.159238e+01
-7.649342e+02
3.255634e+02
-3.100926e+02
1.341115e+02
5.589742e+02
-2.950032e+02
2.289617e+02
6.784524e+02
4.925974e+02
-1.794410e+02
2.822457e+02
2.308524e+02
-6.716017e+01
2.991609e+02
2.123805e+02
1.167812e+02
-2.658576e+02
1.465333e+02
2.466420e+02
-2.515419e+01
4.677311e+02
2.053412e+02
1.310246e+02
-2.855312e+02
4.879158e+01
-4.059017e+02
1.217559e+01
-1.280868e+02
-1.540700e+01
-2.102752e+02
-3.234822e+02
-3.998589e+02
-2.683268e+02
3.484412e+02
-3.949081e+01
-2.332890e+02
-5.251780e+02
4.110360e+02
1.272982e+02
1.690930e+02
2.306589e+02
6.253638e+01
1.421874e+02
2.745124e+02
-4.098186e+02
2.172809e+02
1.321681e+02
-2.228345e+02
-1.012830e+03
-1.627212e+02
-4.760407e+02
-6.254356e+01
2.991622e+02
1.844390e+02
1.333382e+02
6.288090e+02
-1.912845e+01
1.434232e+02
4.126875e+02
3.959035e+02
4.298445e+02
4.304551e+02
-2.447651e+02
-4.887223e+02
-2.347853e+02
-5.040155e+02
3.656719e+02
-2.599061e+02
-1.551464e+02
3.828859e+02
5.379400e+01
-8.690534e+02
-2.896314e+02
5.188642e+02
-1.747169e+02
-5.545932e+02
3.481923e+02
-3.484407e+02
-2.473106e+02
2.713971e+01
3.035034e+02
-1.569227e+02
2.743449e+02
4.466690e+02
-3.062897e+02
3.977916e+01
2.887010e+01
5.278996e+02
-1.968657e+02
-2.272503e+01
1.633903e+02
1.273931e+02
1.263220e+02
-1.068145e+01
7.769778e+01
-3.623976e+02
5.536954e+02
3.350999e+02
-1.843287e+02
-1.665420e+02
7.682201e+02
1.942050e+02
3.742930e+01
4.063868e+02
5.334038e+02
1.119236e+02
7.878866e+01
8.484796e+02
-6.362509e+02
-7.696109e+02
3.556253e+02
3.362305e+02
-6.465252e+02
-3.691547e+02
-1.093875e+02
5.912917e+02
1.129601e+03
-1.261339e+02
5.657058e+01
-5.589172e+02
8.069506e+02
1.028804e+03
-1.480037e+03
-1.176245e+03
8.788477e+02
1.676571e+02
2.331138e+02
-1.360823e+02
-7.419793e+02
-3.149257e+02
5.199502e+02
8.619831e+02
-1.050414e+03
-1.319450e+03
1.127087e+03
1.323495e+03
-6.504107e+02
-5.307213e+02
-2.465559e+02
1.156984e+02
8.100362e+00
3.309662e+02
-9.595696e+02
-9.047330e+02
1.484954e+03
1.654985e+03
-1.009068e+03
-5.640985e+02
1.275717e+03
4.321689e+02
-8.787788e+02
2.494718e+02
-3.331609e+02
-2.503697e+02
1.324060e+03
1.097717e+03
-9.513402e+02
-1.066697e+03
1.046842e+03
7.886018e+02
-7.902851e+02
-1.220042e+03
3.060875e+02
-2.222533e+01
5.588757e+02
2.438716e+02
-7.553682e+02
-1.078371e+03
1.176574e+03
1.187509e+03
-1.121599e+03
-9.373081e+02
-1.439483e+02
4.661935e+02
-3.662541e+02
-3.474012e+02
-6.350798e+02
-1.604300e+02
9.628963e+02
4.814389e+02
-6.199396e+02
-5.361483e+02
7.650114e+02
1.081140e+03
-1.904944e+02
-2.085814e+02
-3.103845e+02
1.156833e+02
8.744076e+02
2.071694e+02
-7.101512e+02
-2.877448e+01
6.126526e+02
2.117529e+02
-8.099929e+02
-1.422021e+03
-5.316211e+00
3.732277e+02
4.786941e+02
2.952154e+02
-1.168493e+03
-4.019683e+02
2.695283e+02
-4.712750e+02
1.393031e+00
-6.288008e+01
3.798932e+02
7.530401e+02
-1.411135e+00
-6.442156e+02
1.944429e+02
-1.425669e+02
1.312033e+03
4.462789e+02
6.751969e+01
6.071376e+02
-1.739513e+02
-1.239844e+02
-3.399307e+02
-4.289820e+02
-1.531547e+03
-1.120390e+03
2.741423e+02
-2.045373e+02
5.890887e+02
3.086791e+02
-2.328524e+02
-4.577886e+02
1.205482e+03
1.401191e+03
-4.936917e+01
-1.598976e+02
5.740884e+02
5.111158e+02
-2.563719e+03
-2.256384e+03
5.444940e+02
2.778634e+02
1.699314e+03
1.792497e+03
-5.086863e+02
-6.365452e+02
2.909193e+02
3.787983e+02
-1.452596e+03
-1.328725e+03
3.680644e+02
3.145386e+02
-4.037164e+03
-3.092566e+03
3.563059e+03
3.085648e+03
2.797176e+03
2.844105e+03
1.457576e+01
-4.112465e+02
-6.201425e+02
-5.558699e+02
-3.138581e+03
-3.440702e+03
-2.744066e+03
-2.873432e+03
6.811396e+03
7.221056e+03
1.403359e+03
1.634786e+03
-4.757281e+02
-2.233555e+02
2.357995e+02
-3.019955e+01
-3.158044e+03
-2.938332e+03
2.577128e+03
2.317449e+03
6.564709e+03
7.082952e+03
-1.391193e+02
-3.285303e+02
7.375128e+02
7.135460e+02
-1.700105e+02
-6.724635e+02
3.461984e+03
3.783447e+03
1.960583e+03
1.504648e+03
7.225474e+03
7.266587e+03
-5.194543e+03
-4.787841e+03
7.347874e+02
7.505261e+02
3.066091e+03
2.484215e+03
-4.210602e+01
9.853830e+01
5.576657e+03
5.529814e+03
4.986620e+02
-1.707326e+02
2.630754e+02
7.337262e+02
1.106183e+03
1.391307e+03
1.008769e+03
1.082034e+03
3.859129e+03
4.039980e+03
1.297320e+03
5.197815e+02
1.948500e+03
1.948829e+03
8.805033e+01
8.085804e+01
-4.525594e+02
-1.507422e+02
1.733775e+03
2.050402e+03
1.836966e+02
-5.143318e+01
1.711290e+03
1.911671e+03
1.041880e+03
1.094908e+03
9.981392e+01
-2.446801e+02
4.170053e+02
8.322593e+02
-1.798705e+02
-1.149081e+02
1.994225e+03
2.043870e+03
-1.615878e+02
9.320430e+02
-2.776461e+03
-4.722754e+03
-3.126953e+02
-4.089667e+02
-1.066973e+02
2.102987e+02
-1.034183e+01
4.813979e+02
-8.529375e+02
-6.620977e+02
1.669686e+01
-7.827223e+02
-3.063862e+02
3.141333e+02
2.660112e+02
-2.319301e+01
-3.156454e+02
1.753200e+02
-5.547232e+01
-2.345117e+02
-2.298097e+02
2.719724e+02
9.128999e+02
7.028454e+02
-3.232057e+02
1.092403e+02
7.354211e+02
5.066351e+02
-5.208695e+00
4.453361e+01
3.258533e+02
-1.089774e+02
-1.138997e+02
5.123728e+02
-2.725268e+02
-1.879606e+02
3.186929e+02
2.936300e+02
4.126018e+02
3.567795e+02
3.927722e+02
5.541134e+02
-1.067060e+02
-9.975538e+01
-2.708786e+02
-6.023818e+02
-3.237736e+00
1.420942e+02
-4.588904e+01
-1.360733e+02
-5.824225e+02
2.013265e+01
9.749031e+02
8.581948e+02
-2.409863e+01
3.551099e+02
4.284993e+02
-3.212854e+02
-4.761682e+02
8.483151e+02
6.352236e+02
-5.900239e+02
-4.454843e+02
5.598215e+02
1.039594e+03
3.113603e+02
2.732637e+02
-4.283285e+02
1.178019e+03
5.884422e+02
-8.221333e+02
-8.376455e+02
-5.664578e+01
1.229498e+02
-9.688895e+01
-2.591307e+02
-6.749195e+01
-2.585671e+02
5.383025e+02
1.308728e+03
9.994363e+02
3.756428e+02
1.475770e+03
1.372186e+03
9.832506e+01
2.093060e+01
5.113582e+02
3.659090e+02
-2.941195e+02
-3.909646e+02
3.897155e+02
6.859635e+02
1.358399e+02
3.888970e+02
5.065177e+02
7.556476e+02
-1.242301e+02
-8.696487e+02
1.123552e+03
2.148552e+02
5.722815e+02
4.926860e+02
1.043393e+02
-5.302128e+01
-3.847908e+02
4.558169e+02
6.861945e+02
-4.174610e+01
-5.097743e+02
-2.646791e+01
7.837554e+02
7.728267e+02
-6.570028e+02
-8.119682e+02
2.924305e+02
9.205092e+02
-8.049523e+02
-1.346763e+03
-9.030658e+01
-6.809208e+01
-1.759119e+01
2.420333e+02
5.022954e+02
1.962199e+02
2.888244e+02
1.338833e+03
-3.755324e+02
-5.420178e+02
7.985223e+02
8.544556e+02
-1.430081e+03
-1.005733e+03
1.783035e+02
-4.994588e+02
6.184638e+01
6.067051e+02
3.446497e+02
2.277714e+02
-6.282533e+02
-8.153883e+02
-7.957409e+02
2.402688e+02
-2.190291e+02
-1.312044e+03
-1.880575e+02
1.980915e+02
7.157775e+02
5.457225e+02
6.575768e+02
5.492776e+02
9.649999e+01
4.970328e+02
4.465122e+02
8.526498e+02
-3.715865e+02
-9.761069e+02
5.822830e+02
1.063878e+03
-4.426992e+02
-6.332427e+02
7.508050e+02
8.668878e+02
-1.795685e+03
-1.951969e+03
8.903222e+02
1.355936e+03
3.005172e+02
1.811207e+00
1.958364e+02
-3.485671e+02
1.930214e+03
2.194146e+03
-1.728652e+03
-1.625181e+03
6.135297e+02
6.097250e+02
-1.150476e+03
-1.739909e+03
-6.225936e+01
-6.456772e+02
-5.256072e+02
-1.965015e+02
4.644969e+02
9.892050e+02
8.811943e+02
1.789241e+02
1.536437e+02
6.819584e+02
-2.655417e+02
-6.090752e+01
-8.056472e+02
-7.117036e+02
-1.973007e+02
-2.719929e+02
2.593086e+02
2.921802e+02
5.175978e+02
-1.396353e+02
4.518922e+02
7.958826e+02
-6.194209e+02
-9.281809e+02
6.623932e+02
6.336394e+02
-1.410941e+02
-2.790636e+02
1.369701e+03
8.191546e+02
-2.600390e+02
-8.437759e+02
-1.997019e+03
-2.055850e+03
3.354435e+03
3.548805e+03
-1.702503e+03
-1.789279e+03
5.879107e+02
8.136246e+02
-2.330333e+03
-2.591781e+03
1.432026e+03
9.355006e+02
0.000000e+00
0.000000e+00
0.000000e+00
0.000000e+00
0.000000e+00
0.000000e+00
6.390053e+00
-1.281928e+01
-6.029126e+00
-5.260764e+00
-5.776329e+00
-1.480678e+01
1.591269e+01
8.681609e+00
-2.834467e+00
9.995570e-01
-7.348857e+00
-1.753491e+00
-3.351129e+00
-6.751781e+00
1.670212e+01
-1.871587e+00
2.035574e+01
1.490198e+01
1.323944e+01
5.293969e+00
-6.624621e+00
3.511522e+00
4.368071e+00
1.781739e+01
-1.493716e+01
1.532966e+01
7.233930e+00
2.445244e+01
2.520664e+01
2.860466e+01
1.880371e+01
7.004762e+00
1.460898e+01
1.509334e-01
3.485630e+00
1.650933e+01
-6.514197e+00
9.110238e+00
-4.204150e+00
1.194006e+01
8.638962e+00
1.460206e+01
-3.180108e+01
-1.036347e+01
1.942276e+00
3.467658e+00
-7.766497e+00
-2.379808e+01
5.108122e+00
-1.225914e+01
1.536313e+01
4.891335e+00
-1.639277e+01
-2.350745e+01
1.689303e+01
9.708262e+00
-8.574425e+00
7.970264e+00
1.960461e+01
1.038650e+01
0.000000e+00
0.000000e+00
0.000000e+00
0.000000e+00
0.000000e+00
0.000000e+00
4.589058e+01
1.651380e+01
9.372007e+00
-1.215383e+01
-1.349180e+01
7.774237e+00
5.069983e+01
-3.203503e+00
7.807948e+00
4.013563e+00
1.087992e+01
6.226964e+00
-1.158195e+01
1.084355e+01
-6.898635e+00
-8.388860e+00
4.193839e+00
2.233306e+01
-4.334417e+00
-1.853010e+01
-2.044607e+00
5.329388e+00
6.865685e+00
4.037313e+00
-1.795460e+01
-2.224706e+00
5.814757e+00
1.024074e+01
1.124656e+01
1.253800e+01
-4.063066e+01
1.044030e+01
-4.639243e+00
9.517931e+00
-3.419586e+00
-6.407037e+00
1.626375e+00
-4.987821e+00
8.828538e+00
2.078807e+00
-1.113574e+00
-4.639073e+00
-1.035586e+01
1.333949e+00
5.209998e+00
1.036898e+01
-1.494592e+01
-1.408654e+01
2.995134e+00
6.604849e+00
9.981169e+00
-1.594959e-01
-1.671334e+01
-3.165801e+01
3.121928e+01
-1.614717e+00
-4.957987e+00
8.887910e+00
1.718807e+01
2.027741e+01
0.000000e+00
0.000000e+00
0.000000e+00
0.000000e+00
0.000000e+00
0.000000e+00
4.793098e+00
-2.615780e+00
-1.049522e+01
-1.956801e+01
2.196410e+00
6.021026e-01
4.256532e+01
5.234441e+00
7.524055e+00
-1.371888e+01
6.740146e-01
1.706522e+01
-1.931728e+01
-5.210966e+00
-5.726639e+00
-1.100695e+00
-1.707843e+01
1.411306e+01
-2.021169e+01
-1.646230e+01
-9.090324e+00
-6.943777e+00
6.980152e+00
-4.633193e+00
2.885786e+00
-1.213515e+01
-4.156518e+00
-9.000001e-01
1.246515e+01
-5.918187e+00
-2.074082e+01
1.575738e+01
4.379954e+00
3.064144e+01
-1.017689e+01
-2.310717e+01
-1.187219e+01
1.156767e+01
8.456839e+00
1.212051e+00
-9.163232e+00
-2.189654e+01
3.084512e+00
-6.271958e+00
8.004145e+00
-4.616694e-01
-5.481772e+00
-2.672621e+01
1.144785e+01
9.360756e+00
2.819042e+00
4.675316e+00
-2.197884e+01
-1.468190e+01
-4.120325e+00
-3.152629e+00
-1.156177e+01
-1.138810e+01
-3.363126e+00
-6.925938e+00
0.000000e+00
0.000000e+00
0.000000e+00
0.000000e+00
0.000000e+00
0.000000e+00
-4.565854e+01
-1.236706e+01
2.674809e+00
-2.074623e+00
-2.939183e+00
2.856393e-01
-5.350477e+01
-1.726463e+01
4.267717e+00
1.463174e+01
-1.577181e+01
7.168090e+00
4.083385e+01
-4.062170e+00
1.631721e+00
-1.569814e+01
-7.164310e+00
2.151167e+01
-1.158910e+01
1.256886e+01
-1.115457e+01
-3.790066e+00
-8.605317e+00
-1.887844e+01
-2.903715e+01
-1.444571e+01
-1.126275e+01
-1.554900e+00
8.720648e+00
-1.565670e+01
1.950479e+01
-3.392159e+01
-5.687447e+00
-6.013883e+00
2.243399e+00
-1.891007e+01
-2.071012e+00
3.527028e+01
-1.264417e+01
7.446550e+00
-1.464935e+00
-2.674771e+01
-7.036129e+00
-1.920039e+01
-1.386887e+01
8.014607e-01
-9.950744e+00
-1.262567e+01
-1.037819e+01
-8.727337e+00
1.104502e+01
3.686966e+00
-8.081844e+00
-2.421358e-01
-1.762473e+01
-9.010854e+00
-1.240723e+01
-1.485586e+01
-2.511641e+01
-1.818224e+01
0.000000e+00
0.000000e+00
0.000000e+00
0.000000e+00
0.000000e+00
0.000000e+00
-7.566259e+01
-2.826404e+00
-4.157273e+01
8.942355e+00
-4.293143e+00
3.136035e+00
-4.742821e+01
3.988429e+01
5.893745e+00
-1.636858e+01
-2.841020e+01
-5.612498e+00
-2.987368e+00
-4.015926e+01
7.630407e+00
5.884040e+00
-1.715707e+01
-1.936973e+01
1.300964e+01
6.430150e+00
-1.801891e+01
-1.476510e+01
-1.386948e+01
-4.282102e+00
-8.247445e+01
3.305451e+01
1.739627e+00
-1.135543e+01
7.530999e+00
-1.074418e+01
2.964897e+01
-1.811109e+01
-5.342420e+00
4.544808e+00
1.771788e+01
-2.015673e+01
1.350339e+02
-1.943995e+01
1.424449e+01
-2.094575e+01
3.630866e+00
-7.311696e+00
2.106616e+01
3.767589e+01
-3.515142e+01
-5.014745e+00
-1.303039e+01
-2.535574e+01
-4.800177e+00
2.036031e+00
1.227076e+01
5.571530e+00
-1.985369e+01
-1.001849e+01
-3.390487e+01
-2.285591e+01
4.263801e+00
-4.217652e+00
-1.558273e+01
3.306632e+00
0.000000e+00
0.000000e+00
0.000000e+00
0.000000e+00
0.000000e+00
0.000000e+00
1.463067e+02
4.845097e+01
-2.041243e+01
4.308573e+01
-1.798044e+01
-3.081074e+01
1.069026e+02
1.521280e+01
-2.009484e+01
7.615809e+01
-2.157309e+01
-6.848851e+01
-1.281661e+02
-1.215690e+02
1.152035e+00
-1.067438e+01
-3.711787e+01
-3.927165e+01
-9.788234e+01
8.948039e+00
5.700997e+00
-9.142051e+00
-2.232826e+00
6.153821e+00
1.845888e+02
2.097288e+02
8.909311e-01
-3.725612e+01
1.651638e+01
1.528417e+01
-1.511854e+01
1.316534e+01
9.158971e+00
-7.897237e+01
2.788362e+01
5.415771e+01
-1.229116e+02
-1.710795e+02
-3.253992e+01
2.853784e+00
3.321856e+01
1.936081e+00
1.227457e+00
-1.273334e+01
-3.590914e+01
4.210255e+00
-1.505475e+01
-2.374330e+01
6.387807e+01
5.973813e+01
4.294607e+01
1.791318e+01
-1.839656e+01
-8.584616e+00
4.226215e+01
5.215648e+01
3.164467e+01
1.681318e+01
1.442891e+01
-1.407975e+00
SCALARS Vz float 1
LOOKUP_TABLE default
1.409093e+04
1.460657e+04
1.336135e+04
1.348711e+04
1.380871e+04
1.325511e+04
1.322215e+04
1.415663e+04
1.430587e+04
1.466559e+04
1.501972e+04
1.427118e+04
1.447433e+04
1.427451e+04
1.407779e+04
1.458329e+04
1.501987e+04
1.381485e+04
1.398477e+04
1.344917e+04
1.466281e+04
1.439925e+04
1.397843e+04
1.480480e+04
1.371985e+04
1.368371e+04
1.367821e+04
1.391482e+04
1.441677e+04
1.449264e+04
1.394396e+04
1.409719e+04
1.441444e+04
1.342256e+04
1.446700e+04
1.400869e+04
1.385732e+04
1.422773e+04
1.329215e+04
1.484693e+04
1.325516e+04
1.370544e+04
1.471560e+04
1.330195e+04
1.488029e+04
1.445294e+04
1.428729e+04
1.385657e+04
1.382008e+04
1.413268e+04
1.372173e+04
1.436208e+04
1.453461e+04
1.404256e+04
1.377759e+04
1.369993e+04
1.411640e+04
1.318362e+04
1.364813e+04
1.347817e+04
1.338477e+04
1.427789e+04
1.384290e+04
1.425156e+04
1.400878e+04
1.376749e+04
1.341417e+04
1.419436e+04
1.449195e+04
1.323489e+04
1.361274e+04
1.388106e+04
1.362870e+04
1.355388e+04
1.359695e+04
1.385526e+04
1.389630e+04
1.432492e+04
1.378340e+04
1.522360e+04
1.521777e+04
1.331614e+04
1.389707e+04
1.420431e+04
1.388730e+04
1.421336e+04
1.381686e+04
1.417049e+04
1.341744e+04
1.446066e+04
1.361515e+04
1.389220e+04
1.453257e+04
1.349577e+04
1.443810e+04
1.401134e+04
1.375162e+04
1.425444e+04
1.394905e+04
1.381798e+04
1.417449e+04
1.428001e+04
1.397011e+04
1.414817e+04
1.488349e+04
1.332054e+04
1.470289e+04
1.356440e+04
1.341856e+04
1.464128e+04
1.399932e+04
1.469718e+04
1.458592e+04
1.332871e+04
1.504330e+04
1.291341e+04
1.468030e+04
1.386968e+04
1.387670e+04
1.532257e+04
1.420092e+04
1.281199e+04
1.365877e+04
1.437662e+04
1.383948e+04
1.417701e+04
1.421685e+04
1.378496e+04
1.348610e+04
1.448811e+04
1.462901e+04
1.300194e+04
1.341057e+04
1.498567e+04
1.439988e+04
1.363400e+04
1.453105e+04
1.350087e+04
1.368685e+04
1.433705e+04
1.387560e+04
1.409918e+04
1.413469e+04
1.414976e+04
1.389742e+04
1.383479e+04
1.357396e+04
1.444044e+04
1.393432e+04
1.407578e+04
1.381347e+04
1.419725e+04
1.429949e+04
1.370949e+04
1.334009e+04
1.372583e+04
1.468905e+04
1.432681e+04
1.433584e+04
1.368124e+04
1.378501e+04
1.421920e+04
1.431195e+04
1.369471e+04
1.318497e+04
1.485712e+04
1.403188e+04
1.433478e+04
1.398485e+04
1.369934e+04
1.427981e+04
1.372852e+04
1.370594e+04
1.431785e+04
1.419739e+04
1.382726e+04
1.364268e+04
1.436970e+04
1.415596e+04
1.346825e+04
1.388106e+04
1.455080e+04
1.421734e+04
1.381094e+04
1.376307e+04
1.424848e+04
1.493720e+04
1.308161e+04
1.381498e+04
1.421634e+04
1.463863e+04
1.395353e+04
1.336287e+04
1.405433e+04
1.386542e+04
1.414589e+04
1.412931e+04
1.388969e+04
1.392599e+04
1.408604e+04
1.375239e+04
1.426907e+04
1.354142e+04
1.385538e+04
1.444262e+04
1.413654e+04
1.404661e+04
1.394520e+04
1.461706e+04
1.338489e+04
1.422280e+04
1.378957e+04
1.462041e+04
1.340433e+04
1.373083e+04
1.457084e+04
1.426521e+04
1.342706e+04
1.388734e+04
1.410576e+04
1.398350e+04
1.401667e+04
1.398526e+04
1.401436e+04
1.455586e+04
1.342290e+04
1.365503e+04
1.397748e+04
1.434732e+04
1.400565e+04
1.420121e+04
1.380733e+04
1.359868e+04
1.441116e+04
1.401157e+04
1.398880e+04
1.390997e+04
1.409593e+04
1.386036e+04
1.396533e+04
1.416622e+04
1.406010e+04
1.411034e+04
1.391427e+04
1.423553e+04
1.377715e+04
1.370251e+04
1.431493e+04
1.454437e+04
1.346885e+04
1.443317e+04
1.374165e+04
1.358211e+04
1.427371e+04
1.458007e+04
1.342583e+04
1.380386e+04
1.419834e+04
1.370439e+04
1.429832e+04
1.420290e+04
1.382838e+04
1.382653e+04
1.369540e+04
1.415620e+04
1.429854e+04
1.363538e+04
1.435294e+04
1.392259e+04
1.407641e+04
1.471815e+04
1.328300e+04
1.404172e+04
1.397219e+04
1.398169e+04
1.390514e+04
1.401098e+04
1.409104e+04
1.406525e+04
1.391441e+04
1.439841e+04
1.359827e+04
1.308954e+04
1.487867e+04
1.509432e+04
1.285491e+04
1.380605e+04
1.437188e+04
1.414075e+04
1.418378e+04
1.418622e+04
1.364374e+04
1.385281e+04
1.382757e+04
1.403450e+04
1.363875e+04
1.397011e+04
1.435412e+04
1.444398e+04
1.369900e+04
1.357013e+04
1.430790e+04
1.366266e+04
1.432985e+04
1.410961e+04
1.412179e+04
1.389381e+04
1.388710e+04
1.389653e+04
1.412462e+04
1.374557e+04
1.426037e+04
1.429508e+04
1.373229e+04
1.456227e+04
1.347160e+04
1.395848e+04
1.393329e+04
1.400510e+04
1.405600e+04
1.412691e+04
1.385605e+04
1.407446e+04
1.355852e+04
1.387328e+04
1.441745e+04
1.362112e+04
1.437232e+04
1.324656e+04
1.296726e+04
1.487745e+04
1.523717e+04
1.446080e+04
1.352880e+04
1.391358e+04
1.412096e+04
1.384145e+04
1.418382e+04
1.405009e+04
1.396487e+04
1.429641e+04
1.371814e+04
1.466839e+04
1.613054e+04
1.346426e+04
1.207085e+04
1.312022e+04
1.495409e+04
1.405901e+04
1.410344e+04
1.442270e+04
1.359613e+04
1.342368e+04
1.459208e+04
1.372281e+04
1.429860e+04
1.425424e+04
1.374902e+04
1.459188e+04
1.343644e+04
1.353743e+04
1.446707e+04
1.396111e+04
1.402092e+04
1.381811e+04
1.423792e+04
1.419727e+04
1.375474e+04
1.409650e+04
1.417810e+04
1.368156e+04
1.408481e+04
1.418244e+04
1.374338e+04
1.387240e+04
1.381069e+04
1.381376e+04
1.426045e+04
1.408906e+04
1.422351e+04
1.464478e+04
1.411733e+04
1.359459e+04
1.360425e+04
1.338240e+04
1.388156e+04
1.438185e+04
1.436387e+04
1.468628e+04
1.390428e+04
1.371152e+04
1.445566e+04
1.374336e+04
1.441258e+04
1.450318e+04
1.375986e+04
1.338003e+04
1.379122e+04
1.483686e+04
1.481640e+04
1.460493e+04
1.360430e+04
1.375936e+04
1.462909e+04
1.476541e+04
1.367189e+04
1.496248e+04
1.419300e+04
1.427905e+04
1.417364e+04
1.338742e+04
1.407901e+04
1.402744e+04
1.422443e+04
1.462622e+04
1.345384e+04
1.400840e+04
1.492039e+04
1.442760e+04
1.390484e+04
1.364007e+04
1.418451e+04
1.445217e+04
1.446129e+04
1.435855e+04
1.350876e+04
1.345603e+04
1.365850e+04
1.374036e+04
1.424840e+04
1.447137e+04
1.346228e+04
1.356414e+04
1.453162e+04
1.368408e+04
1.411774e+04
1.374830e+04
1.435149e+04
1.396061e+04
1.452239e+04
1.424429e+04
1.393826e+04
1.425256e+04
1.418918e+04
1.433263e+04
1.454544e+04
1.405713e+04
1.439023e+04
1.374507e+04
1.426767e+04
1.402403e+04
1.352466e+04
1.432635e+04
1.396633e+04
1.432638e+04
1.470507e+04
1.401419e+04
1.454752e+04
1.453019e+04
1.376040e+04
1.457858e+04
1.386529e+04
1.407011e+04
1.405394e+04
1.450313e+04
1.418573e+04
1.457064e+04
1.440685e+04
1.510235e+04
1.392015e+04
1.299625e+04
1.431089e+04
1.400603e+04
1.427695e+04
1.395909e+04
1.420263e+04
1.352660e+04
1.445118e+04
1.421971e+04
1.376920e+04
1.379010e+04
1.418794e+04
1.513665e+04
1.384054e+04
1.287237e+04
1.415721e+04
1.387873e+04
1.340122e+04
1.407347e+04
1.459116e+04
1.404616e+04
1.375102e+04
1.395335e+04
1.424260e+04
1.408861e+04
1.429199e+04
1.389965e+04
1.372073e+04
1.425372e+04
1.392713e+04
1.376724e+04
1.406195e+04
1.399594e+04
1.404752e+04
1.399083e+04
1.395783e+04
1.387022e+04
1.438148e+04
1.412886e+04
1.360500e+04
1.371764e+04
1.413078e+04
1.428725e+04
1.387770e+04
1.445570e+04
1.374649e+04
1.352978e+04
1.426160e+04
1.443685e+04
1.389492e+04
1.357544e+04
1.408140e+04
1.348392e+04
1.472022e+04
1.450754e+04
1.330032e+04
1.412110e+04
1.428540e+04
1.388932e+04
1.370995e+04
1.420831e+04
1.357223e+04
1.377196e+04
1.443095e+04
1.468072e+04
1.379596e+04
1.331814e+04
1.418817e+04
1.395234e+04
1.404160e+04
1.428267e+04
1.371222e+04
1.403594e+04
1.398521e+04
1.392719e+04
1.407658e+04
1.406340e+04
1.393220e+04
1.366556e+04
1.432841e+04
1.363153e+04
1.436578e+04
1.397542e+04
1.403516e+04
1.406430e+04
1.393957e+04
1.379247e+04
1.419896e+04
1.377228e+04
1.422681e+04
1.327334e+04
1.473175e+04
1.420126e+04
1.380924e+04
1.447069e+04
1.353599e+04
1.407065e+04
1.393892e+04
1.428044e+04
1.372270e+04
1.404085e+04
1.398882e+04
1.373148e+04
1.427833e+04
1.442507e+04
1.355833e+04
1.389516e+04
1.410701e+04
1.458139e+04
1.342087e+04
1.409767e+04
1.391851e+04
1.403076e+04
1.396545e+04
1.456881e+04
1.343346e+04
1.422328e+04
1.376041e+04
1.408627e+04
1.393196e+04
1.429416e+04
1.370220e+04
1.291141e+04
1.509714e+04
1.321550e+04
1.480838e+04
1.420290e+04
1.382502e+04
1.419035e+04
1.381024e+04
1.390244e+04
1.412136e+04
1.435447e+04
1.362885e+04
1.401397e+04
1.399289e+04
1.444419e+04
1.355238e+04
1.347573e+04
1.453722e+04
1.403151e+04
1.398504e+04
1.355832e+04
1.442561e+04
1.400941e+04
1.398691e+04
1.392045e+04
1.409141e+04
1.385455e+04
1.413841e+04
1.437397e+04
1.362586e+04
1.491064e+04
1.314185e+04
1.460244e+04
1.341016e+04
1.352768e+04
1.448516e+04
1.431033e+04
1.367053e+04
1.360324e+04
1.442515e+04
1.419060e+04
1.378744e+04
1.357932e+04
1.444210e+04
1.421329e+04
1.380368e+04
1.501787e+04
1.297598e+04
1.383071e+04
1.416524e+04
1.425590e+04
1.373638e+04
1.412194e+04
1.388970e+04
1.364107e+04
1.439031e+04
1.425383e+04
1.368764e+04
1.400137e+04
1.357908e+04
1.399512e+04
1.444926e+04
1.348582e+04
1.450380e+04
1.444063e+04
1.355970e+04
1.426607e+04
1.373615e+04
1.361218e+04
1.439693e+04
1.397429e+04
1.400725e+04
1.397699e+04
1.400562e+04
1.427262e+04
1.374353e+04
1.407094e+04
1.398068e+04
1.392359e+04
1.402751e+04
1.363508e+04
1.436060e+04
1.375995e+04
1.422387e+04
1.432424e+04
1.367802e+04
1.424487e+04
1.376667e+04
1.426149e+04
1.373442e+04
1.379560e+04
1.419717e+04
1.381389e+04
1.415893e+04
1.392553e+04
1.410896e+04
1.407225e+04
1.391875e+04
1.472135e+04
1.325671e+04
1.390703e+04
1.408443e+04
1.374814e+04
1.424736e+04
1.385005e+04
1.416143e+04
1.386561e+04
1.413335e+04
1.411990e+04
1.387849e+04
1.420950e+04
1.381928e+04
1.403526e+04
1.457989e+04
1.395888e+04
1.341804e+04
1.397395e+04
1.400157e+04
1.405320e+04
1.394489e+04
1.420377e+04
1.379551e+04
1.435745e+04
1.364538e+04
1.409281e+04
1.390652e+04
1.408314e+04
1.391104e+04
1.368736e+04
1.433266e+04
1.424763e+04
1.380404e+04
1.374549e+04
1.417646e+04
1.367321e+04
1.432573e+04
1.409688e+04
1.388914e+04
1.398502e+04
1.401755e+04
1.383497e+04
1.416005e+04
1.413751e+04
1.386339e+04
1.381209e+04
1.419089e+04
1.473956e+04
1.321237e+04
1.399464e+04
1.420808e+04
1.399552e+04
1.378515e+04
1.360753e+04
1.439323e+04
1.412884e+04
1.386275e+04
1.402701e+04
1.396642e+04
1.361489e+04
1.437122e+04
1.353680e+04
1.446156e+04
1.359445e+04
1.441710e+04
1.426682e+04
1.370131e+04
1.388528e+04
1.405297e+04
1.366765e+04
1.397603e+04
1.411606e+04
1.394827e+04
1.432967e+04
1.401179e+04
1.437983e+04
1.399959e+04
1.360715e+04
1.399235e+04
1.302370e+04
1.450767e+04
1.493690e+04
1.346725e+04
1.432855e+04
1.366604e+04
1.366444e+04
1.435076e+04
1.343678e+04
1.397689e+04
1.450761e+04
1.405557e+04
1.366219e+04
1.396004e+04
1.429661e+04
1.402491e+04
1.361992e+04
1.451156e+04
1.439604e+04
1.336798e+04
1.399833e+04
1.419448e+04
1.400415e+04
1.380124e+04
1.404691e+04
1.394583e+04
1.409831e+04
1.390742e+04
1.399580e+04
1.398812e+04
1.421120e+04
1.382679e+04
1.388619e+04
1.406791e+04
1.460181e+04
1.328132e+04
1.327024e+04
1.476935e+04
1.415341e+04
1.383517e+04
1.406316e+04
1.393107e+04
1.431183e+04
1.368071e+04
1.383790e+04
1.417930e+04
1.410280e+04
1.391074e+04
1.370729e+04
1.429270e+04
1.406923e+04
1.391898e+04
1.392272e+04
1.408488e+04
1.440478e+04
1.360715e+04
1.403826e+04
1.394979e+04
1.393270e+04
1.402106e+04
1.369325e+04
1.429001e+04
1.353548e+04
1.447237e+04
1.443547e+04
1.359584e+04
1.329324e+04
1.472439e+04
1.358797e+04
1.441347e+04
1.335458e+04
1.467219e+04
1.468584e+04
1.332082e+04
1.391418e+04
1.431707e+04
1.406744e+04
1.367515e+04
1.418691e+04
1.372443e+04
1.378526e+04
1.429086e+04
1.382763e+04
1.426900e+04
1.414521e+04
1.373806e+04
1.383985e+04
1.392022e+04
1.416747e+04
1.407510e+04
1.382276e+04
1.427987e+04
1.418279e+04
1.370972e+04
1.410153e+04
1.388908e+04
1.416312e+04
1.381700e+04
1.453966e+04
1.345184e+04
1.445285e+04
1.353208e+04
1.377679e+04
1.421030e+04
1.334767e+04
1.464193e+04
1.467414e+04
1.332242e+04
1.304735e+04
1.494369e+04
1.452938e+04
1.345449e+04
1.345579e+04
1.453535e+04
1.414430e+04
1.385639e+04
1.473259e+04
1.326744e+04
1.438739e+04
1.361593e+04
1.372954e+04
1.427989e+04
1.399796e+04
1.399587e+04
1.398482e+04
1.402148e+04
1.294863e+04
1.505474e+04
1.373650e+04
1.425846e+04
1.427618e+04
1.371830e+04
1.381169e+04
1.417645e+04
1.380055e+04
1.421143e+04
1.401832e+04
1.397894e+04
1.379282e+04
1.421951e+04
1.340515e+04
1.460489e+04
1.471920e+04
1.327302e+04
1.385731e+04
1.412319e+04
1.444335e+04
1.354931e+04
1.368701e+04
1.430531e+04
1.371300e+04
1.428182e+04
1.408741e+04
1.392232e+04
1.412126e+04
1.382610e+04
1.350487e+04
1.451947e+04
1.395418e+04
1.406391e+04
1.481569e+04
1.320948e+04
1.389536e+04
1.410641e+04
1.390289e+04
1.411164e+04
1.404994e+04
1.397436e+04
1.422323e+04
1.379868e+04
1.374855e+04
1.425507e+04
1.367906e+04
1.432139e+04
1.395227e+04
1.402884e+04
1.426162e+04
1.382480e+04
1.427495e+04
1.378585e+04
1.412702e+04
1.386097e+04
1.417341e+04
1.383457e+04
1.413233e+04
1.387199e+04
1.390884e+04
1.406337e+04
1.426234e+04
1.370176e+04
1.340916e+04
1.464179e+04
1.442032e+04
1.369776e+04
1.311688e+04
1.496863e+04
1.380950e+04
1.419425e+04
1.429349e+04
1.368468e+04
1.397097e+04
1.411623e+04
1.440558e+04
1.369801e+04
1.443030e+04
1.374953e+04
1.384843e+04
1.423677e+04
1.381311e+04
1.419886e+04
1.395489e+04
1.399917e+04
1.412380e+04
1.377822e+04
1.362753e+04
1.438079e+04
1.405823e+04
1.399100e+04
1.397040e+04
1.414475e+04
1.454164e+04
1.348040e+04
1.421626e+04
1.374207e+04
1.406260e+04
1.414962e+04
1.395920e+04
1.401933e+04
1.413636e+04
1.394029e+04
1.399448e+04
1.407848e+04
1.368365e+04
1.433205e+04
1.409352e+04
1.385991e+04
1.423697e+04
1.377967e+04
1.386334e+04
1.440013e+04
1.423935e+04
1.380488e+04
1.408495e+04
1.390299e+04
1.454819e+04
1.359537e+04
1.359799e+04
1.448050e+04
1.381952e+04
1.439835e+04
1.342563e+04
1.466967e+04
1.434031e+04
1.374364e+04
1.350665e+04
1.452785e+04
1.368067e+04
1.410129e+04
1.385544e+04
1.412413e+04
1.413122e+04
1.398224e+04
1.428849e+04
1.371750e+04
1.408425e+04
1.402882e+04
1.324064e+04
1.438429e+04
1.344631e+04
1.407512e+04
1.414422e+04
1.340598e+04
1.369598e+04
1.448267e+04
1.456350e+04
1.374188e+04
1.402117e+04
1.329550e+04
1.385257e+04
1.395447e+04
1.403182e+04
1.360840e+04
1.349011e+04
1.370402e+04
1.445850e+04
1.386165e+04
1.369709e+04
1.352930e+04
1.425238e+04
1.413564e+04
1.307802e+04
1.368965e+04
1.369563e+04
1.381599e+04
1.388339e+04
1.390965e+04
1.310262e+04
1.367869e+04
1.439048e+04
1.473861e+04
1.354538e+04
1.300653e+04
1.455193e+04
1.379697e+04
1.301930e+04
1.343972e+04
1.311881e+04
1.320347e+04
1.498917e+04
1.457121e+04
1.309878e+04
1.286506e+04
1.530206e+04
1.510727e+04
1.238160e+04
1.302439e+04
1.298108e+04
1.285966e+04
1.296969e+04
1.273229e+04
1.391303e+04
1.359626e+04
1.568230e+04
1.458153e+04
1.199550e+04
1.325639e+04
1.506625e+04
1.317019e+04
1.212943e+04
1.246038e+04
1.340243e+04
1.298808e+04
1.412687e+04
1.418942e+04
1.379645e+04
1.349720e+04
1.237306e+04
1.260464e+04
1.288348e+04
1.294796e+04
1.437268e+04
1.445620e+04
9.617821e+03
9.579742e+03
1.382558e+04
1.428661e+04
1.332437e+04
1.327773e+04
1.077290e+04
1.056047e+04
5.299650e+03
5.008842e+03
1.546698e+04
1.535311e+04
1.146370e+02
2.491363e+02
1.387965e+04
1.364646e+04
1.463941e+04
1.496252e+04
1.133788e+04
1.113108e+04
-4.792099e+03
-4.824777e+03
6.511949e+03
6.678594e+03
-3.693732e+03
-3.381091e+03
1.426123e+04
1.462005e+04
1.290849e+04
1.296375e+04
1.247340e+04
1.250261e+04
1.080577e+04
1.105706e+04
6.086036e+03
5.619174e+03
1.273781e+04
1.354141e+04
1.365413e+04
1.364897e+04
1.443609e+04
1.308983e+04
1.365060e+04
1.293850e+04
1.249747e+04
1.290525e+04
1.404423e+04
1.367024e+04
1.002128e+04
9.867088e+03
1.385774e+04
1.460404e+04
1.404396e+04
1.426339e+04
1.385957e+04
1.319259e+04
1.411505e+04
1.432795e+04
1.245317e+04
1.250576e+04
1.305730e+04
1.277394e+04
1.413668e+04
1.402380e+04
1.369938e+04
1.437620e+04
1.350728e+04
1.312336e+04
1.232932e+04
1.366152e+04
1.287026e+04
1.261467e+04
1.364640e+04
1.299498e+04
1.299690e+04
1.311082e+04
1.390064e+04
1.468713e+04
1.356879e+04
1.343580e+04
1.300507e+04
1.145707e+04
1.345591e+04
1.350239e+04
1.438168e+04
1.361246e+04
1.383395e+04
1.411543e+04
1.413734e+04
1.388034e+04
1.376091e+04
1.427478e+04
1.350481e+04
1.452532e+04
1.432355e+04
1.365263e+04
1.387770e+04
1.416134e+04
1.399313e+04
1.402632e+04
1.419192e+04
1.390904e+04
1.434768e+04
1.381158e+04
1.410539e+04
1.411799e+04
1.436238e+04
1.387778e+04
1.459375e+04
1.367021e+04
1.408958e+04
1.348383e+04
1.366630e+04
1.408882e+04
1.386667e+04
1.356009e+04
1.412923e+04
1.480891e+04
1.384276e+04
1.393267e+04
1.421535e+04
1.438592e+04
1.335211e+04
1.381891e+04
1.415439e+04
1.420352e+04
1.388520e+04
1.378706e+04
1.379247e+04
1.420364e+04
1.393403e+04
1.406262e+04
1.445024e+04
1.351035e+04
1.385157e+04
1.414178e+04
1.361717e+04
1.429065e+04
1.397815e+04
1.407390e+04
1.401164e+04
1.388127e+04
1.423426e+04
1.381150e+04
1.373627e+04
1.433693e+04
1.420273e+04
1.396186e+04
1.369678e+04
1.433979e+04
1.364903e+04
1.456203e+04
1.393377e+04
1.369190e+04
1.350610e+04
1.398031e+04
1.362388e+04
1.382367e+04
1.446370e+04
1.418847e+04
1.404268e+04
1.357532e+04
1.422861e+04
1.472449e+04
1.348941e+04
1.327176e+04
1.394343e+04
1.432793e+04
1.387979e+04
1.352092e+04
1.447568e+04
1.390997e+04
1.447275e+04
1.352561e+04
1.335986e+04
1.462133e+04
1.438862e+04
1.362353e+04
1.357655e+04
1.433678e+04
1.449907e+04
1.352454e+04
1.407113e+04
1.383569e+04
1.402975e+04
1.396222e+04
1.396163e+04
1.405956e+04
1.476614e+04
1.338802e+04
1.364766e+04
1.431657e+04
1.423225e+04
1.390183e+04
1.362200e+04
1.360663e+04
1.402691e+04
1.394268e+04
1.340530e+04
1.309061e+04
1.372321e+04
1.433038e+04
1.310618e+04
1.322342e+04
1.339174e+04
1.358370e+04
1.273645e+04
1.256823e+04
1.407431e+04
1.446266e+04
1.347526e+04
1.344834e+04
1.387237e+04
1.385422e+04
1.328920e+04
1.383156e+04
1.416118e+04
1.381173e+04
1.400232e+04
1.399030e+04
1.361077e+04
1.434879e+04
1.461541e+04
1.336812e+04
1.346958e+04
1.444441e+04
1.382895e+04
1.418288e+04
1.390463e+04
1.404036e+04
1.344285e+04
1.471963e+04
1.427013e+04
1.372981e+04
1.373197e+04
1.425950e+04
1.343946e+04
1.378559e+04
1.393283e+04
1.390340e+04
1.309581e+04
1.321468e+04
1.320534e+04
1.432387e+04
1.337329e+04
1.251540e+04
1.209968e+04
1.249618e+04
1.191455e+04
1.153801e+04
1.274172e+04
1.256960e+04
1.284880e+04
1.249566e+04
1.378254e+04
1.363833e+04
1.368514e+04
1.331560e+04
1.338734e+04
1.443417e+04
1.402439e+04
1.396174e+04
1.404940e+04
1.391641e+04
1.432891e+04
1.365149e+04
1.341674e+04
1.453192e+04
1.422273e+04
1.368934e+04
1.411582e+04
1.384309e+04
1.410729e+04
1.399436e+04
1.434651e+04
1.373406e+04
1.357705e+04
1.428959e+04
1.340955e+04
1.393987e+04
1.443289e+04
1.331560e+04
1.344378e+04
1.350878e+04
1.326999e+04
1.344899e+04
1.254755e+04
1.194999e+04
1.155098e+04
1.184352e+04
8.285500e+03
7.854547e+03
8.454603e+03
8.760103e+03
1.179507e+04
1.161092e+04
1.263403e+04
1.299875e+04
1.274277e+04
1.305117e+04
1.386056e+04
1.278199e+04
1.329940e+04
1.326150e+04
0.000000e+00
0.000000e+00
0.000000e+00
0.000000e+00
0.000000e+00
0.000000e+00
4.120644e+01
5.449863e+00
-4.358563e+00
-5.639918e+00
8.434201e+00
1.286865e+01
9.415706e+01
1.828254e+01
1.496389e+01
-1.100103e+01
9.501671e-01
-2.509711e+00
9.181295e+01
5.447360e+01
-1.224110e+00
-1.090745e+01
-8.760443e+00
-1.304711e+01
9.276817e+01
2.990637e+01
1.281371e+01
-2.318892e+01
2.243904e-01
-1.783536e+01
7.486905e+01
2.272668e+01
1.151719e+00
-1.797976e+01
1.760892e+01
-5.174146e+01
6.915727e+01
-1.803658e+01
1.875816e+01
-2.681257e+01
1.800569e+01
-7.450005e+01
4.167105e+01
-2.055770e+01
-4.131668e+00
-2.473814e+01
2.337640e+01
-8.796223e+01
4.570200e+01
-2.457471e+01
-4.692923e+00
-2.182671e+01
2.347199e+01
-7.713036e+01
2.978405e+00
-8.970522e-02
5.266022e+00
-1.518619e+01
4.144561e+00
-1.190915e+01
-8.765786e+00
2.513538e+01
3.624913e+00
-3.045884e+00
2.416169e+00
2.695556e+01
0.000000e+00
0.000000e+00
0.000000e+00
0.000000e+00
0.000000e+00
0.000000e+00
2.715668e+01
4.816761e+00
-7.395695e+00
1.080777e+01
1.312338e+01
-1.213147e+01
-2.049548e+00
-7.826774e+00
-2.392913e+00
5.312611e+00
8.492453e+00
6.962121e+00
-2.952381e+01
-1.705800e+01
-4.650758e+00
5.010315e+00
2.418582e+00
-1.695868e+00
-3.808532e+01
-3.314489e+01
4.317881e+00
-6.774457e+00
1.743135e+01
-1.695995e+01
-2.739499e+01
-2.437795e+01
4.396003e+00
1.895512e+00
1.308833e+01
-2.449930e+01
2.633260e+01
-1.078778e+01
6.042723e+00
1.337862e-01
1.667367e+01
-4.896165e+01
3.322252e+01
-6.747025e+00
1.522450e+00
-2.113426e+00
1.800071e+01
-5.084171e+01
-1.527181e+01
5.899003e+00
-2.026707e-01
-5.408158e+00
1.598191e+01
-3.373343e+01
7.049682e+00
1.409523e+01
1.405687e+01
-1.491436e+01
1.027665e+01
-9.849227e+00
-1.526771e+00
1.943316e+01
7.320529e+00
-4.742934e+00
4.978344e+00
2.367085e+01
0.000000e+00
0.000000e+00
0.000000e+00
0.000000e+00
0.000000e+00
0.000000e+00
3.877450e-01
-1.654212e+01
1.196612e+01
-1.328122e+01
1.578366e+01
-4.452436e+00
-5.150392e+01
-1.946185e+01
-6.979890e+00
-3.225375e+00
-1.803092e-01
1.670540e+01
-3.698144e+01
2.587065e+00
-8.191057e+00
-4.556667e+00
1.495364e+00
-3.525345e+00
-4.938186e+01
2.565264e+01
-4.339106e+00
-1.119298e+01
8.890825e+00
-7.075259e+00
-5.400025e+01
-2.275761e+00
2.217487e+00
2.452052e-01
-1.043232e+00
-3.078875e+00
-4.571462e+01
-7.152869e+00
2.157491e+00
-3.154914e-01
1.108895e+01
-5.983717e+00
3.788025e+01
-1.094125e+01
2.610320e+01
-1.281108e+01
2.924879e+01
-2.276853e+01
-6.153313e+00
1.720613e+01
9.445443e+00
-3.680113e+00
2.069609e+01
-1.819803e+01
-2.942704e+01
2.669414e+01
6.807878e+00
2.848445e+00
5.394820e+00
-2.298974e+00
-4.929841e+00
2.972486e+00
1.751074e+01
-1.070312e+01
1.004519e+01
-8.154709e+00
0.000000e+00
0.000000e+00
0.000000e+00
0.000000e+00
0.000000e+00
0.000000e+00
-4.505919e+01
-1.926957e+00
-3.209092e+01
-1.346226e+00
-6.378207e+00
3.943019e-02
3.983829e+00
-1.507681e+01
-1.875808e+01
-2.785589e+01
-1.533890e+01
1.473562e+01
-1.527633e+01
1.528900e+01
-7.516878e-01
1.499683e+00
-1.550246e+01
-4.070478e+00
2.330269e+01
2.834609e+01
-1.875135e+01
3.834494e+00
-1.734398e+01
-1.187355e+01
-2.130028e+01
4.723774e-01
-6.934142e+00
-8.225612e+00
-2.056157e+01
-5.436972e+00
-6.579709e+01
2.512142e+01
-4.393828e+00
-2.129186e+01
1.847641e+00
-4.148570e+00
-6.572272e+01
4.572664e+01
-1.809538e+01
4.726947e+00
1.416044e+01
-4.437333e+00
3.434411e+01
9.534067e+00
4.439751e+00
-7.115808e+00
1.793145e+01
-1.993481e+00
1.609628e+01
4.809129e+00
1.561425e+01
-1.106241e+01
1.636779e+01
-1.249075e+01
-6.146241e+00
-2.756842e+00
7.165815e+00
3.027965e+00
4.265980e+00
-3.266955e+01
0.000000e+00
0.000000e+00
0.000000e+00
0.000000e+00
0.000000e+00
0.000000e+00
-2.020845e+00
1.370822e+00
3.485886e+01
6.309738e+00
-6.919653e+00
-5.626489e+00
1.338986e+02
2.142004e+01
9.747065e+00
7.500393e+00
2.184525e+01
-5.685736e+00
1.302511e+02
-1.377944e+01
5.500176e+01
2.297848e+01
2.106610e+01
2.240279e+01
-9.462011e+00
2.430587e+01
6.893332e+00
2.955435e+01
8.242995e+00
1.868237e+01
9.261728e+01
-3.564489e+01
1.245341e+01
1.066100e+01
1.811311e+01
-2.741451e+00
1.723256e+02
8.012556e+01
-8.600062e+00
1.900296e+01
1.229346e+01
-1.991581e+01
-3.191759e+01
3.120689e+01
3.188667e+01
6.352670e-01
1.478269e+01
-1.604825e+01
-7.124464e+01
5.999442e+01
-3.770680e+00
-1.946806e+01
1.950771e+01
-1.052230e+01
1.073455e+01
7.200583e+00
-2.392629e+00
-1.692073e+01
6.334377e+00
-1.621807e+01
-2.788276e+00
-2.323413e+01
1.104268e+00
-8.402764e+00
-1.090345e+01
-3.055778e+01
0.000000e+00
0.000000e+00
0.000000e+00
0.000000e+00
0.000000e+00
0.000000e+00
1.259952e+01
2.085295e+01
-1.516927e+01
1.465253e+01
3.075636e+01
-2.321700e+00
-2.666100e+02
-1.336837e+01
2.801422e+01
-3.064810e+01
-3.789156e+00
-5.116277e+01
-1.124981e+02
2.915568e+01
-1.023182e-01
-1.556737e+01
-3.277663e+01
-1.216809e+02
-1.562493e+02
1.354327e+02
1.081900e+01
-5.695238e+00
-4.381791e+01
-1.384095e+02
2.415436e+01
-5.150689e+01
4.740592e+00
-4.057015e+01
-2.695220e+01
-9.401205e+01
-5.282609e+02
-2.934524e+02
-1.357637e-02
6.742374e+00
6.491324e+00
-3.576974e+01
1.346777e+02
-6.821502e+01
-4.300650e+01
3.936372e+01
3.603618e+01
-3.769236e+01
4.347849e+01
7.987409e+01
-7.124297e+00
-2.248642e+00
1.897996e+01
-1.193687e+01
-6.460782e+00
2.304915e+01
1.221204e+01
-2.249456e+01
7.678251e+00
-8.571068e+00
-1.785000e+01
-1.963736e+01
-5.708358e+00
-2.020272e+01
-1.104176e+01
-5.390261e+01
SCALARS E11 float 1
LOOKUP_TABLE default
-2.674051e-03
-1.730487e-03
-3.209002e-03
-5.741705e-03
-2.674051e-03
-1.730487e-03
-3.209002e-03
-5.741705e-03
-2.675233e-04
-2.244922e-04
9.405789e-04
-1.885223e-04
-2.675233e-04
-2.244922e-04
9.405789e-04
-1.885223e-04
-1.499355e-04
8.179755e-05
1.155464e-05
-1.499355e-04
8.179755e-05
1.155464e-05
6.317299e-05
-1.077705e-04
-2.424266e-04
-2.969511e-04
6.317299e-05
-1.077705e-04
-2.424266e-04
-2.969511e-04
-2.324033e-04
-4.337261e-04
-2.324033e-04
-4.337261e-04
-2.453012e-04
-6.570315e-05
-2.453012e-04
-6.570315e-05
-6.027328e-04
-5.369488e-04
-3.998574e-04
-4.878456e-04
-6.027328e-04
-5.369488e-04
-3.998574e-04
-4.878456e-04
-2.772650e-04
3.766499e-05
9.007714e-07
-3.802035e-04
-2.772650e-04
3.766499e-05
9.007714e-07
-3.802035e-04
-1.606815e-03
-2.318644e-03
-9.296271e-04
-8.628489e-04
-1.606815e-03
-2.318644e-03
-9.296271e-04
-8.628489e-04
-6.484845e-06
-3.163842e-04
-6.484845e-06
-3.163842e-04
3.997297e-04
3.997297e-04
-8.673500e-04
-9.197072e-04
-8.673500e-04
-9.197072e-04
-3.614711e-03
-3.040937e-03
-3.614711e-03
-3.040937e-03
-1.484186e-03
-1.484186e-03
1.988730e-03
1.988730e-03
-3.500184e-04
-3.500184e-04
-4.002122e-04
-1.619018e-05
-1.595615e-04
-4.002122e-04
-1.619018e-05
-1.595615e-04
-6.211455e-05
-5.682344e-06
-1.970118e-04
-1.600356e-04
-6.211455e-05
-5.682344e-06
-1.970118e-04
-1.600356e-04
-4.119632e-04
-4.119632e-04
-4.643592e-04
-7.652103e-04
-4.643592e-04
-7.652103e-04
-1.489426e-04
-1.489426e-04
-3.842880e-04
-3.842880e-04
-7.623887e-07
-7.623887e-07
-2.924287e-04
-2.924287e-04
-7.733151e-04
-7.733151e-04
-3.613243e-03
-3.613243e-03
-3.176286e-04
-3.176286e-04
-6.053578e-03
-6.053578e-03
-5.299370e-04
-8.165551e-04
-5.299370e-04
-8.165551e-04
-5.455553e-05
-5.455553e-05
1.922882e-04
1.922882e-04
1.070093e-04
1.070093e-04
8.938187e-05
8.938187e-05
-5.024613e-04
-8.048618e-04
-5.024613e-04
-8.048618e-04
-9.861170e-05
-9.861170e-05
1.923809e-04
1.923809e-04
2.376022e-04
2.376022e-04
2.576632e-04
2.576632e-04
-3.200029e-04
-5.822874e-04
-3.200029e-04
-5.822874e-04
3.181657e-05
3.181657e-05
2.508421e-04
2.508421e-04
2.810977e-04
2.810977e-04
2.484827e-04
2.484827e-04
-6.029759e-05
-1.274348e-04
-6.029759e-05
-1.274348e-04
-1.186006e-05
-1.186006e-05
4.520854e-05
4.520854e-05
2.548974e-04
2.548974e-04
3.354333e-04
3.354333e-04
1.810486e-04
2.510023e-04
1.810486e-04
2.510023e-04
-1.415378e-04
-1.415378e-04
1.611972e-05
1.611972e-05
3.586658e-04
3.586658e-04
4.990628e-04
4.990628e-04
2.033826e-04
5.125523e-04
2.033826e-04
5.125523e-04
-5.481308e-05
-5.481308e-05
1.051188e-04
1.051188e-04
2.431513e-04
2.431513e-04
2.403248e-04
2.403248e-04
1.057369e-04
3.196806e-04
1.057369e-04
3.196806e-04
4.705788e-05
4.705788e-05
1.069087e-05
1.069087e-05
-1.809329e-04
-1.809329e-04
-2.919243e-04
-2.919243e-04
-4.805886e-05
8.032083e-05
-4.805886e-05
8.032083e-05
-5.313703e-05
-5.313703e-05
-7.262801e-05
-7.262801e-05
-2.687107e-04
-2.687107e-04
-3.646977e-04
-3.646977e-04
-6.656171e-05
-1.134831e-05
-6.656171e-05
-1.134831e-05
-1.143956e-04
-1.143956e-04
-1.300564e-04
-1.300564e-04
-4.582209e-05
-4.582209e-05
3.852249e-05
3.852249e-05
1.846666e-05
-1.196388e-04
1.846666e-05
-1.196388e-04
6.532295e-05
6.532295e-05
1.258918e-05
1.258918e-05
1.621287e-05
1.621287e-05
-1.338305e-05
-1.338305e-05
-3.069190e-05
-3.628806e-06
-3.069190e-05
-3.628806e-06
1.990293e-04
1.990293e-04
2.296796e-04
2.296796e-04
2.178316e-04
2.178316e-04
2.036757e-04
2.036757e-04
-7.877531e-05
7.848533e-05
-7.877531e-05
7.848533e-05
1.096386e-04
1.096386e-04
2.665161e-04
2.665161e-04
3.139104e-04
3.139104e-04
4.115211e-04
4.115211e-04
-3.052518e-04
-2.799622e-04
-3.052518e-04
-2.799622e-04
-2.111506e-04
-2.111506e-04
-7.024173e-06
-7.024173e-06
1.309795e-04
1.309795e-04
6.709243e-05
6.709243e-05
-5.266480e-04
-4.593574e-04
-5.266480e-04
-4.593574e-04
-3.904346e-04
-3.904346e-04
-2.701703e-04
-2.701703e-04
-8.470601e-05
-8.470601e-05
-1.541628e-04
-1.541628e-04
1.285877e-04
2.298634e-04
6.693612e-05
-2.134734e-04
1.285877e-04
2.298634e-04
6.693612e-05
-2.134734e-04
1.543142e-04
9.356181e-05
1.543142e-04
9.356181e-05
-1.001749e-04
-2.719692e-04
-1.001749e-04
-2.719692e-04
7.290929e-05
7.290929e-05
-3.148540e-04
-9.249499e-05
-3.148540e-04
-9.249499e-05
1.837232e-05
1.837232e-05
-1.922251e-04
-3.579373e-04
-1.922251e-04
-3.579373e-04
7.755606e-05
7.755606e-05
-6.614350e-05
-4.261508e-04
-6.614350e-05
-4.261508e-04
-1.143969e-05
-1.143969e-05
-9.882237e-05
-9.591826e-05
-9.882237e-05
-9.591826e-05
-1.473605e-04
-1.473605e-04
-1.056834e-03
-9.445943e-04
-1.056834e-03
-9.445943e-04
-7.940988e-04
-7.940988e-04
-2.264957e-04
-2.264957e-04
1.779322e-04
1.779322e-04
5.169222e-04
5.169222e-04
4.163821e-04
4.163821e-04
-1.187012e-03
-9.551107e-04
-1.187012e-03
-9.551107e-04
-8.006681e-04
-8.006681e-04
-5.897692e-05
-5.897692e-05
3.491575e-04
3.491575e-04
4.409513e-04
4.409513e-04
4.062306e-04
4.062306e-04
1.921306e-04
1.921306e-04
-7.023521e-06
-7.023521e-06
3.866775e-05
3.866775e-05
1.954444e-05
1.954444e-05
-3.498759e-04
-3.498759e-04
-8.033865e-04
-8.033865e-04
-4.711260e-04
-4.711260e-04
-3.294358e-04
-3.294358e-04
-1.640987e-04
-1.505203e-04
-3.821429e-04
-4.646577e-04
-1.640987e-04
-1.505203e-04
-3.821429e-04
-4.646577e-04
-7.913066e-05
-3.169252e-04
-2.560829e-04
-6.404864e-05
-7.913066e-05
-3.169252e-04
-2.560829e-04
-6.404864e-05
1.269615e-04
-6.048094e-05
-1.358718e-04
5.055828e-05
1.269615e-04
-6.048094e-05
-1.358718e-04
5.055828e-05
1.385978e-04
1.385492e-04
1.926142e-04
1.385978e-04
1.385492e-04
1.926142e-04
2.706734e-04
1.594176e-05
2.706734e-04
1.594176e-05
-2.296398e-04
-1.596088e-04
-2.442710e-05
1.951818e-04
-2.296398e-04
-1.596088e-04
-2.442710e-05
1.951818e-04
2.267407e-05
6.686482e-05
2.267407e-05
6.686482e-05
-3.098131e-04
-2.437361e-04
-3.098131e-04
-2.437361e-04
-3.239793e-04
-5.663805e-04
-3.010724e-04
-3.239793e-04
-5.663805e-04
-3.010724e-04
-1.556240e-04
-1.556240e-04
-1.159833e-04
-1.719211e-04
-1.159833e-04
-1.719211e-04
6.124607e-04
7.848157e-04
6.124607e-04
7.848157e-04
1.407396e-04
1.407396e-04
3.717258e-04
3.717258e-04
4.570740e-04
5.079315e-04
2.777590e-04
4.570740e-04
5.079315e-04
2.777590e-04
3.959605e-04
-1.286502e-04
-5.287010e-04
2.135046e-04
3.959605e-04
-1.286502e-04
-5.287010e-04
2.135046e-04
1.110708e-04
-6.371016e-04
1.110708e-04
-6.371016e-04
4.031742e-04
4.031742e-04
-3.689420e-04
-5.524184e-04
-1.052095e-04
4.870734e-04
-3.689420e-04
-5.524184e-04
-1.052095e-04
4.870734e-04
-5.131972e-04
-5.131972e-04
-1.560680e-05
-1.560680e-05
6.302959e-06
6.302959e-06
-2.624557e-04
-2.624557e-04
-1.165945e-04
-1.165945e-04
-6.028843e-04
-6.028843e-04
-5.451009e-04
-1.683568e-04
-5.451009e-04
-1.683568e-04
-1.936848e-04
-1.248533e-04
-1.936848e-04
-1.248533e-04
8.198164e-05
6.154140e-05
8.198164e-05
6.154140e-05
2.953132e-04
1.669280e-04
2.953132e-04
1.669280e-04
1.892604e-04
4.368887e-05
1.892604e-04
4.368887e-05
-3.066792e-05
8.022528e-05
-3.066792e-05
8.022528e-05
2.743271e-06
1.583931e-04
2.743271e-06
1.583931e-04
-7.965028e-05
-6.423211e-05
-7.965028e-05
-6.423211e-05
-1.088768e-04
-1.453084e-04
-1.088768e-04
-1.453084e-04
-1.860203e-04
-4.449762e-05
-1.860203e-04
-4.449762e-05
-5.825830e-05
-2.694651e-05
-5.825830e-05
-2.694651e-05
7.544972e-06
-5.346243e-05
7.544972e-06
-5.346243e-05
-1.634781e-04
2.008963e-06
-1.634781e-04
2.008963e-06
-1.294712e-04
1.483471e-04
-1.294712e-04
1.483471e-04
-1.355882e-04
-1.355882e-04
-1.398442e-04
-1.398442e-04
-1.932329e-05
-1.932329e-05
6.045627e-05
6.045627e-05
1.643820e-04
1.643820e-04
1.591065e-04
1.591065e-04
1.316052e-04
1.316052e-04
1.042088e-04
1.042088e-04
5.901048e-05
5.901048e-05
3.342743e-05
3.342743e-05
-2.553963e-04
-2.553963e-04
-3.489090e-04
-3.489090e-04
-6.801511e-05
-6.801511e-05
8.355689e-05
8.355689e-05
-9.986287e-05
-9.986287e-05
3.262611e-05
3.262611e-05
-9.626256e-05
-9.626256e-05
-3.285393e-05
-3.285393e-05
1.989593e-04
1.989593e-04
9.581823e-05
9.581823e-05
8.259539e-05
8.259539e-05
3.112489e-04
3.112489e-04
2.599455e-04
2.599455e-04
1.725136e-04
1.725136e-04
-2.095434e-04
-2.095434e-04
-5.703824e-04
-5.703824e-04
-4.757433e-04
-4.757433e-04
-3.973328e-04
-3.973328e-04
-1.049046e-04
-1.049046e-04
-4.403955e-05
-4.403955e-05
-1.042140e-04
-1.042140e-04
-8.830530e-05
-8.830530e-05
-2.065047e-05
-2.065047e-05
-4.265653e-05
-4.265653e-05
1.026033e-04
1.026033e-04
1.873049e-04
1.873049e-04
2.388398e-04
2.388398e-04
2.284298e-04
2.284298e-04
-1.286293e-04
-1.286293e-04
-3.479461e-04
-3.479461e-04
-3.419949e-04
-3.419949e-04
-3.717683e-04
-3.717683e-04
-2.056120e-04
-2.056120e-04
-1.555242e-04
-1.555242e-04
-1.832765e-04
-1.832765e-04
-1.281810e-04
-1.281810e-04
-1.274052e-04
-1.274052e-04
1.678105e-06
1.678105e-06
3.291880e-04
3.291880e-04
8.729494e-05
8.729494e-05
1.855038e-04
1.855038e-04
1.002286e-04
1.002286e-04
-1.715704e-04
-1.715704e-04
-6.749774e-05
-6.749774e-05
-1.183139e-04
-1.183139e-04
-1.989246e-04
-1.989246e-04
1.798171e-06
-2.620373e-04
1.798171e-06
-2.620373e-04
4.061737e-05
4.061737e-05
-4.823198e-05
-4.823198e-05
2.500093e-04
2.500093e-04
2.991062e-04
2.991062e-04
-1.303107e-04
-1.303107e-04
-3.682623e-04
-3.682623e-04
-2.749939e-04
-2.749939e-04
3.810466e-05
7.238958e-05
3.810466e-05
7.238958e-05
-3.553398e-06
-3.553398e-06
2.952563e-05
2.952563e-05
1.684950e-04
1.684950e-04
1.459723e-04
1.459723e-04
7.728943e-05
7.728943e-05
-2.035141e-05
-2.035141e-05
-7.921902e-05
-7.921902e-05
-1.968759e-05
2.522475e-05
-1.968759e-05
2.522475e-05
1.861627e-05
1.861627e-05
-1.569972e-04
-1.569972e-04
-2.343880e-04
-2.343880e-04
-4.154288e-05
-4.154288e-05
1.524599e-04
1.524599e-04
1.032570e-04
1.032570e-04
-3.842764e-05
-3.842764e-05
-1.145429e-04
-6.510988e-05
-1.145429e-04
-6.510988e-05
4.426352e-05
4.426352e-05
7.826437e-06
7.826437e-06
-8.204569e-05
-8.204569e-05
5.271798e-05
5.271798e-05
1.414299e-04
1.414299e-04
-7.092256e-05
-7.092256e-05
-2.968131e-04
-2.968131e-04
3.187562e-06
-9.800751e-05
3.187562e-06
-9.800751e-05
1.972514e-04
1.972514e-04
1.811273e-04
1.811273e-04
9.308577e-05
9.308577e-05
4.104137e-05
4.104137e-05
-1.512367e-04
-1.512367e-04
-2.793523e-04
-2.793523e-04
-3.412475e-04
-3.412475e-04
1.283380e-04
2.971605e-06
1.283380e-04
2.971605e-06
1.687893e-04
1.687893e-04
1.165486e-04
1.165486e-04
4.674581e-05
4.674581e-05
-3.557486e-06
-3.557486e-06
-1.891314e-05
-1.891314e-05
-2.619611e-05
-2.619611e-05
-2.481094e-06
-2.481094e-06
-2.826115e-05
-5.995811e-05
-7.192462e-05
-2.751417e-05
-2.826115e-05
-5.995811e-05
-7.192462e-05
-2.751417e-05
6.207478e-05
1.002423e-04
6.207478e-05
1.002423e-04
3.112146e-04
3.130277e-04
3.112146e-04
3.130277e-04
3.094289e-04
1.731553e-04
3.094289e-04
1.731553e-04
1.342710e-04
2.169550e-04
1.342710e-04
2.169550e-04
-5.461739e-05
2.462947e-04
-5.461739e-05
2.462947e-04
-4.603007e-04
-9.288081e-05
-4.603007e-04
-9.288081e-05
-8.435980e-05
-1.897201e-04
-8.435980e-05
-1.897201e-04
-3.963311e-05
-3.963311e-05
3.570094e-04
3.570094e-04
4.032751e-04
4.032751e-04
1.055483e-04
1.055483e-04
-2.986298e-04
-2.986298e-04
-7.186048e-04
-7.186048e-04
-7.877267e-05
-7.877267e-05
9.168768e-06
9.168768e-06
-1.316628e-04
-1.316628e-04
-2.441828e-04
-2.441828e-04
-9.299277e-05
-9.299277e-05
-1.976740e-05
-1.976740e-05
-1.322343e-04
-1.322343e-04
-2.446729e-04
-2.446729e-04
-5.774650e-05
-5.774650e-05
1.722921e-04
1.722921e-04
-1.233718e-04
-1.233718e-04
-2.288852e-04
-2.288852e-04
9.302632e-05
9.302632e-05
-1.324048e-04
-1.324048e-04
-7.687607e-05
-7.687607e-05
-1.233020e-05
-1.233020e-05
-3.088793e-04
-3.088793e-04
5.112440e-06
5.112440e-06
1.439494e-05
1.439494e-05
5.053396e-04
1.554082e-04
5.053396e-04
1.554082e-04
5.399783e-04
1.997586e-04
5.399783e-04
1.997586e-04
1.837667e-04
-1.406821e-04
1.837667e-04
-1.406821e-04
2.042182e-04
-1.629396e-04
2.042182e-04
-1.629396e-04
2.865174e-04
9.895768e-05
2.865174e-04
9.895768e-05
-1.645355e-05
-1.645355e-05
-2.639386e-05
-2.639386e-05
-2.208151e-04
-2.208151e-04
-2.061595e-04
-2.061595e-04
-2.460268e-05
-2.460268e-05
-1.352260e-04
-1.352260e-04
-2.142032e-04
-2.142032e-04
-1.991820e-04
-1.991820e-04
1.062036e-04
1.062036e-04
1.268366e-04
1.268366e-04
-1.380506e-04
-1.380506e-04
-1.409501e-04
-1.409501e-04
-4.220795e-05
-4.220795e-05
8.712184e-05
8.712184e-05
1.133432e-05
1.133432e-05
1.851313e-04
1.851313e-04
1.084974e-04
1.084974e-04
1.813127e-04
1.813127e-04
4.643472e-05
4.643472e-05
-8.128450e-05
-8.128450e-05
3.974397e-04
3.974397e-04
1.851376e-04
1.851376e-04
2.209774e-04
2.209774e-04
4.986455e-05
4.986455e-05
-2.095419e-05
-2.095419e-05
-1.037418e-04
-1.037418e-04
-1.346141e-04
-1.346141e-04
-3.727611e-05
-3.727611e-05
-2.681485e-04
-2.681485e-04
-1.521628e-04
-1.521628e-04
-5.284324e-04
-5.284324e-04
-4.332961e-04
-4.332961e-04
-2.577309e-04
-2.577309e-04
-4.102006e-04
-4.102006e-04
-9.539796e-05
-9.539796e-05
-1.785359e-04
-1.785359e-04
1.670913e-04
1.670913e-04
1.662902e-04
1.662902e-04
-7.557056e-05
-7.557056e-05
-2.090818e-04
-2.090818e-04
-4.685433e-05
-4.685433e-05
-1.546211e-04
-1.546211e-04
8.645238e-05
8.645238e-05
7.510918e-05
7.510918e-05
-9.414577e-05
-9.414577e-05
-5.743614e-05
-5.743614e-05
7.626539e-05
7.626539e-05
-2.523330e-04
-2.523330e-04
-2.624433e-04
-2.624433e-04
-1.374930e-05
-1.374930e-05
2.115941e-04
2.115941e-04
2.904563e-04
2.904563e-04
2.741580e-04
2.741580e-04
-4.589094e-04
-4.589094e-04
-4.766845e-04
-4.766845e-04
-2.386659e-04
-2.386659e-04
1.435474e-04
1.435474e-04
3.980199e-04
3.980199e-04
3.375325e-04
3.375325e-04
-1.054510e-04
-1.054510e-04
-1.890020e-04
-1.890020e-04
-3.049279e-04
-3.049279e-04
-8.438536e-05
-8.438536e-05
2.141738e-04
2.141738e-04
3.108306e-04
3.108306e-04
2.484674e-04
2.484674e-04
1.689861e-04
1.689861e-04
1.727671e-04
1.727671e-04
-8.640503e-05
-8.640503e-05
-1.724457e-04
-1.724457e-04
9.244658e-05
9.244658e-05
-3.128768e-04
-3.128768e-04
1.340680e-04
1.340680e-04
2.860822e-04
2.860822e-04
9.622463e-05
9.622463e-05
-1.230029e-04
-1.230029e-04
-8.820101e-05
-8.820101e-05
-5.696308e-04
-5.696308e-04
2.776878e-05
2.776878e-05
3.425603e-04
3.425603e-04
3.718401e-04
3.718401e-04
-1.000216e-05
-1.000216e-05
-1.639685e-04
-1.639685e-04
-2.132802e-04
-2.132802e-04
1.793449e-04
1.793449e-04
4.528853e-04
4.528853e-04
4.036232e-04
4.036232e-04
-1.938438e-04
-1.938438e-04
-1.607866e-04
-1.607866e-04
1.812972e-04
1.812972e-04
4.215653e-04
4.215653e-04
2.264423e-04
2.264423e-04
1.870210e-04
1.870210e-04
-2.217419e-04
-2.217419e-04
-7.058809e-05
-7.058809e-05
2.826625e-04
2.826625e-04
2.711255e-04
2.711255e-04
-1.017037e-06
-1.017037e-06
-1.690090e-04
-1.690090e-04
1.201821e-04
1.201821e-04
3.566897e-04
3.566897e-04
7.565968e-05
7.565968e-05
-3.762505e-04
-3.762505e-04
-7.492404e-04
-7.492404e-04
-2.424553e-04
-2.424553e-04
6.678668e-04
6.678668e-04
9.256083e-04
9.256083e-04
-5.568889e-04
-5.568889e-04
-7.708774e-04
-7.708774e-04
-1.017249e-03
-1.017249e-03
-6.559070e-04
-6.559070e-04
1.106460e-03
1.106460e-03
1.013363e-03
1.013363e-03
-1.160683e-03
-1.160683e-03
-4.742888e-04
-4.742888e-04
1.102976e-03
1.102976e-03
2.754505e-03
2.754505e-03
6.604516e-03
6.604516e-03
6.402026e-03
6.402026e-03
-5.989612e-04
-5.989612e-04
1.081230e-03
1.081230e-03
6.956830e-03
6.956830e-03
8.092026e-03
8.092026e-03
-5.808634e-03
-5.808634e-03
-1.087252e-03
-1.087252e-03
-1.679492e-03
-1.679492e-03
-8.328085e-04
-8.328085e-04
7.202741e-04
7.202741e-04
-7.028876e-03
-7.028876e-03
-2.117262e-02
-2.117262e-02
-1.648969e-02
-1.648969e-02
-2.834124e-03
-2.834124e-03
-1.454716e-04
-1.454716e-04
-5.153558e-03
-5.153558e-03
-9.818358e-03
-9.818358e-03
-1.745511e-03
-1.745511e-03
-6.386252e-03
-6.386252e-03
-4.622102e-03
-4.622102e-03
-1.430622e-03
-1.430622e-03
-2.698401e-03
-2.698401e-03
6.184645e-03
6.184645e-03
1.469160e-02
1.469160e-02
7.603340e-04
7.603340e-04
-5.870751e-03
-5.870751e-03
-5.646571e-03
-5.646571e-03
-3.763809e-03
-3.763809e-03
2.403266e-03
2.403266e-03
7.336954e-03
7.336954e-03
-3.759881e-03
-3.759881e-03
-4.830117e-03
-4.830117e-03
-4.709040e-03
-4.709040e-03
-4.017002e-03
-4.017002e-03
-3.572543e-03
-3.572543e-03
-3.121759e-04
-3.121759e-04
-3.084491e-03
-3.084491e-03
-4.558076e-03
-4.558076e-03
-4.713836e-03
-4.713836e-03
-4.780742e-03
-4.780742e-03
-3.545042e-03
-3.545042e-03
-2.072669e-03
-2.072669e-03
-3.314239e-03
-3.314239e-03
-4.209711e-03
-4.209711e-03
-4.764359e-03
-4.764359e-03
-4.334910e-03
-4.334910e-03
-3.547447e-03
-3.547447e-03
-3.625613e-03
-3.625613e-03
7.132286e-04
7.132286e-04
4.533108e-04
4.533108e-04
3.429143e-04
3.429143e-04
4.052370e-04
4.052370e-04
3.718981e-04
3.718981e-04
5.559010e-04
5.559010e-04
2.120704e-04
2.120704e-04
-2.168453e-04
-2.168453e-04
-1.373417e-04
-1.373417e-04
-3.812441e-05
-3.812441e-05
-1.751352e-04
-1.751352e-04
-2.454459e-04
-2.454459e-04
-8.013746e-05
-8.013746e-05
4.122341e-04
4.122341e-04
1.089920e-03
1.089920e-03
1.360794e-03
1.360794e-03
1.295901e-03
1.295901e-03
8.471449e-04
8.471449e-04
8.103433e-04
8.103433e-04
8.834486e-04
8.834486e-04
5.784433e-04
5.784433e-04
4.439258e-04
4.439258e-04
7.446049e-04
7.446049e-04
6.431151e-04
6.431151e-04
4.810035e-04
4.810035e-04
2.694730e-04
2.694730e-04
2.879531e-04
2.879531e-04
2.283768e-04
2.283768e-04
-1.612895e-04
-1.612895e-04
-2.776165e-04
-2.776165e-04
-2.932072e-04
-2.932072e-04
-3.957159e-04
-3.957159e-04
-3.481816e-04
-3.481816e-04
1.368427e-05
1.368427e-05
6.203128e-04
6.203128e-04
9.319353e-04
9.319353e-04
1.107305e-03
1.107305e-03
7.537058e-04
7.537058e-04
7.919454e-04
7.919454e-04
1.272531e-03
1.272531e-03
1.356591e-03
1.356591e-03
1.081395e-03
1.081395e-03
3.000981e-04
3.000981e-04
-3.086737e-05
-3.086737e-05
3.205815e-04
3.205815e-04
2.909619e-04
2.909619e-04
3.482991e-04
3.482991e-04
1.504083e-04
1.504083e-04
2.191512e-05
2.191512e-05
-1.838806e-04
-1.838806e-04
-2.736551e-04
-2.736551e-04
-2.644507e-04
-2.644507e-04
-3.138854e-04
-3.138854e-04
-2.087734e-04
-2.087734e-04
2.551920e-05
2.551920e-05
4.778942e-04
4.778942e-04
1.115864e-03
1.115864e-03
1.873087e-03
1.873087e-03
1.451972e-03
1.451972e-03
-1.668783e-03
-1.668783e-03
-1.184377e-03
-1.184377e-03
1.409199e-03
1.409199e-03
1.405414e-03
1.405414e-03
7.704764e-04
7.704764e-04
-3.722388e-04
-3.722388e-04
-6.188307e-04
-6.188307e-04
1.965143e-04
1.965143e-04
3.722145e-05
3.722145e-05
3.188998e-05
3.188998e-05
-4.779278e-05
-4.779278e-05
-6.232236e-05
-6.232236e-05
-1.306999e-04
-1.306999e-04
-2.171601e-05
-2.171601e-05
-7.709414e-05
-7.709414e-05
-1.322940e-04
-1.322940e-04
-6.527476e-05
-6.527476e-05
8.556569e-05
8.556569e-05
4.824791e-04
4.824791e-04
9.168768e-04
9.168768e-04
2.222408e-03
2.222408e-03
2.071133e-03
2.071133e-03
-8.983091e-03
-8.983091e-03
-1.124392e-02
-1.124392e-02
-1.177166e-03
-1.177166e-03
3.525774e-04
3.525774e-04
-5.354860e-04
-5.354860e-04
-1.096283e-03
-1.096283e-03
-1.671758e-03
-1.671758e-03
2.240910e-04
2.240910e-04
1.001556e-04
1.001556e-04
1.051907e-04
1.051907e-04
-8.738624e-06
-8.738624e-06
1.930009e-04
1.930009e-04
1.757877e-04
1.757877e-04
7.453912e-05
7.453912e-05
5.917747e-05
5.917747e-05
1.114045e-04
1.114045e-04
1.414693e-04
1.414693e-04
9.868208e-05
9.868208e-05
5.239691e-04
5.239691e-04
3.481993e-04
3.481993e-04
2.867624e-03
2.867624e-03
8.099340e-03
8.099340e-03
-1.071602e-02
-1.071602e-02
-1.843785e-02
-1.843785e-02
-6.614846e-03
-6.614846e-03
-8.289921e-03
-8.289921e-03
-5.477619e-03
-5.477619e-03
-2.584710e-03
-2.584710e-03
-2.700232e-03
-2.700232e-03
3.413750e-06
1.339519e-06
3.122689e-06
1.034131e-05
2.596716e-05
3.823179e-05
5.202284e-06
2.002099e-06
4.402318e-06
1.332097e-05
3.222614e-05
4.781307e-05
2.488931e-05
1.350309e-05
4.546631e-06
1.120373e-05
3.606068e-05
5.669027e-05
5.999248e-05
3.502870e-05
7.090041e-06
7.357397e-06
2.622424e-05
4.184886e-05
6.735459e-05
3.925042e-05
5.209669e-06
-9.432634e-07
3.652412e-06
8.464440e-06
4.982091e-05
2.629426e-05
1.007564e-06
-2.858840e-06
-6.656492e-06
-8.347798e-06
4.420396e-05
2.354703e-05
6.882375e-06
5.903704e-06
-3.810231e-06
-8.553222e-06
3.385714e-05
2.005480e-05
5.456209e-06
8.236420e-07
-1.018523e-05
-1.735779e-05
1.611034e-05
1.009275e-05
-9.013446e-07
-2.833831e-06
-1.409573e-05
-2.840166e-05
-8.928139e-07
-6.951367e-06
-2.964775e-06
1.279644e-05
3.943945e-06
-1.062461e-05
-1.257014e-05
-2.126912e-05
-4.614635e-06
2.587721e-05
2.152381e-05
1.203201e-05
-5.621780e-06
-3.054207e-06
2.705995e-06
6.924589e-06
1.461566e-05
2.128077e-05
-5.221401e-06
-9.648696e-07
5.035200e-06
8.818053e-06
2.194765e-05
3.303792e-05
1.064325e-05
9.896827e-06
7.232672e-06
6.345026e-06
2.619369e-05
4.501228e-05
3.401665e-05
1.855629e-05
1.880175e-06
1.123536e-06
2.015167e-05
3.872068e-05
3.275083e-05
1.362692e-05
-5.681932e-06
-3.972589e-06
6.718566e-06
1.551544e-05
2.609803e-05
1.451999e-05
2.307750e-06
-2.901323e-07
-7.605509e-07
7.327187e-07
3.310728e-05
2.297720e-05
1.346736e-05
8.272904e-06
2.239644e-06
2.021082e-06
3.405317e-05
2.082475e-05
7.440324e-06
3.046925e-06
-3.914426e-06
-6.638378e-06
2.237341e-05
1.134610e-05
-1.517079e-06
-3.870139e-06
-1.024890e-05
-1.611047e-05
-5.209356e-06
-8.914012e-06
-8.255652e-06
6.080349e-07
3.990099e-06
2.871494e-06
-2.465359e-05
-2.459558e-05
-1.289243e-05
6.137841e-06
1.840721e-05
2.329145e-05
-3.441204e-05
-1.768342e-05
4.911159e-06
9.076694e-06
5.736030e-06
4.095789e-06
-3.562969e-05
-1.647999e-05
6.571749e-06
9.072465e-06
1.152997e-05
1.538879e-05
-2.157897e-05
-6.846723e-06
4.920032e-06
1.547922e-06
1.418652e-05
2.723174e-05
-1.051538e-05
-2.894274e-06
-1.059809e-06
-7.090683e-06
1.212690e-05
3.158872e-05
-2.603565e-05
-1.531098e-05
-5.217279e-06
-6.552667e-06
8.988309e-06
2.523371e-05
-2.722753e-05
-1.429282e-05
4.740641e-07
1.507384e-06
7.548729e-06
1.438892e-05
-8.309865e-07
4.942052e-06
1.260325e-05
1.207981e-05
1.212865e-05
1.458910e-05
1.728179e-05
1.436783e-05
1.052721e-05
7.177868e-06
6.353229e-06
7.951272e-06
1.647731e-05
8.954774e-06
-7.637195e-07
-4.141174e-06
-1.433106e-06
2.456461e-06
-1.510909e-05
-1.335922e-05
-1.193392e-05
-8.658806e-06
6.347226e-06
1.775358e-05
-4.405119e-05
-3.111178e-05
-1.883713e-05
-1.092801e-05
1.433533e-05
3.102478e-05
-5.614963e-06
-1.488532e-07
6.432963e-06
7.812038e-06
5.025414e-06
1.975423e-06
-1.856412e-06
-1.277595e-06
2.802292e-06
7.381594e-06
8.204406e-06
7.948988e-06
-1.250479e-05
-1.309085e-05
-8.060818e-06
1.820119e-06
1.032153e-05
1.455809e-05
-3.613911e-05
-1.965896e-05
-5.697850e-06
-4.950229e-06
8.991485e-06
1.966655e-05
-2.833669e-05
-1.017568e-05
1.141412e-06
-4.354237e-06
7.806408e-06
1.861879e-05
-2.147999e-05
-1.847991e-05
-9.949663e-06
2.558150e-06
1.070907e-05
1.188235e-05
-1.318035e-05
-1.089384e-05
-2.163493e-06
1.025389e-05
1.480805e-05
1.338865e-05
1.125704e-05
1.464752e-05
1.093127e-05
4.310724e-06
6.017266e-06
7.237618e-06
5.357221e-06
7.977605e-06
1.765544e-06
-6.647087e-06
-2.789868e-06
6.475374e-07
-1.963767e-05
-1.038905e-05
-5.915568e-06
-8.524847e-06
-1.096014e-06
4.166959e-06
-3.276811e-05
-1.780161e-05
-7.457289e-06
-8.406629e-06
3.347874e-07
5.403357e-06
5.339500e-06
-6.187301e-06
-3.341941e-06
3.844483e-06
-2.208293e-06
-1.075330e-06
1.587455e-05
-5.992168e-06
-1.186682e-05
9.197089e-07
-2.699539e-06
-3.113252e-06
2.302680e-05
-8.505846e-06
-1.987121e-05
-1.770007e-06
-3.765427e-06
-3.694765e-06
4.876607e-06
-1.328227e-05
-1.036668e-05
2.313387e-06
-3.363712e-06
-6.464148e-07
6.772788e-06
-8.530643e-06
-6.209900e-06
5.018247e-06
-1.945172e-06
-2.512564e-06
-1.627087e-05
-2.298220e-05
-1.441099e-05
5.040996e-06
2.981285e-06
-3.247881e-06
-5.536173e-05
-3.368681e-05
-5.067710e-06
8.293267e-06
1.111434e-05
7.518620e-06
-1.685991e-05
-1.043873e-05
6.129409e-07
6.060543e-06
8.911956e-06
1.094626e-05
5.724713e-06
-4.311074e-07
-3.755432e-06
9.958087e-07
5.186733e-06
7.457914e-06
-4.822202e-06
8.107375e-07
-1.969608e-06
-6.885404e-06
-2.837945e-06
-2.287975e-06
-6.830572e-08
4.726862e-06
-2.851876e-06
-1.402066e-05
-1.298857e-05
-1.316161e-05
-3.225784e-05
-3.999580e-05
-1.201679e-05
6.710414e-06
-6.259514e-06
-2.239683e-06
-2.015238e-05
-3.845729e-05
-2.186281e-05
9.060201e-07
-1.041711e-05
-9.609669e-06
3.150805e-05
-1.081400e-05
-2.369943e-05
-5.570731e-06
-1.612759e-05
-1.537652e-05
5.295987e-05
4.880954e-06
-8.127583e-06
5.456192e-06
-1.453569e-05
-1.304097e-05
2.000059e-05
-1.533529e-05
-8.563649e-06
1.264155e-05
-1.131126e-05
-1.436174e-05
-4.641197e-05
-4.033592e-05
-1.158247e-05
5.701885e-06
-5.493510e-06
-1.129585e-05
-1.080353e-04
-5.810920e-05
-6.542753e-07
9.596255e-06
8.580378e-06
4.842758e-06
-5.591950e-05
-4.303153e-05
-9.006681e-06
1.258516e-05
1.613946e-05
1.923879e-05
5.053130e-06
-1.150732e-05
-1.043658e-05
1.190989e-05
1.948906e-05
2.235297e-05
8.938648e-06
6.557789e-06
-2.429385e-06
-2.458359e-06
5.174338e-06
6.229694e-06
1.403429e-05
1.075543e-05
-7.293201e-06
-1.948254e-05
-1.326669e-05
-9.631260e-06
SCALARS E22 float 1
LOOKUP_TABLE default
2.149749e-03
1.226599e-03
-8.076796e-04
8.473559e-04
2.149749e-03
1.226599e-03
-8.076796e-04
8.473559e-04
6.202982e-04
1.555650e-04
-6.434936e-04
4.362293e-04
6.202982e-04
1.555650e-04
-6.434936e-04
4.362293e-04
4.412477e-04
2.314270e-04
8.381411e-05
4.412477e-04
2.314270e-04
8.381411e-05
2.316985e-05
-1.717629e-04
3.902810e-04
3.477754e-04
2.316985e-05
-1.717629e-04
3.902810e-04
3.477754e-04
2.734391e-04
-5.416022e-05
2.734391e-04
-5.416022e-05
1.613481e-04
2.388330e-04
1.613481e-04
2.388330e-04
1.246897e-03
8.941456e-04
7.792216e-04
6.495757e-04
1.246897e-03
8.941456e-04
7.792216e-04
6.495757e-04
3.286192e-04
1.433758e-04
3.381793e-04
4.226252e-04
3.286192e-04
1.433758e-04
3.381793e-04
4.226252e-04
2.151570e-03
5.220644e-04
6.804908e-04
2.633283e-04
2.151570e-03
5.220644e-04
6.804908e-04
2.633283e-04
-1.635376e-04
1.476079e-04
-1.635376e-04
1.476079e-04
-1.517464e-04
-1.517464e-04
9.829392e-04
3.998326e-04
9.829392e-04
3.998326e-04
2.994950e-03
4.722940e-03
2.994950e-03
4.722940e-03
2.137446e-03
2.137446e-03
-2.037972e-03
-2.037972e-03
7.755024e-04
7.755024e-04
1.105231e-04
-9.914283e-05
1.386779e-04
1.105231e-04
-9.914283e-05
1.386779e-04
2.382054e-04
1.750639e-04
1.927178e-04
4.424728e-04
2.382054e-04
1.750639e-04
1.927178e-04
4.424728e-04
5.755200e-04
5.755200e-04
5.804134e-04
3.886827e-04
5.804134e-04
3.886827e-04
3.954273e-04
3.954273e-04
2.496044e-04
2.496044e-04
2.868789e-04
2.868789e-04
7.388233e-04
7.388233e-04
1.369293e-03
1.369293e-03
1.931622e-03
1.931622e-03
1.058012e-03
1.058012e-03
1.701491e-03
1.701491e-03
5.672015e-04
6.825851e-04
5.672015e-04
6.825851e-04
6.659375e-05
6.659375e-05
-1.012253e-04
-1.012253e-04
-2.161998e-04
-2.161998e-04
-3.112068e-04
-3.112068e-04
6.715975e-04
7.690368e-04
6.715975e-04
7.690368e-04
6.322324e-05
6.322324e-05
-3.311511e-04
-3.311511e-04
-5.632734e-04
-5.632734e-04
-6.400111e-04
-6.400111e-04
5.145787e-04
5.216485e-04
5.145787e-04
5.216485e-04
1.050198e-04
1.050198e-04
-2.803925e-04
-2.803925e-04
-2.713660e-04
-2.713660e-04
-2.090081e-04
-2.090081e-04
1.721431e-04
2.438536e-04
1.721431e-04
2.438536e-04
3.007708e-05
3.007708e-05
-1.679028e-04
-1.679028e-04
-1.439305e-04
-1.439305e-04
-6.286582e-05
-6.286582e-05
8.526153e-06
-3.827206e-04
8.526153e-06
-3.827206e-04
4.366044e-05
4.366044e-05
-6.515400e-05
-6.515400e-05
-2.409648e-04
-2.409648e-04
-3.440272e-04
-3.440272e-04
-2.275867e-04
-5.623027e-04
-2.275867e-04
-5.623027e-04
-1.171639e-04
-1.171639e-04
-1.781854e-04
-1.781854e-04
-1.030411e-04
-1.030411e-04
-1.078898e-04
-1.078898e-04
-1.985491e-04
-3.999441e-04
-1.985491e-04
-3.999441e-04
-8.626200e-05
-8.626200e-05
-1.012601e-04
-1.012601e-04
1.758807e-05
1.758807e-05
1.185114e-04
1.185114e-04
1.214878e-04
-1.309648e-04
1.214878e-04
-1.309648e-04
2.020261e-04
2.020261e-04
2.055060e-04
2.055060e-04
1.426771e-04
1.426771e-04
1.425177e-04
1.425177e-04
1.292273e-04
7.615159e-05
1.292273e-04
7.615159e-05
1.148709e-04
1.148709e-04
9.148502e-05
9.148502e-05
1.972827e-04
1.972827e-04
3.901185e-04
3.901185e-04
3.314089e-05
4.354032e-05
3.314089e-05
4.354032e-05
5.222929e-05
5.222929e-05
-1.119004e-04
-1.119004e-04
-1.798807e-04
-1.798807e-04
-3.858038e-05
-3.858038e-05
1.131979e-06
8.361371e-05
1.131979e-06
8.361371e-05
6.613620e-05
6.613620e-05
-2.603654e-04
-2.603654e-04
-3.757338e-04
-3.757338e-04
-2.347242e-04
-2.347242e-04
-8.303501e-05
-9.532502e-05
-8.303501e-05
-9.532502e-05
-9.908410e-05
-9.908410e-05
-2.981251e-04
-2.981251e-04
-3.222312e-04
-3.222312e-04
-2.626458e-04
-2.626458e-04
2.655435e-04
-1.145540e-04
2.655435e-04
-1.145540e-04
2.354010e-04
2.354010e-04
1.401946e-04
1.401946e-04
-4.976172e-05
-4.976172e-05
-4.252018e-04
-4.252018e-04
6.529893e-04
2.129146e-04
6.529893e-04
2.129146e-04
7.154350e-04
7.154350e-04
4.880198e-04
4.880198e-04
9.283172e-05
9.283172e-05
-3.901965e-04
-3.901965e-04
-4.392034e-05
-2.588199e-04
-1.231990e-04
-3.557368e-05
-4.392034e-05
-2.588199e-04
-1.231990e-04
-3.557368e-05
-4.233671e-04
-1.816787e-04
-4.233671e-04
-1.816787e-04
-8.130489e-05
8.027291e-05
-8.130489e-05
8.027291e-05
-1.037620e-04
-1.037620e-04
-5.527937e-05
2.817224e-04
-5.527937e-05
2.817224e-04
-7.194801e-05
-7.194801e-05
5.452322e-04
3.679162e-04
5.452322e-04
3.679162e-04
1.802439e-04
1.802439e-04
4.030881e-04
2.931590e-04
4.030881e-04
2.931590e-04
9.081713e-05
9.081713e-05
-1.435173e-04
2.705478e-04
-1.435173e-04
2.705478e-04
-6.993604e-05
-6.993604e-05
8.568717e-04
8.165994e-04
8.568717e-04
8.165994e-04
4.163615e-04
4.163615e-04
3.525723e-05
3.525723e-05
-5.155356e-04
-5.155356e-04
-6.023970e-04
-6.023970e-04
-4.618968e-04
-4.618968e-04
6.361072e-04
1.012971e-03
6.361072e-04
1.012971e-03
2.323199e-04
2.323199e-04
1.311132e-04
1.311132e-04
-2.342098e-04
-2.342098e-04
-6.106966e-04
-6.106966e-04
-4.317571e-04
-4.317571e-04
-2.217503e-04
-2.217503e-04
-2.683808e-04
-2.683808e-04
3.069726e-05
3.069726e-05
1.947777e-04
1.947777e-04
-1.499771e-05
-1.499771e-05
-1.304445e-04
-1.304445e-04
4.754982e-04
4.754982e-04
5.071697e-04
5.071697e-04
2.302974e-04
3.267462e-04
3.731697e-04
3.131618e-04
2.302974e-04
3.267462e-04
3.731697e-04
3.131618e-04
3.050118e-04
4.624585e-04
3.851474e-04
2.300533e-04
3.050118e-04
4.624585e-04
3.851474e-04
2.300533e-04
-2.221201e-04
4.256850e-05
3.150475e-04
-1.989926e-04
-2.221201e-04
4.256850e-05
3.150475e-04
-1.989926e-04
-4.187322e-04
1.718568e-05
-5.484383e-06
-4.187322e-04
1.718568e-05
-5.484383e-06
1.295097e-04
1.957190e-04
1.295097e-04
1.957190e-04
-1.896359e-04
-2.432173e-04
-1.987430e-04
-2.445979e-04
-1.896359e-04
-2.432173e-04
-1.987430e-04
-2.445979e-04
-4.536048e-06
1.266928e-04
-4.536048e-06
1.266928e-04
3.024651e-04
3.246872e-04
3.024651e-04
3.246872e-04
1.584210e-04
3.354199e-04
3.399617e-04
1.584210e-04
3.354199e-04
3.399617e-04
1.188095e-04
1.188095e-04
2.854294e-05
-1.059073e-05
2.854294e-05
-1.059073e-05
-8.934532e-04
-9.032698e-04
-8.934532e-04
-9.032698e-04
-2.796848e-04
-2.796848e-04
-3.966145e-04
-3.966145e-04
-4.420852e-04
-8.277803e-04
-3.034566e-04
-4.420852e-04
-8.277803e-04
-3.034566e-04
-3.876507e-04
-4.221653e-04
-1.648026e-04
-7.944834e-04
-3.876507e-04
-4.221653e-04
-1.648026e-04
-7.944834e-04
-6.894794e-04
-2.099611e-04
-6.894794e-04
-2.099611e-04
-9.371362e-04
-9.371362e-04
-1.938189e-04
-2.044224e-04
-3.298512e-04
-2.210161e-04
-1.938189e-04
-2.044224e-04
-3.298512e-04
-2.210161e-04
-7.035006e-04
-7.035006e-04
-5.377258e-05
-5.377258e-05
1.967942e-04
1.967942e-04
4.780739e-04
4.780739e-04
2.481522e-04
2.481522e-04
4.741779e-04
4.741779e-04
7.659294e-05
2.192995e-04
7.659294e-05
2.192995e-04
2.284078e-04
1.604864e-04
2.284078e-04
1.604864e-04
-2.327261e-05
7.838823e-05
-2.327261e-05
7.838823e-05
-3.409396e-04
-2.424512e-04
-3.409396e-04
-2.424512e-04
-5.452553e-05
-2.381857e-04
-5.452553e-05
-2.381857e-04
-2.245868e-05
-1.750795e-04
-2.245868e-05
-1.750795e-04
2.072985e-05
-1.007868e-04
2.072985e-05
-1.007868e-04
2.122774e-04
1.054587e-04
2.122774e-04
1.054587e-04
2.513551e-04
2.580590e-04
2.513551e-04
2.580590e-04
8.565086e-05
3.042510e-04
8.565086e-05
3.042510e-04
-3.505544e-05
2.031356e-04
-3.505544e-05
2.031356e-04
-2.158912e-06
8.884835e-05
-2.158912e-06
8.884835e-05
-2.523589e-05
-1.742311e-04
-2.523589e-05
-1.742311e-04
-1.599554e-05
-3.525755e-04
-1.599554e-05
-3.525755e-04
3.376851e-04
3.376851e-04
1.301052e-04
1.301052e-04
9.942963e-05
9.942963e-05
-1.811072e-04
-1.811072e-04
-3.188026e-04
-3.188026e-04
-9.982143e-05
-9.982143e-05
-7.537167e-05
-7.537167e-05
-1.665674e-04
-1.665674e-04
-1.248497e-04
-1.248497e-04
6.340165e-05
6.340165e-05
1.814689e-04
1.814689e-04
3.458838e-04
3.458838e-04
1.527589e-04
1.527589e-04
-1.858030e-04
-1.858030e-04
2.521496e-04
2.521496e-04
1.475376e-04
1.475376e-04
4.619015e-05
4.619015e-05
-1.449430e-04
-1.449430e-04
-2.121189e-04
-2.121189e-04
5.021258e-05
5.021258e-05
8.970073e-05
8.970073e-05
-1.270940e-04
-1.270940e-04
-3.522206e-04
-3.522206e-04
-1.516039e-04
-1.516039e-04
2.255124e-04
2.255124e-04
5.316235e-04
5.316235e-04
6.019885e-04
6.019885e-04
4.832603e-04
4.832603e-04
2.427368e-04
2.427368e-04
2.633678e-04
2.633678e-04
6.862310e-05
6.862310e-05
3.090816e-06
3.090816e-06
-4.095042e-05
-4.095042e-05
-1.103283e-04
-1.103283e-04
1.703947e-05
1.703947e-05
-1.168169e-04
-1.168169e-04
-2.741509e-04
-2.741509e-04
-4.442369e-05
-4.442369e-05
2.039669e-04
2.039669e-04
4.253062e-04
4.253062e-04
4.603769e-04
4.603769e-04
3.674280e-04
3.674280e-04
1.822281e-04
1.822281e-04
3.136187e-04
3.136187e-04
2.211069e-05
2.211069e-05
1.439858e-04
1.439858e-04
8.286499e-05
8.286499e-05
-1.822768e-04
-1.822768e-04
7.449920e-05
7.449920e-05
-2.201758e-04
-2.201758e-04
-1.959893e-04
-1.959893e-04
-3.070181e-05
-3.070181e-05
-1.149084e-05
-1.149084e-05
2.461709e-04
2.461709e-04
3.213725e-05
3.213725e-05
-2.361986e-04
-2.361986e-04
1.500010e-05
1.066373e-04
1.500010e-05
1.066373e-04
-2.465519e-05
-2.465519e-05
-5.605270e-05
-5.605270e-05
5.452315e-05
5.452315e-05
-6.678931e-06
-6.678931e-06
1.677958e-05
1.677958e-05
1.923658e-04
1.923658e-04
3.023241e-04
3.023241e-04
-5.155615e-06
9.529310e-05
-5.155615e-06
9.529310e-05
-4.400226e-05
-4.400226e-05
1.654525e-06
1.654525e-06
-2.320706e-06
-2.320706e-06
-1.242405e-04
-1.242405e-04
-1.035739e-04
-1.035739e-04
5.660903e-05
5.660903e-05
1.514949e-04
1.514949e-04
-1.172249e-04
-1.321385e-04
-1.172249e-04
-1.321385e-04
2.534602e-05
2.534602e-05
5.293149e-05
5.293149e-05
7.788798e-05
7.788798e-05
1.951440e-05
1.951440e-05
-1.688176e-04
-1.688176e-04
-7.198974e-05
-7.198974e-05
7.349473e-05
7.349473e-05
-1.361844e-04
-1.708238e-05
-1.361844e-04
-1.708238e-05
-1.274163e-04
-1.274163e-04
-7.512083e-05
-7.512083e-05
7.551822e-05
7.551822e-05
1.988966e-05
1.988966e-05
-6.196197e-05
-6.196197e-05
5.587924e-05
5.587924e-05
1.028874e-04
1.028874e-04
-9.292509e-05
7.668448e-05
-9.292509e-05
7.668448e-05
-1.199303e-04
-1.199303e-04
-1.344296e-04
-1.344296e-04
-2.272968e-05
-2.272968e-05
-1.802162e-05
-1.802162e-05
-1.153098e-04
-1.153098e-04
5.248474e-05
5.248474e-05
1.402602e-04
1.402602e-04
-1.801811e-04
-1.939715e-04
-1.801811e-04
-1.939715e-04
-7.330844e-05
-7.330844e-05
-4.674381e-05
-4.674381e-05
5.255887e-05
5.255887e-05
5.935828e-05
5.935828e-05
1.810803e-05
1.810803e-05
8.005239e-05
8.005239e-05
1.704621e-04
1.704621e-04
1.993138e-05
1.311696e-04
6.770906e-05
-6.686600e-05
1.993138e-05
1.311696e-04
6.770906e-05
-6.686600e-05
-4.365673e-05
-1.889986e-04
-4.365673e-05
-1.889986e-04
-2.011096e-04
-3.076522e-04
-2.011096e-04
-3.076522e-04
-6.716016e-04
-5.746849e-04
-6.716016e-04
-5.746849e-04
-4.002970e-04
-5.377162e-04
-4.002970e-04
-5.377162e-04
8.333256e-04
1.084672e-04
8.333256e-04
1.084672e-04
1.194851e-03
2.098159e-04
1.194851e-03
2.098159e-04
1.857932e-04
5.793248e-05
1.857932e-04
5.793248e-05
-4.044303e-06
-4.044303e-06
-1.077821e-04
-1.077821e-04
-5.066978e-04
-5.066978e-04
-1.130740e-04
-1.130740e-04
5.186663e-04
5.186663e-04
5.469083e-04
5.469083e-04
7.047816e-05
7.047816e-05
1.028521e-04
1.028521e-04
1.809404e-04
1.809404e-04
1.201924e-04
1.201924e-04
1.094036e-04
1.094036e-04
1.829593e-04
1.829593e-04
-4.247210e-05
-4.247210e-05
-2.555664e-05
-2.555664e-05
-4.451377e-05
-4.451377e-05
-1.781218e-04
-1.781218e-04
7.300424e-05
7.300424e-05
7.122354e-06
7.122354e-06
-7.350560e-05
-7.350560e-05
2.197521e-04
2.197521e-04
9.925675e-05
9.925675e-05
-7.436205e-05
-7.436205e-05
1.126511e-04
1.126511e-04
-1.224280e-05
-1.224280e-05
-9.725028e-05
-9.725028e-05
-2.552312e-04
-1.585084e-04
-2.552312e-04
-1.585084e-04
-4.437034e-04
-2.114412e-04
-4.437034e-04
-2.114412e-04
-3.294186e-04
-1.055624e-05
-3.294186e-04
-1.055624e-05
-7.892803e-05
1.877987e-04
-7.892803e-05
1.877987e-04
-1.749991e-04
-1.765135e-05
-1.749991e-04
-1.765135e-05
-8.721018e-05
-8.721018e-05
7.580835e-05
7.580835e-05
2.168607e-04
2.168607e-04
1.585525e-04
1.585525e-04
-3.079182e-05
-3.079182e-05
5.047695e-05
5.047695e-05
1.576633e-04
1.576633e-04
1.378406e-04
1.378406e-04
3.531133e-05
3.531133e-05
-4.699613e-05
-4.699613e-05
-1.380963e-05
-1.380963e-05
9.508626e-05
9.508626e-05
3.110375e-05
3.110375e-05
-4.594730e-05
-4.594730e-05
8.436593e-06
8.436593e-06
-1.255615e-04
-1.255615e-04
-1.604996e-04
-1.604996e-04
-1.323459e-04
-1.323459e-04
-1.532595e-04
-1.532595e-04
-6.785825e-05
-6.785825e-05
-8.215293e-05
-8.215293e-05
-2.602550e-04
-2.602550e-04
-1.004774e-04
-1.004774e-04
2.348250e-05
2.348250e-05
3.976545e-05
3.976545e-05
-7.906025e-05
-7.906025e-05
2.597144e-05
2.597144e-05
2.113445e-04
2.113445e-04
1.286237e-04
1.286237e-04
4.698993e-05
4.698993e-05
-9.044296e-05
-9.044296e-05
1.836728e-04
1.836728e-04
3.541881e-04
3.541881e-04
1.240524e-04
1.240524e-04
9.620372e-05
9.620372e-05
1.275150e-04
1.275150e-04
-1.155703e-05
-1.155703e-05
-1.131224e-04
-1.131224e-04
1.106291e-04
1.106291e-04
1.766904e-04
1.766904e-04
-4.534846e-05
-4.534846e-05
-1.037531e-04
-1.037531e-04
-1.420134e-04
-1.420134e-04
-1.407698e-04
-1.407698e-04
-1.061065e-05
-1.061065e-05
-8.083655e-05
-8.083655e-05
-1.925188e-04
-1.925188e-04
5.730715e-05
5.730715e-05
1.419519e-04
1.419519e-04
1.431801e-05
1.431801e-05
4.145204e-05
4.145204e-05
-3.488958e-04
-3.488958e-04
-3.524511e-04
-3.524511e-04
3.360444e-04
3.360444e-04
6.577371e-04
6.577371e-04
5.814762e-05
5.814762e-05
-6.161275e-07
-6.161275e-07
-1.791128e-04
-1.791128e-04
-3.619252e-04
-3.619252e-04
3.983689e-04
3.983689e-04
4.518155e-04
4.518155e-04
-8.984650e-05
-8.984650e-05
-1.605724e-04
-1.605724e-04
-1.359739e-04
-1.359739e-04
-3.427065e-04
-3.427065e-04
2.848650e-04
2.848650e-04
-2.078541e-04
-2.078541e-04
-2.624676e-04
-2.624676e-04
-2.541726e-04
-2.541726e-04
-3.366560e-04
-3.366560e-04
-3.303151e-04
-3.303151e-04
3.259522e-04
3.259522e-04
-1.147102e-04
-1.147102e-04
-2.580138e-04
-2.580138e-04
-1.801710e-04
-1.801710e-04
-1.312386e-04
-1.312386e-04
-1.925810e-04
-1.925810e-04
4.119038e-04
4.119038e-04
1.150029e-05
1.150029e-05
-1.070491e-04
-1.070491e-04
-2.629559e-05
-2.629559e-05
2.119282e-04
2.119282e-04
5.825090e-05
5.825090e-05
1.711948e-04
1.711948e-04
-1.520356e-04
-1.520356e-04
-1.492180e-04
-1.492180e-04
1.578039e-05
1.578039e-05
2.747979e-04
2.747979e-04
1.813836e-04
1.813836e-04
-2.060343e-04
-2.060343e-04
-1.650475e-04
-1.650475e-04
2.300413e-04
2.300413e-04
4.657702e-04
4.657702e-04
2.805260e-04
2.805260e-04
2.184294e-04
2.184294e-04
-2.292524e-04
-2.292524e-04
1.301954e-04
1.301954e-04
1.152953e-03
1.152953e-03
1.515986e-03
1.515986e-03
8.320787e-04
8.320787e-04
3.264420e-04
3.264420e-04
1.740769e-04
1.740769e-04
1.198242e-03
1.198242e-03
2.200091e-03
2.200091e-03
2.697411e-03
2.697411e-03
1.665189e-03
1.665189e-03
4.237618e-04
4.237618e-04
7.076396e-04
7.076396e-04
2.343594e-03
2.343594e-03
3.983885e-03
3.983885e-03
4.744606e-03
4.744606e-03
2.879614e-03
2.879614e-03
1.707786e-03
1.707786e-03
2.198303e-03
2.198303e-03
3.637880e-03
3.637880e-03
5.432403e-03
5.432403e-03
-2.686825e-03
-2.686825e-03
-1.502774e-02
-1.502774e-02
-1.153016e-02
-1.153016e-02
1.131122e-03
1.131122e-03
3.710781e-04
3.710781e-04
-1.622051e-03
-1.622051e-03
-1.254587e-02
-1.254587e-02
-2.704536e-02
-2.704536e-02
-3.060041e-02
-3.060041e-02
-2.366858e-03
-2.366858e-03
-1.479074e-03
-1.479074e-03
-2.507213e-03
-2.507213e-03
-7.174058e-03
-7.174058e-03
-1.802144e-02
-1.802144e-02
-2.574969e-02
-2.574969e-02
-2.661121e-03
-2.661121e-03
1.460655e-03
1.460655e-03
1.167498e-03
1.167498e-03
-1.215660e-02
-1.215660e-02
-2.086559e-02
-2.086559e-02
-1.489776e-02
-1.489776e-02
-6.477711e-04
-6.477711e-04
5.227806e-03
5.227806e-03
4.744267e-03
4.744267e-03
-9.951557e-03
-9.951557e-03
-1.507545e-02
-1.507545e-02
-7.531231e-03
-7.531231e-03
2.843698e-03
2.843698e-03
8.095233e-03
8.095233e-03
9.891242e-03
9.891242e-03
7.223943e-03
7.223943e-03
3.049987e-03
3.049987e-03
5.964620e-03
5.964620e-03
6.583891e-03
6.583891e-03
8.740339e-03
8.740339e-03
1.009289e-02
1.009289e-02
1.063122e-02
1.063122e-02
9.068843e-03
9.068843e-03
9.011666e-03
9.011666e-03
8.063954e-03
8.063954e-03
9.727211e-03
9.727211e-03
1.104517e-02
1.104517e-02
9.777261e-03
9.777261e-03
7.638906e-03
7.638906e-03
4.486842e-03
4.486842e-03
8.223798e-03
8.223798e-03
9.743278e-03
9.743278e-03
1.065336e-02
1.065336e-02
9.280278e-03
9.280278e-03
7.313223e-03
7.313223e-03
-3.798227e-04
-3.798227e-04
-4.836491e-04
-4.836491e-04
-5.991963e-04
-5.991963e-04
-4.826735e-04
-4.826735e-04
-4.632534e-04
-4.632534e-04
-2.825097e-04
-2.825097e-04
-4.434548e-05
-4.434548e-05
7.089353e-05
7.089353e-05
1.262758e-04
1.262758e-04
1.075536e-04
1.075536e-04
1.827349e-04
1.827349e-04
1.397665e-04
1.397665e-04
-1.811435e-04
-1.811435e-04
-4.855534e-04
-4.855534e-04
-1.095651e-03
-1.095651e-03
-1.026403e-03
-1.026403e-03
7.639968e-05
7.639968e-05
-1.039896e-04
-1.039896e-04
-1.043854e-03
-1.043854e-03
-1.076245e-03
-1.076245e-03
-5.137505e-04
-5.137505e-04
-2.836499e-04
-2.836499e-04
-4.100261e-04
-4.100261e-04
-4.542856e-04
-4.542856e-04
-4.557979e-04
-4.557979e-04
-1.730278e-04
-1.730278e-04
-5.632633e-05
-5.632633e-05
-5.245910e-05
-5.245910e-05
9.804758e-06
9.804758e-06
1.285465e-04
1.285465e-04
1.788702e-04
1.788702e-04
2.046318e-04
2.046318e-04
1.916128e-04
1.916128e-04
-1.367821e-04
-1.367821e-04
-6.298563e-04
-6.298563e-04
-8.095789e-04
-8.095789e-04
-1.456498e-03
-1.456498e-03
-8.703441e-04
-8.703441e-04
4.248281e-04
4.248281e-04
-7.101226e-05
-7.101226e-05
-1.239971e-03
-1.239971e-03
-1.537871e-03
-1.537871e-03
-6.745036e-04
-6.745036e-04
-1.855202e-04
-1.855202e-04
-3.615093e-04
-3.615093e-04
-2.970735e-04
-2.970735e-04
-1.248265e-04
-1.248265e-04
-3.635229e-05
-3.635229e-05
-1.910242e-06
-1.910242e-06
1.782201e-04
1.782201e-04
2.422005e-04
2.422005e-04
1.833689e-04
1.833689e-04
1.676066e-04
1.676066e-04
1.571254e-04
1.571254e-04
3.267946e-05
3.267946e-05
-1.956840e-04
-1.956840e-04
-6.147922e-04
-6.147922e-04
-1.214052e-03
-1.214052e-03
-2.580513e-03
-2.580513e-03
-1.427162e-03
-1.427162e-03
-5.658890e-05
-5.658890e-05
4.182436e-04
4.182436e-04
-3.673099e-04
-3.673099e-04
-1.526675e-03
-1.526675e-03
9.128914e-05
9.128914e-05
7.949721e-04
7.949721e-04
-2.701471e-04
-2.701471e-04
-3.097343e-04
-3.097343e-04
-1.268518e-05
-1.268518e-05
1.428325e-04
1.428325e-04
9.174011e-05
9.174011e-05
1.595846e-04
1.595846e-04
1.237882e-04
1.237882e-04
-4.407486e-05
-4.407486e-05
-4.142019e-05
-4.142019e-05
-9.152690e-05
-9.152690e-05
-4.976322e-05
-4.976322e-05
-1.963922e-05
-1.963922e-05
-1.290250e-05
-1.290250e-05
-3.944483e-04
-3.944483e-04
-5.949725e-03
-5.949725e-03
-5.059935e-03
-5.059935e-03
-1.433857e-03
-1.433857e-03
2.041022e-03
2.041022e-03
3.741557e-03
3.741557e-03
4.200337e-05
4.200337e-05
1.383367e-03
1.383367e-03
2.366314e-03
2.366314e-03
-1.843639e-04
-1.843639e-04
-2.675783e-04
-2.675783e-04
4.754729e-05
4.754729e-05
4.748176e-05
4.748176e-05
-7.328291e-05
-7.328291e-05
-1.224419e-04
-1.224419e-04
-1.737898e-04
-1.737898e-04
-1.769301e-04
-1.769301e-04
-8.660941e-05
-8.660941e-05
9.780309e-05
9.780309e-05
1.517795e-04
1.517795e-04
1.491131e-04
1.491131e-04
1.349394e-03
1.349394e-03
-1.769275e-03
-1.769275e-03
-1.807969e-02
-1.807969e-02
-1.598045e-02
-1.598045e-02
-5.957688e-03
-5.957688e-03
-8.408022e-04
-8.408022e-04
9.123344e-03
9.123344e-03
5.824559e-03
5.824559e-03
2.099376e-03
2.099376e-03
3.014658e-03
3.014658e-03
-2.939866e-06
-1.209417e-06
-3.145279e-06
-5.861797e-06
7.380097e-07
6.388023e-06
-4.047353e-06
-2.659772e-06
-2.946158e-06
-3.966973e-06
1.649240e-06
6.612300e-06
1.415044e-07
1.165633e-06
4.224419e-07
7.743337e-07
9.037658e-06
1.518177e-05
1.405705e-05
1.136799e-05
8.445241e-06
9.131541e-06
1.396093e-05
1.787032e-05
1.249673e-05
9.355081e-06
5.877470e-06
1.940702e-06
-3.439905e-06
-5.219706e-06
1.339525e-06
9.437844e-07
-1.492836e-06
-8.223026e-06
-1.796020e-05
-2.300807e-05
1.135888e-05
4.887139e-06
1.781792e-06
-4.657078e-07
-1.625465e-05
-2.642970e-05
1.558705e-05
5.875195e-06
6.498943e-07
9.077781e-07
-2.057001e-05
-3.781912e-05
1.912016e-05
1.130694e-05
2.234199e-06
-1.481042e-06
-2.729655e-05
-5.065634e-05
2.264044e-05
1.239402e-05
9.431019e-06
1.482134e-05
-1.064057e-05
-3.420937e-05
1.585876e-05
3.622266e-06
1.068779e-05
2.966655e-05
8.047664e-06
-1.324796e-05
7.102753e-06
6.358958e-06
2.069384e-06
-2.703839e-06
1.607144e-06
7.145573e-06
2.235632e-06
2.638428e-06
-1.045038e-07
-3.634094e-06
1.319329e-06
6.656615e-06
-4.032591e-06
-3.407044e-06
-2.625876e-06
-2.797592e-06
7.976911e-07
4.720311e-06
6.914134e-06
5.599506e-06
5.354268e-06
4.382310e-06
3.500764e-06
4.660567e-06
1.464621e-05
1.287043e-05
7.874678e-06
1.497569e-06
-4.070143e-06
-6.480726e-06
6.597121e-06
3.761522e-06
-4.308621e-07
-6.593038e-06
-1.432608e-05
-1.725374e-05
5.733492e-06
1.579971e-06
-5.509611e-07
-3.870556e-06
-1.224558e-05
-1.527843e-05
5.894355e-06
4.854903e-07
-1.554882e-06
-9.631604e-07
-1.167126e-05
-1.960258e-05
9.157015e-06
3.146971e-06
6.579583e-07
3.034177e-06
-1.166837e-05
-2.522610e-05
1.009944e-05
6.672296e-06
8.758681e-06
1.402806e-05
2.159677e-06
-9.464550e-06
5.370365e-06
3.574869e-06
1.126442e-05
2.141679e-05
1.473052e-05
7.376935e-06
2.412101e-05
1.605564e-05
4.211748e-06
-1.095943e-08
4.237447e-06
8.930026e-06
1.761993e-05
1.303904e-05
3.380925e-06
-2.118198e-06
4.418635e-06
1.137736e-05
1.800538e-06
1.549933e-07
6.101998e-07
-2.221634e-08
-1.706196e-06
-6.570086e-07
-6.898988e-06
-6.253206e-06
1.460361e-06
6.324942e-06
-3.332183e-06
-1.078611e-05
5.965140e-06
4.845301e-06
4.380028e-06
3.958867e-06
-4.217452e-06
-1.131804e-05
1.718870e-05
1.054457e-05
3.465972e-06
-2.593221e-06
-1.015953e-05
-1.210111e-05
1.580440e-07
2.746131e-07
-3.255531e-07
-5.094116e-06
-5.588216e-06
-2.030488e-06
-9.539051e-06
-8.533329e-06
-6.531287e-06
-3.490323e-06
7.044842e-07
2.854649e-06
-5.369443e-06
-8.324205e-06
-3.192673e-06
7.346966e-06
9.559917e-06
9.319524e-06
-1.370518e-05
-6.952361e-06
5.895040e-06
1.505315e-05
2.170071e-05
2.528473e-05
-1.989875e-05
-6.267628e-06
8.186271e-06
1.398466e-05
2.633068e-05
3.370107e-05
1.351634e-05
6.354552e-06
-1.124288e-06
-1.176328e-06
3.411643e-06
7.734606e-06
1.071141e-05
7.940906e-06
3.664611e-07
-3.722180e-06
5.597447e-06
1.420177e-05
1.367600e-05
1.049318e-05
4.044821e-06
7.257266e-07
5.847798e-06
1.102342e-05
5.763409e-06
-3.526645e-07
1.137016e-06
1.146651e-05
4.713065e-06
-4.764112e-06
-1.295857e-05
-1.630762e-05
-9.095969e-06
5.607418e-06
-2.625646e-06
-1.500140e-05
-1.715065e-06
-6.677386e-06
-7.005978e-06
-6.483319e-06
-1.322195e-05
-1.584952e-05
9.627957e-06
5.732843e-06
2.028494e-06
-3.971001e-06
-8.322017e-06
-6.482775e-06
-1.227893e-05
-8.711645e-06
-3.552846e-06
-8.497148e-07
9.372253e-07
1.612543e-06
-2.235834e-05
-1.338249e-05
-1.638782e-06
5.815672e-06
1.350349e-05
1.650471e-05
-1.852891e-05
-8.722921e-06
2.843873e-06
1.200969e-05
2.286976e-05
2.632482e-05
-2.158660e-05
-1.247382e-05
-1.975786e-06
9.662658e-06
2.157219e-05
2.322852e-05
2.126864e-05
9.582576e-06
3.242534e-06
2.118512e-07
-5.060942e-06
-1.957033e-06
7.521831e-06
7.374047e-06
5.873551e-06
-2.889562e-06
-4.446979e-06
1.406005e-06
-1.281134e-05
-3.261784e-06
3.820534e-06
-2.186907e-06
2.381324e-06
1.048976e-05
1.084285e-05
-4.627944e-06
-1.321773e-05
3.185003e-06
1.183910e-05
1.097147e-05
3.153511e-05
1.219848e-06
-2.354998e-05
-4.077914e-06
2.372224e-06
-5.104260e-06
6.958982e-06
-6.837733e-06
-1.363621e-05
-1.077777e-05
-1.680888e-05
-1.870020e-05
-2.562093e-06
1.205115e-06
1.195955e-05
4.584418e-06
-1.192036e-05
-1.406277e-05
-1.370127e-05
4.876416e-06
2.442754e-05
1.653987e-05
4.128860e-06
5.789734e-07
-3.115811e-05
-1.145328e-05
8.175928e-06
1.214693e-05
2.040418e-05
2.461481e-05
-2.426487e-05
-1.885971e-05
-1.697720e-05
-2.870509e-06
2.161403e-05
2.846923e-05
-1.656073e-05
-2.115222e-05
-3.111470e-05
-1.477085e-05
1.123845e-05
1.553291e-05
4.660123e-05
2.464000e-05
9.873092e-06
2.300322e-06
-1.094656e-05
-9.426350e-06
2.034209e-05
1.700774e-05
1.503888e-05
7.300551e-07
-1.224100e-05
-9.537740e-06
-4.116692e-05
-1.922023e-05
6.446021e-06
4.998175e-07
-2.903065e-06
3.359809e-06
-3.410316e-06
-2.088799e-05
-2.805207e-05
-3.546199e-06
1.454711e-05
1.844814e-05
8.412196e-05
2.835975e-05
-3.001984e-05
-1.250737e-05
6.261220e-06
4.899945e-06
3.987077e-05
1.418918e-05
-6.959635e-06
-8.812292e-06
-1.680096e-05
-1.840419e-05
-2.417212e-05
-6.779034e-06
2.209473e-05
1.419801e-05
-1.013660e-05
-1.509381e-05
-1.812443e-05
1.501368e-05
4.665786e-05
3.063261e-05
1.056475e-05
5.028203e-06
-2.753229e-05
-7.777000e-06
1.416236e-05
1.980705e-05
2.896139e-05
3.465511e-05
-3.644073e-05
-3.512887e-05
-3.593840e-05
-1.288886e-05
2.593003e-05
3.957801e-05
-2.462773e-05
-3.341953e-05
-5.374634e-05
-3.406472e-05
1.058051e-05
2.400910e-05
SCALARS E33 float 1
LOOKUP_TABLE default
-4.174786e-05
1.529177e-03
4.990412e-03
4.966773e-03
-4.174786e-05
1.529177e-03
4.990412e-03
4.966773e-03
2.490611e-04
4.439425e-04
8.725704e-04
2.375896e-04
2.490611e-04
4.439425e-04
8.725704e-04
2.375896e-04
-1.089752e-04
8.825333e-05
1.524586e-04
-1.089752e-04
8.825333e-05
1.524586e-04
4.119765e-04
4.095959e-04
1.512437e-04
2.036024e-04
4.119765e-04
4.095959e-04
1.512437e-04
2.036024e-04
3.239422e-04
4.174814e-04
3.239422e-04
4.174814e-04
4.760297e-04
2.342721e-04
4.760297e-04
2.342721e-04
9.968224e-04
7.287799e-04
5.999659e-04
3.648271e-04
9.968224e-04
7.287799e-04
5.999659e-04
3.648271e-04
2.363722e-04
2.052196e-04
1.262393e-04
2.744231e-04
2.363722e-04
2.052196e-04
1.262393e-04
2.744231e-04
-9.523755e-04
2.737349e-03
5.181775e-04
-7.046830e-05
-9.523755e-04
2.737349e-03
5.181775e-04
-7.046830e-05
-3.885538e-04
3.406152e-04
-3.885538e-04
3.406152e-04
-1.388995e-03
-1.388995e-03
-2.925177e-04
5.300857e-04
-2.925177e-04
5.300857e-04
3.446519e-04
-1.891866e-03
3.446519e-04
-1.891866e-03
-6.524465e-04
-6.524465e-04
9.773902e-04
9.773902e-04
2.554480e-04
2.554480e-04
3.254347e-05
-1.687050e-04
2.598996e-05
3.254347e-05
-1.687050e-04
2.598996e-05
1.787304e-04
1.142257e-04
-7.612608e-06
2.029152e-04
1.787304e-04
1.142257e-04
-7.612608e-06
2.029152e-04
5.147690e-04
5.147690e-04
-5.636501e-05
-2.064938e-04
-5.636501e-05
-2.064938e-04
2.592235e-04
2.592235e-04
-9.070100e-05
-9.070100e-05
1.553732e-06
1.553732e-06
4.385928e-04
4.385928e-04
-7.482415e-04
-7.482415e-04
1.599756e-03
1.599756e-03
7.029754e-04
7.029754e-04
4.284529e-03
4.284529e-03
6.421143e-04
5.752448e-04
6.421143e-04
5.752448e-04
5.368388e-05
5.368388e-05
-1.711993e-04
-1.711993e-04
-2.499004e-04
-2.499004e-04
-3.588037e-04
-3.588037e-04
7.627774e-04
7.432719e-04
7.627774e-04
7.432719e-04
6.643445e-05
6.643445e-05
-3.822839e-04
-3.822839e-04
-5.882221e-04
-5.882221e-04
-6.618194e-04
-6.618194e-04
6.171604e-04
5.114999e-04
6.171604e-04
5.114999e-04
1.315699e-04
1.315699e-04
-3.104983e-04
-3.104983e-04
-2.699080e-04
-2.699080e-04
-2.166379e-04
-2.166379e-04
3.067719e-04
2.109483e-04
3.067719e-04
2.109483e-04
8.150847e-05
8.150847e-05
-2.208284e-04
-2.208284e-04
-1.362590e-04
-1.362590e-04
-6.270482e-05
-6.270482e-05
4.490227e-05
-3.491083e-04
4.490227e-05
-3.491083e-04
6.212116e-05
6.212116e-05
-7.839708e-05
-7.839708e-05
-2.431242e-04
-2.431242e-04
-3.362159e-04
-3.362159e-04
-2.770605e-04
-5.202194e-04
-2.770605e-04
-5.202194e-04
-1.071330e-04
-1.071330e-04
-1.326890e-04
-1.326890e-04
-1.252364e-04
-1.252364e-04
-1.142921e-04
-1.142921e-04
-2.432827e-04
-3.940095e-04
-2.432827e-04
-3.940095e-04
-1.245194e-04
-1.245194e-04
-1.093217e-04
-1.093217e-04
2.938757e-06
2.938757e-06
1.199583e-04
1.199583e-04
5.661370e-05
-1.174968e-04
5.661370e-05
-1.174968e-04
9.312272e-05
9.312272e-05
1.666128e-04
1.666128e-04
1.485606e-04
1.485606e-04
1.404866e-04
1.404866e-04
1.297939e-04
7.930100e-05
1.297939e-04
7.930100e-05
9.378405e-05
9.378405e-05
8.618875e-05
8.618875e-05
2.075813e-04
2.075813e-04
3.780218e-04
3.780218e-04
1.397194e-04
2.602012e-05
1.397194e-04
2.602012e-05
1.442489e-04
1.442489e-04
-1.174255e-04
-1.174255e-04
-1.759210e-04
-1.759210e-04
-3.939665e-05
-3.939665e-05
5.882724e-05
1.028534e-04
5.882724e-05
1.028534e-04
1.053448e-04
1.053448e-04
-2.734042e-04
-2.734042e-04
-3.743766e-04
-3.743766e-04
-2.340481e-04
-2.340481e-04
-1.079364e-04
-6.593147e-05
-1.079364e-04
-6.593147e-05
-1.453897e-04
-1.453897e-04
-3.220352e-04
-3.220352e-04
-3.182061e-04
-3.182061e-04
-2.578528e-04
-2.578528e-04
2.521366e-04
-1.325931e-04
2.521366e-04
-1.325931e-04
2.114797e-04
2.114797e-04
1.269144e-04
1.269144e-04
-5.185188e-05
-5.185188e-05
-4.276501e-04
-4.276501e-04
6.663616e-04
1.754647e-04
6.663616e-04
1.754647e-04
7.325309e-04
7.325309e-04
4.996231e-04
4.996231e-04
8.888282e-05
8.888282e-05
-4.028483e-04
-4.028483e-04
5.180500e-05
-1.717296e-04
-1.580997e-04
-2.353760e-04
5.180500e-05
-1.717296e-04
-1.580997e-04
-2.353760e-04
-3.892171e-04
-1.650975e-04
-3.892171e-04
-1.650975e-04
-1.791499e-04
-1.429938e-04
-1.791499e-04
-1.429938e-04
-1.161740e-04
-1.161740e-04
-3.022156e-05
2.835014e-04
-3.022156e-05
2.835014e-04
-4.005649e-05
-4.005649e-05
5.311182e-04
1.548262e-04
5.311182e-04
1.548262e-04
2.009754e-04
2.009754e-04
3.733586e-04
-1.001323e-04
3.733586e-04
-1.001323e-04
6.459616e-05
6.459616e-05
-7.260285e-05
7.353871e-06
-7.260285e-05
7.353871e-06
-8.845369e-05
-8.845369e-05
7.115322e-04
7.183219e-04
7.115322e-04
7.183219e-04
2.832800e-04
2.832800e-04
-1.021741e-04
-1.021741e-04
-5.421591e-04
-5.421591e-04
-5.962016e-04
-5.962016e-04
-4.507413e-04
-4.507413e-04
1.378967e-03
1.477951e-03
1.378967e-03
1.477951e-03
8.724346e-04
8.724346e-04
3.613429e-04
3.613429e-04
-2.296024e-04
-2.296024e-04
-6.556516e-04
-6.556516e-04
-3.620589e-04
-3.620589e-04
-1.513856e-04
-1.513856e-04
-6.468330e-04
-6.468330e-04
-2.121184e-04
-2.121184e-04
5.667704e-04
5.667704e-04
8.818818e-04
8.818818e-04
8.470761e-04
8.470761e-04
7.602900e-04
7.602900e-04
8.657441e-05
8.657441e-05
7.542270e-05
6.756721e-05
4.140504e-04
3.494300e-04
7.542270e-05
6.756721e-05
4.140504e-04
3.494300e-04
1.141222e-04
3.754355e-04
2.851272e-04
1.505307e-04
1.141222e-04
3.754355e-04
2.851272e-04
1.505307e-04
-1.884271e-04
1.009367e-04
4.717000e-05
-3.844700e-04
-1.884271e-04
1.009367e-04
4.717000e-05
-3.844700e-04
-2.855187e-04
1.744385e-04
-1.097403e-04
-2.855187e-04
1.744385e-04
-1.097403e-04
6.283020e-05
4.881746e-04
6.283020e-05
4.881746e-04
6.023287e-04
6.903834e-04
4.971868e-04
1.254410e-04
6.023287e-04
6.903834e-04
4.971868e-04
1.254410e-04
-7.913425e-05
7.608060e-06
-7.913425e-05
7.608060e-06
2.486449e-04
1.350489e-04
2.486449e-04
1.350489e-04
1.066006e-04
3.614460e-04
3.016651e-04
1.066006e-04
3.614460e-04
3.016651e-04
1.196528e-04
1.196528e-04
7.270750e-05
6.858214e-05
7.270750e-05
6.858214e-05
3.006219e-04
3.412953e-04
3.006219e-04
3.412953e-04
5.275068e-06
5.275068e-06
-4.805141e-04
-4.805141e-04
-3.944724e-04
-6.635055e-04
-9.973105e-04
-3.944724e-04
-6.635055e-04
-9.973105e-04
1.040501e-04
5.354208e-04
6.322622e-04
-1.511098e-05
1.040501e-04
5.354208e-04
6.322622e-04
-1.511098e-05
6.323632e-05
6.584306e-04
6.323632e-05
6.584306e-04
-4.630418e-04
-4.630418e-04
6.879653e-04
7.688386e-04
8.260050e-05
-1.327800e-04
6.879653e-04
7.688386e-04
8.260050e-05
-1.327800e-04
6.654940e-04
6.654940e-04
4.474619e-06
4.474619e-06
2.611325e-04
2.611325e-04
4.584647e-04
4.584647e-04
2.814877e-04
2.814877e-04
5.508048e-04
5.508048e-04
-3.441015e-06
2.058403e-04
-3.441015e-06
2.058403e-04
1.250239e-04
1.648003e-04
1.250239e-04
1.648003e-04
-5.428837e-05
1.022525e-04
-5.428837e-05
1.022525e-04
-2.358731e-04
-1.786331e-04
-2.358731e-04
-1.786331e-04
4.810182e-06
-2.196325e-04
4.810182e-06
-2.196325e-04
-6.335517e-05
-1.851693e-04
-6.335517e-05
-1.851693e-04
1.773625e-05
-1.407321e-04
1.773625e-05
-1.407321e-04
2.163474e-04
1.364725e-05
2.163474e-04
1.364725e-05
2.284040e-04
2.878874e-04
2.284040e-04
2.878874e-04
4.540591e-05
3.598649e-04
4.540591e-05
3.598649e-04
-7.580676e-05
1.442485e-04
-7.580676e-05
1.442485e-04
-2.723132e-05
4.924945e-05
-2.723132e-05
4.924945e-05
-2.823646e-05
-1.798743e-04
-2.823646e-05
-1.798743e-04
-9.626464e-06
-3.742177e-04
-9.626464e-06
-3.742177e-04
3.378346e-04
3.378346e-04
1.940854e-04
1.940854e-04
1.502648e-04
1.502648e-04
-1.409040e-04
-1.409040e-04
-2.582129e-04
-2.582129e-04
-1.291166e-04
-1.291166e-04
-1.721658e-04
-1.721658e-04
-2.282878e-04
-2.282878e-04
-1.026227e-04
-1.026227e-04
1.140585e-04
1.140585e-04
1.893115e-04
1.893115e-04
3.723041e-04
3.723041e-04
1.753353e-04
1.753353e-04
-2.021903e-04
-2.021903e-04
2.593953e-04
2.593953e-04
2.304545e-04
2.304545e-04
8.529787e-05
8.529787e-05
-1.670254e-04
-1.670254e-04
-1.496299e-04
-1.496299e-04
3.282643e-05
3.282643e-05
2.775771e-05
2.775771e-05
-8.504124e-05
-8.504124e-05
-3.526618e-04
-3.526618e-04
-1.494575e-04
-1.494575e-04
3.020606e-04
3.020606e-04
5.954737e-04
5.954737e-04
6.229967e-04
6.229967e-04
4.859745e-04
4.859745e-04
2.504379e-04
2.504379e-04
2.903686e-04
2.903686e-04
9.834523e-05
9.834523e-05
2.021048e-05
2.021048e-05
-1.691969e-05
-1.691969e-05
-1.031976e-04
-1.031976e-04
8.365731e-06
8.365731e-06
-1.172300e-04
-1.172300e-04
-2.682613e-04
-2.682613e-04
-3.661722e-05
-3.661722e-05
2.079909e-04
2.079909e-04
4.321675e-04
4.321675e-04
4.741411e-04
4.741411e-04
3.837404e-04
3.837404e-04
1.916328e-04
1.916328e-04
3.224107e-04
3.224107e-04
3.367605e-05
3.367605e-05
1.608565e-04
1.608565e-04
9.492783e-05
9.492783e-05
-1.730927e-04
-1.730927e-04
7.391675e-05
7.391675e-05
-2.259966e-04
-2.259966e-04
-1.800919e-04
-1.800919e-04
-2.515673e-05
-2.515673e-05
-2.653485e-05
-2.653485e-05
2.602335e-04
2.602335e-04
6.597717e-05
6.597717e-05
-2.083344e-04
-2.083344e-04
-2.628650e-05
-4.041542e-04
-2.628650e-05
-4.041542e-04
4.449489e-05
4.449489e-05
-8.581267e-05
-8.581267e-05
1.887533e-04
1.887533e-04
2.648621e-04
2.648621e-04
-1.111853e-04
-1.111853e-04
-3.011445e-04
-3.011445e-04
-1.832620e-04
-1.832620e-04
7.793294e-06
2.639583e-05
7.793294e-06
2.639583e-05
-2.690122e-05
-2.690122e-05
2.141447e-05
2.141447e-05
1.583824e-04
1.583824e-04
1.291335e-04
1.291335e-04
1.181622e-04
1.181622e-04
2.977562e-05
2.977562e-05
-5.957613e-05
-5.957613e-05
-3.254680e-05
6.177538e-05
-3.254680e-05
6.177538e-05
-7.646231e-06
-7.646231e-06
-1.717797e-04
-1.717797e-04
-2.410982e-04
-2.410982e-04
-4.699176e-05
-4.699176e-05
1.383357e-04
1.383357e-04
1.064320e-04
1.064320e-04
-6.997252e-07
-6.997252e-07
-1.087838e-04
6.373057e-05
-1.087838e-04
6.373057e-05
1.017459e-05
1.017459e-05
-2.514081e-05
-2.514081e-05
-1.054889e-04
-1.054889e-04
6.250765e-05
6.250765e-05
1.094504e-04
1.094504e-04
-2.058720e-05
-2.058720e-05
-1.070012e-04
-1.070012e-04
1.402894e-05
-4.702526e-06
1.402894e-05
-4.702526e-06
1.557289e-04
1.557289e-04
1.526140e-04
1.526140e-04
9.158689e-05
9.158689e-05
5.494015e-05
5.494015e-05
-1.511695e-04
-1.511695e-04
-2.051735e-04
-2.051735e-04
-1.786858e-04
-1.786858e-04
1.543634e-04
3.264625e-06
1.543634e-04
3.264625e-06
1.441064e-04
1.441064e-04
8.693381e-05
8.693381e-05
3.782008e-05
3.782008e-05
-2.901707e-05
-2.901707e-05
-4.903224e-06
-4.903224e-06
4.408136e-05
4.408136e-05
6.944280e-05
6.944280e-05
-2.176976e-05
6.336507e-05
6.107137e-05
1.181974e-06
-2.176976e-05
6.336507e-05
6.107137e-05
1.181974e-06
-2.608825e-05
1.007727e-04
-2.608825e-05
1.007727e-04
-8.406437e-05
1.915315e-04
-8.406437e-05
1.915315e-04
-4.903172e-04
-2.058926e-04
-4.903172e-04
-2.058926e-04
-3.352749e-04
-1.351614e-04
-3.352749e-04
-1.351614e-04
5.901130e-04
6.288421e-04
5.901130e-04
6.288421e-04
8.299646e-04
7.422039e-04
8.299646e-04
7.422039e-04
1.802820e-04
5.788430e-05
1.802820e-04
5.788430e-05
-4.838375e-05
-4.838375e-05
-1.899009e-05
-1.899009e-05
-3.179208e-04
-3.179208e-04
-1.346023e-04
-1.346023e-04
3.470272e-04
3.470272e-04
3.824025e-04
3.824025e-04
4.961743e-04
4.961743e-04
5.293522e-05
5.293522e-05
-7.056231e-05
-7.056231e-05
-1.869997e-04
-1.869997e-04
4.924893e-05
4.924893e-05
5.601151e-05
5.601151e-05
-1.646069e-04
-1.646069e-04
-7.008309e-05
-7.008309e-05
-2.634765e-06
-2.634765e-06
8.059695e-05
8.059695e-05
5.775407e-05
5.775407e-05
-7.670244e-05
-7.670244e-05
1.180367e-04
1.180367e-04
2.773873e-04
2.773873e-04
8.451717e-05
8.451717e-05
-6.703897e-06
-6.703897e-06
2.167531e-04
2.167531e-04
1.199000e-04
1.199000e-04
-3.620875e-05
-3.620875e-05
5.928361e-04
2.026863e-04
5.928361e-04
2.026863e-04
6.834535e-04
1.643548e-04
6.834535e-04
1.643548e-04
2.956992e-04
-1.663899e-04
2.956992e-04
-1.663899e-04
1.546628e-04
-9.219420e-05
1.546628e-04
-9.219420e-05
2.236209e-04
1.849812e-04
2.236209e-04
1.849812e-04
-9.488501e-06
-9.488501e-06
-7.377091e-05
-7.377091e-05
-2.630858e-04
-2.630858e-04
-1.418127e-04
-1.418127e-04
3.531879e-05
3.531879e-05
-1.251301e-04
-1.251301e-04
-2.294320e-04
-2.294320e-04
-1.980704e-04
-1.980704e-04
1.471990e-04
1.471990e-04
1.352642e-04
1.352642e-04
-1.409363e-04
-1.409363e-04
-1.852869e-04
-1.852869e-04
-4.468431e-05
-4.468431e-05
1.403857e-04
1.403857e-04
2.403307e-05
2.403307e-05
1.973783e-04
1.973783e-04
6.915424e-05
6.915424e-05
1.618698e-04
1.618698e-04
5.363906e-05
5.363906e-05
-1.137028e-04
-1.137028e-04
4.058363e-04
4.058363e-04
1.843284e-04
1.843284e-04
2.381514e-04
2.381514e-04
1.400414e-05
1.400414e-05
-5.352126e-05
-5.352126e-05
-4.033392e-05
-4.033392e-05
-1.010666e-04
-1.010666e-04
6.066888e-05
6.066888e-05
-2.644461e-04
-2.644461e-04
-1.623581e-04
-1.623581e-04
-3.836671e-04
-3.836671e-04
-3.867799e-04
-3.867799e-04
-1.342743e-04
-1.342743e-04
-3.822203e-04
-3.822203e-04
-1.300503e-04
-1.300503e-04
-2.056876e-04
-2.056876e-04
2.273295e-04
2.273295e-04
2.727876e-04
2.727876e-04
3.930454e-05
3.930454e-05
-1.424947e-04
-1.424947e-04
-4.672443e-05
-4.672443e-05
-3.595425e-05
-3.595425e-05
2.209156e-04
2.209156e-04
2.934463e-04
2.934463e-04
8.046632e-05
8.046632e-05
1.948051e-04
1.948051e-04
3.513083e-04
3.513083e-04
-2.863501e-04
-2.863501e-04
-3.441671e-04
-3.441671e-04
1.660450e-04
1.660450e-04
3.595906e-04
3.595906e-04
6.146377e-04
6.146377e-04
6.486085e-04
6.486085e-04
-6.032405e-04
-6.032405e-04
-8.055209e-04
-8.055209e-04
-3.949897e-05
-3.949897e-05
2.789693e-04
2.789693e-04
4.910649e-04
4.910649e-04
5.697894e-04
5.697894e-04
-3.196099e-04
-3.196099e-04
-3.070885e-04
-3.070885e-04
3.448898e-05
3.448898e-05
2.470694e-04
2.470694e-04
3.883316e-04
3.883316e-04
5.889693e-04
5.889693e-04
-6.613847e-05
-6.613847e-05
2.608828e-04
2.608828e-04
3.347285e-04
3.347285e-04
1.696963e-04
1.696963e-04
1.486685e-04
1.486685e-04
4.598192e-04
4.598192e-04
-2.883980e-04
-2.883980e-04
3.507553e-04
3.507553e-04
3.356914e-04
3.356914e-04
2.273338e-04
2.273338e-04
2.019060e-04
2.019060e-04
3.149444e-04
3.149444e-04
-1.993878e-04
-1.993878e-04
2.623561e-04
2.623561e-04
4.020624e-04
4.020624e-04
3.408203e-04
3.408203e-04
4.141907e-05
4.141907e-05
7.056062e-05
7.056062e-05
2.025819e-04
2.025819e-04
3.975268e-04
3.975268e-04
3.007940e-04
3.007940e-04
1.332466e-05
1.332466e-05
-4.318475e-04
-4.318475e-04
-3.108060e-04
-3.108060e-04
6.500007e-04
6.500007e-04
5.833370e-04
5.833370e-04
-2.074151e-04
-2.074151e-04
-5.930003e-04
-5.930003e-04
-5.099029e-04
-5.099029e-04
-3.480460e-04
-3.480460e-04
4.927314e-04
4.927314e-04
3.876375e-04
3.876375e-04
-7.289529e-04
-7.289529e-04
-1.407762e-03
-1.407762e-03
-8.822819e-04
-8.822819e-04
-8.184808e-04
-8.184808e-04
-1.007664e-06
-1.007664e-06
-7.495990e-04
-7.495990e-04
-1.380651e-03
-1.380651e-03
-1.920804e-03
-1.920804e-03
-1.947667e-03
-1.947667e-03
-1.687950e-03
-1.687950e-03
-3.940103e-04
-3.940103e-04
-1.728417e-03
-1.728417e-03
-2.858510e-03
-2.858510e-03
-3.539951e-03
-3.539951e-03
-3.624925e-03
-3.624925e-03
-3.263953e-03
-3.263953e-03
-1.370939e-03
-1.370939e-03
-3.496428e-03
-3.496428e-03
-6.725538e-03
-6.725538e-03
-9.673863e-05
-9.673863e-05
8.584601e-03
8.584601e-03
5.069803e-03
5.069803e-03
-6.725003e-04
-6.725003e-04
-1.889264e-03
-1.889264e-03
-5.984461e-03
-5.984461e-03
4.035301e-03
4.035301e-03
3.261488e-02
3.261488e-02
3.200984e-02
3.200984e-02
3.572513e-03
3.572513e-03
2.369952e-03
2.369952e-03
2.099025e-03
2.099025e-03
1.382514e-02
1.382514e-02
3.867801e-02
3.867801e-02
4.182271e-02
4.182271e-02
5.400721e-03
5.400721e-03
-1.402592e-03
-1.402592e-03
4.410875e-03
4.410875e-03
2.216631e-02
2.216631e-02
2.215342e-02
2.215342e-02
2.089796e-02
2.089796e-02
5.040796e-03
5.040796e-03
-3.974176e-03
-3.974176e-03
-2.116109e-03
-2.116109e-03
3.941533e-03
3.941533e-03
3.834997e-04
3.834997e-04
6.080797e-03
6.080797e-03
2.817158e-03
2.817158e-03
-2.405336e-03
-2.405336e-03
-6.160574e-03
-6.160574e-03
-9.356982e-03
-9.356982e-03
-1.047595e-02
-1.047595e-02
-2.291279e-03
-2.291279e-03
-2.071039e-03
-2.071039e-03
-4.106543e-03
-4.106543e-03
-6.156551e-03
-6.156551e-03
-6.988910e-03
-6.988910e-03
-8.776776e-03
-8.776776e-03
-5.242701e-03
-5.242701e-03
-4.006690e-03
-4.006690e-03
-4.776234e-03
-4.776234e-03
-5.836400e-03
-5.836400e-03
-5.935162e-03
-5.935162e-03
-5.030702e-03
-5.030702e-03
-1.248683e-03
-1.248683e-03
-3.900633e-03
-3.900633e-03
-4.226320e-03
-4.226320e-03
-5.295236e-03
-5.295236e-03
-4.610318e-03
-4.610318e-03
-2.523029e-03
-2.523029e-03
7.100060e-04
7.100060e-04
4.773872e-04
4.773872e-04
4.160716e-04
4.160716e-04
4.150986e-04
4.150986e-04
3.566785e-04
3.566785e-04
4.340616e-04
4.340616e-04
-1.697465e-05
-1.697465e-05
-4.412669e-04
-4.412669e-04
-2.437028e-04
-2.437028e-04
-6.026930e-05
-6.026930e-05
-1.637051e-04
-1.637051e-04
-1.638824e-04
-1.638824e-04
-3.399179e-05
-3.399179e-05
-3.023504e-04
-3.023504e-04
-2.089849e-04
-2.089849e-04
-3.259714e-04
-3.259714e-04
-1.214143e-03
-1.214143e-03
-7.927870e-04
-7.927870e-04
4.090752e-04
4.090752e-04
5.637933e-04
5.637933e-04
3.384872e-04
3.384872e-04
2.463794e-04
2.463794e-04
7.963103e-04
7.963103e-04
5.834144e-04
5.834144e-04
4.958500e-04
4.958500e-04
1.079326e-04
1.079326e-04
6.484619e-05
6.484619e-05
1.370453e-04
1.370453e-04
-2.306181e-04
-2.306181e-04
-3.656761e-04
-3.656761e-04
-3.143248e-04
-3.143248e-04
-3.745088e-04
-3.745088e-04
-2.502611e-04
-2.502611e-04
1.436457e-04
1.436457e-04
1.601676e-04
1.601676e-04
-1.999304e-04
-1.999304e-04
8.709370e-05
8.709370e-05
-1.284958e-04
-1.284958e-04
-1.272081e-03
-1.272081e-03
-9.869133e-04
-9.869133e-04
3.740062e-04
3.740062e-04
8.643856e-04
8.643856e-04
4.388228e-04
4.388228e-04
1.131774e-04
1.131774e-04
3.478973e-04
3.478973e-04
2.021793e-04
2.021793e-04
2.238887e-04
2.238887e-04
7.593616e-05
7.593616e-05
-1.151712e-05
-1.151712e-05
-2.966687e-04
-2.966687e-04
-2.584568e-04
-2.584568e-04
-1.080276e-04
-1.080276e-04
-1.764431e-04
-1.764431e-04
-1.405280e-04
-1.405280e-04
-3.953741e-05
-3.953741e-05
1.860828e-04
1.860828e-04
-2.007811e-04
-2.007811e-04
-6.554954e-04
-6.554954e-04
1.039892e-03
1.039892e-03
2.452730e-03
2.452730e-03
7.392972e-04
7.392972e-04
-1.901756e-03
-1.901756e-03
-7.047844e-04
-7.047844e-04
1.161092e-03
1.161092e-03
1.295110e-04
1.295110e-04
-3.748863e-04
-3.748863e-04
1.302206e-04
1.302206e-04
1.429260e-04
1.429260e-04
-7.526202e-05
-7.526202e-05
-2.677549e-04
-2.677549e-04
-1.283926e-04
-1.283926e-04
-2.370252e-04
-2.370252e-04
6.422926e-05
6.422926e-05
1.629283e-04
1.629283e-04
-9.666660e-05
-9.666660e-05
-2.485005e-04
-2.485005e-04
-3.255445e-04
-3.255445e-04
-4.202173e-04
-4.202173e-04
-1.245858e-03
-1.245858e-03
-2.087773e-03
-2.087773e-03
3.677268e-03
3.677268e-03
1.349148e-02
1.349148e-02
1.186754e-02
1.186754e-02
-1.053695e-03
-1.053695e-03
-3.859340e-03
-3.859340e-03
6.685547e-04
6.685547e-04
-2.534085e-04
-2.534085e-04
-1.056148e-03
-1.056148e-03
1.728951e-04
1.728951e-04
3.066539e-04
3.066539e-04
1.438136e-04
1.438136e-04
-1.154650e-04
-1.154650e-04
3.331470e-04
3.331470e-04
4.443362e-04
4.443362e-04
4.419969e-04
4.419969e-04
3.180509e-04
3.180509e-04
-7.070612e-05
-7.070612e-05
-4.640437e-04
-4.640437e-04
-1.002161e-03
-1.002161e-03
-1.170033e-03
-1.170033e-03
-2.323386e-03
-2.323386e-03
-1.429700e-03
-1.429700e-03
1.002978e-02
1.002978e-02
2.647300e-02
2.647300e-02
2.386067e-02
2.386067e-02
7.319542e-03
7.319542e-03
-4.340462e-04
-4.340462e-04
-9.259652e-05
-9.259652e-05
2.480281e-04
2.480281e-04
-1.487865e-03
-1.487865e-03
-2.565195e-05
-1.340102e-05
-5.385852e-06
-5.085861e-06
3.014752e-07
1.153063e-06
-3.474961e-05
-1.964993e-05
-9.307707e-06
-1.227535e-05
-8.414089e-06
-6.342641e-06
-4.064316e-05
-2.597460e-05
-1.414125e-05
-1.976838e-05
-1.738173e-05
-1.220314e-05
-4.568140e-05
-2.936985e-05
-8.436842e-06
-4.499014e-06
-1.280994e-05
-2.043722e-05
-6.097935e-05
-3.670438e-05
-4.282627e-06
5.814872e-06
-1.580645e-05
-3.937848e-05
-5.298403e-05
-3.366816e-05
-4.911319e-06
4.159466e-06
-1.763553e-05
-3.906034e-05
-2.691162e-05
-1.751862e-05
1.418303e-06
9.949668e-06
-1.152860e-05
-3.199431e-05
-9.260137e-06
-7.654957e-06
3.638247e-06
8.322416e-06
-1.624879e-05
-3.581614e-05
1.087181e-05
4.860117e-06
6.000760e-06
5.021420e-06
-2.196505e-05
-4.081984e-05
1.280029e-05
7.495033e-06
9.356070e-06
1.459980e-05
-6.583944e-06
-2.584513e-05
1.226834e-06
-1.619739e-06
8.072373e-06
2.366534e-05
9.677582e-06
-7.364464e-06
-1.239208e-05
-8.231896e-06
-4.134386e-06
-5.665580e-06
-8.419122e-06
-9.704141e-06
-1.817260e-05
-1.321435e-05
-9.575794e-06
-1.293222e-05
-1.520715e-05
-1.544536e-05
-2.383267e-05
-1.809373e-05
-1.418737e-05
-1.960852e-05
-2.215875e-05
-2.112040e-05
-2.353809e-05
-1.652026e-05
-5.693415e-06
-4.393185e-06
-1.454958e-05
-2.219719e-05
-3.253548e-05
-1.881929e-05
7.144958e-07
8.410645e-06
-9.564480e-06
-2.941817e-05
-3.233105e-05
-1.838035e-05
5.534272e-07
7.342047e-06
-8.312478e-06
-2.577254e-05
-1.354056e-05
-9.736757e-06
2.357157e-06
8.193153e-06
-5.545617e-06
-1.683027e-05
-6.837851e-06
-6.008465e-06
2.572369e-06
5.768624e-06
-1.094653e-05
-2.310649e-05
1.658613e-06
2.387615e-06
6.722653e-06
4.656760e-06
-1.451226e-05
-2.800936e-05
6.733068e-06
6.226498e-06
9.580434e-06
9.717283e-06
-2.445317e-06
-1.088426e-05
5.992260e-07
9.623637e-07
7.794566e-06
1.336660e-05
9.059221e-06
5.648864e-06
1.656089e-05
6.352953e-06
-2.914944e-06
-4.784076e-06
-1.340907e-05
-1.922490e-05
1.916513e-05
4.945169e-06
-6.708647e-06
-8.636682e-06
-1.926104e-05
-2.539121e-05
2.026385e-05
4.221663e-06
-9.566935e-06
-1.116889e-05
-2.403343e-05
-3.304244e-05
3.369541e-05
1.241397e-05
-4.464060e-06
-1.973698e-06
-1.221342e-05
-2.054008e-05
3.779188e-05
1.483034e-05
-5.456390e-07
9.172369e-06
9.591560e-07
-9.386511e-06
1.283928e-05
5.282566e-06
1.100914e-06
1.144457e-05
4.760320e-06
-8.892537e-06
1.202386e-05
5.248075e-06
3.006999e-06
8.291689e-06
3.521243e-06
-1.999183e-06
1.619652e-05
7.095872e-06
1.593850e-06
2.630843e-06
-3.621160e-06
-7.311529e-06
1.637057e-06
2.583617e-06
4.949537e-06
3.267830e-06
-6.488940e-06
-1.314464e-05
-6.390977e-06
8.276516e-08
7.483328e-06
3.625017e-06
1.378271e-06
3.916657e-06
-8.983454e-06
-4.796694e-07
5.237790e-06
-1.618163e-07
7.578974e-06
1.793304e-05
-5.460181e-06
-1.890187e-06
-1.246378e-07
-2.534897e-06
-9.267131e-06
-1.539355e-05
-2.800508e-06
-1.627285e-06
1.060536e-06
-1.794422e-06
-1.410451e-05
-2.204504e-05
8.870220e-06
5.493890e-06
1.300984e-06
-4.113313e-06
-1.666169e-05
-2.461234e-05
3.684530e-05
1.789000e-05
-2.159937e-06
-7.371681e-06
-7.105904e-06
-2.723012e-06
5.325186e-05
1.814705e-05
-6.964466e-06
-1.355718e-06
3.114857e-06
1.196998e-05
2.124664e-05
8.898908e-07
-9.618191e-06
5.138815e-06
5.790678e-06
1.534196e-06
5.227337e-07
-5.478950e-06
-6.673114e-06
3.576977e-06
3.546206e-06
-1.927136e-06
1.121005e-05
3.855467e-07
-5.645953e-06
-1.403455e-06
-3.690978e-06
-5.427992e-06
1.048993e-05
3.415270e-06
-1.027713e-06
-7.257144e-07
-8.720911e-06
-1.438643e-05
3.344562e-06
5.731839e-06
4.826666e-06
-8.724877e-07
-6.445609e-06
-9.612027e-06
-1.117223e-06
5.275638e-06
3.779498e-06
-4.836025e-06
-4.402441e-06
-3.242335e-06
5.427169e-06
1.668883e-05
9.374534e-06
-3.764134e-06
-3.192838e-06
-8.058826e-06
4.163238e-06
1.898446e-05
1.631752e-05
-7.545845e-07
-6.672912e-06
-1.300729e-05
-1.326547e-05
1.044283e-05
1.868437e-05
-2.494589e-06
-8.796448e-06
-9.386111e-06
-1.734948e-05
5.349000e-06
1.617972e-05
-5.806522e-06
-9.211347e-07
1.408274e-05
2.670453e-06
1.510074e-05
2.069368e-05
2.194374e-06
9.230096e-06
2.792778e-05
4.137867e-05
2.447299e-05
2.780933e-06
1.111528e-06
1.189805e-05
1.956760e-05
5.697438e-05
2.134698e-05
-1.945774e-05
-1.015034e-05
9.417398e-06
1.450041e-05
1.546982e-06
-9.187401e-06
-2.087128e-05
-1.288581e-05
2.455393e-07
4.441915e-06
-1.064831e-05
-1.067951e-05
-9.284107e-06
-7.040076e-06
-9.316554e-06
-1.241046e-05
2.668961e-05
1.980562e-05
3.382212e-06
-8.520284e-06
-1.418532e-05
-1.748729e-05
3.596877e-05
2.973842e-05
4.931269e-06
-1.496595e-05
-1.714772e-05
-1.800908e-05
5.402868e-05
5.292670e-05
1.605138e-05
-5.781328e-06
2.470156e-06
-3.219004e-06
5.385336e-05
5.789259e-05
2.694055e-05
-1.604601e-06
-1.658666e-06
-8.158858e-06
3.278499e-06
2.855407e-05
2.986640e-05
3.483330e-07
-5.400626e-06
-5.594762e-06
-3.960396e-05
3.416604e-06
3.070119e-05
3.470278e-06
4.231919e-06
1.648849e-05
-2.148746e-05
2.450225e-05
4.851340e-05
1.443851e-05
1.747130e-05
3.260043e-05
7.762069e-05
6.082387e-05
2.098190e-05
4.309946e-06
2.072481e-05
3.076648e-05
1.371205e-04
6.610292e-05
-2.285127e-05
-1.730789e-05
1.834751e-05
3.052296e-05
1.748246e-05
-5.921775e-07
-2.876945e-05
-2.091786e-05
6.274986e-06
1.551360e-05
-3.144779e-05
-2.293745e-05
-1.405826e-05
-1.038516e-05
-7.109687e-06
-7.138461e-06
3.324229e-05
2.335513e-05
2.272952e-06
-1.288032e-05
-1.441620e-05
-1.199384e-05
5.623345e-05
4.442177e-05
5.262363e-06
-2.365134e-05
-1.877346e-05
-1.232959e-05
SCALARS E12 float 1
LOOKUP_TABLE default
3.128798e-03
6.512150e-03
5.066970e-03
4.001791e-03
3.128798e-03
6.512150e-03
5.066970e-03
4.001791e-03
-1.055392e-03
-4.809951e-04
-3.267885e-03
-1.316602e-03
-1.055392e-03
-4.809951e-04
-3.267885e-03
-1.316602e-03
2.129660e-04
2.392619e-04
-1.263149e-04
2.129660e-04
2.392619e-04
-1.263149e-04
3.313952e-04
1.848706e-04
3.818912e-04
5.034908e-04
3.313952e-04
1.848706e-04
3.818912e-04
5.034908e-04
4.426677e-04
3.539574e-04
4.426677e-04
3.539574e-04
5.739689e-04
1.000715e-03
5.739689e-04
1.000715e-03
1.400269e-03
7.712404e-04
4.488762e-04
1.062210e-04
1.400269e-03
7.712404e-04
4.488762e-04
1.062210e-04
3.205940e-04
9.586713e-04
1.540122e-03
6.448197e-04
3.205940e-04
9.586713e-04
1.540122e-03
6.448197e-04
-3.690745e-04
3.135602e-03
3.628700e-03
9.801292e-05
-3.690745e-04
3.135602e-03
3.628700e-03
9.801292e-05
2.318821e-04
-1.155750e-04
2.318821e-04
-1.155750e-04
8.879194e-04
8.879194e-04
3.412906e-03
2.753489e-03
3.412906e-03
2.753489e-03
3.968782e-03
3.908996e-03
3.968782e-03
3.908996e-03
4.028594e-04
4.028594e-04
-5.179428e-03
-5.179428e-03
7.430751e-04
7.430751e-04
1.686142e-04
3.804812e-04
3.697410e-04
1.686142e-04
3.804812e-04
3.697410e-04
2.409417e-05
3.281181e-04
-7.278614e-05
-5.167964e-04
2.409417e-05
3.281181e-04
-7.278614e-05
-5.167964e-04
2.659006e-04
2.659006e-04
-1.862092e-04
-1.641541e-04
-1.862092e-04
-1.641541e-04
3.205056e-04
3.205056e-04
-5.756386e-05
-5.756386e-05
8.627940e-04
8.627940e-04
2.794722e-04
2.794722e-04
-3.321091e-04
-3.321091e-04
1.953844e-03
1.953844e-03
2.786941e-04
2.786941e-04
3.543942e-03
3.543942e-03
1.485694e-04
1.172880e-04
1.485694e-04
1.172880e-04
-1.831217e-04
-1.831217e-04
-2.141888e-04
-2.141888e-04
-9.110984e-05
-9.110984e-05
-1.490400e-04
-1.490400e-04
-1.444787e-04
-5.247196e-04
-1.444787e-04
-5.247196e-04
-5.495702e-04
-5.495702e-04
-9.164795e-04
-9.164795e-04
-5.059625e-04
-5.059625e-04
-6.890921e-05
-6.890921e-05
-4.000679e-04
-4.945871e-04
-4.000679e-04
-4.945871e-04
-5.743499e-04
-5.743499e-04
-5.729633e-04
-5.729633e-04
-1.646604e-04
-1.646604e-04
1.040466e-04
1.040466e-04
-7.671687e-04
-2.480133e-04
-7.671687e-04
-2.480133e-04
-7.657862e-04
-7.657862e-04
-4.165910e-04
-4.165910e-04
-1.209312e-04
-1.209312e-04
-1.598388e-04
-1.598388e-04
-5.076942e-04
-3.284243e-04
-5.076942e-04
-3.284243e-04
-1.373429e-04
-1.373429e-04
-3.252089e-04
-3.252089e-04
-2.461946e-04
-2.461946e-04
5.300922e-05
5.300922e-05
1.842740e-04
7.453540e-05
1.842740e-04
7.453540e-05
5.036450e-04
5.036450e-04
-2.124275e-04
-2.124275e-04
-1.762986e-04
-1.762986e-04
6.121695e-04
6.121695e-04
4.095894e-04
4.040945e-04
4.095894e-04
4.040945e-04
2.190309e-04
2.190309e-04
-3.753932e-04
-3.753932e-04
-2.401104e-04
-2.401104e-04
2.821444e-04
2.821444e-04
3.377222e-04
1.708683e-04
3.377222e-04
1.708683e-04
2.870860e-05
2.870860e-05
-1.184149e-04
-1.184149e-04
1.236484e-04
1.236484e-04
7.827449e-05
7.827449e-05
-1.686619e-04
-8.915713e-05
-1.686619e-04
-8.915713e-05
-1.313775e-04
-1.313775e-04
1.208766e-04
1.208766e-04
5.584519e-04
5.584519e-04
6.656965e-04
6.656965e-04
-6.258998e-04
-1.723360e-05
-6.258998e-04
-1.723360e-05
-4.936391e-04
-4.936391e-04
-6.882268e-05
-6.882268e-05
-5.236830e-05
-5.236830e-05
-1.179038e-04
-1.179038e-04
-1.882850e-04
-1.132381e-04
-1.882850e-04
-1.132381e-04
-3.512755e-04
-3.512755e-04
-2.059282e-04
-2.059282e-04
-4.127949e-04
-4.127949e-04
-7.711957e-04
-7.711957e-04
5.168235e-04
5.039790e-06
5.168235e-04
5.039790e-06
-1.033346e-04
-1.033346e-04
-3.407213e-04
-3.407213e-04
4.791382e-05
4.791382e-05
6.470371e-05
6.470371e-05
5.377802e-04
-2.390926e-04
5.377802e-04
-2.390926e-04
6.714803e-05
6.714803e-05
-4.544705e-04
-4.544705e-04
-1.233003e-04
-1.233003e-04
5.582699e-05
5.582699e-05
2.962007e-04
-7.960549e-04
2.962007e-04
-7.960549e-04
2.132725e-04
2.132725e-04
-4.735842e-04
-4.735842e-04
-5.093647e-04
-5.093647e-04
-4.089999e-04
-4.089999e-04
2.855461e-05
3.681827e-04
-3.016825e-05
-5.071216e-04
2.855461e-05
3.681827e-04
-3.016825e-05
-5.071216e-04
3.803066e-04
1.945377e-04
3.803066e-04
1.945377e-04
-1.751637e-04
-4.046736e-04
-1.751637e-04
-4.046736e-04
2.134062e-04
2.134062e-04
2.724622e-04
2.773386e-04
2.724622e-04
2.773386e-04
-1.766451e-05
-1.766451e-05
4.349411e-04
4.745933e-04
4.349411e-04
4.745933e-04
-1.186850e-04
-1.186850e-04
2.800955e-04
3.475721e-04
2.800955e-04
3.475721e-04
-2.410984e-04
-2.410984e-04
1.904056e-04
2.554291e-04
1.904056e-04
2.554291e-04
-5.922581e-04
-5.922581e-04
-8.967621e-04
-4.487173e-04
-8.967621e-04
-4.487173e-04
-1.904836e-04
-1.904836e-04
3.713736e-04
3.713736e-04
3.581948e-04
3.581948e-04
3.714793e-04
3.714793e-04
4.459863e-04
4.459863e-04
6.235058e-04
9.796015e-05
6.235058e-04
9.796015e-05
1.023914e-03
1.023914e-03
5.900874e-04
5.900874e-04
6.403851e-05
6.403851e-05
6.790003e-06
6.790003e-06
2.231276e-04
2.231276e-04
-2.046182e-04
-2.046182e-04
-7.029097e-04
-7.029097e-04
-3.325201e-04
-3.325201e-04
4.319988e-04
4.319988e-04
7.093341e-04
7.093341e-04
9.633632e-04
9.633632e-04
6.171026e-04
6.171026e-04
-8.581425e-05
-8.581425e-05
-5.297962e-05
3.316540e-04
3.332355e-04
7.689365e-04
-5.297962e-05
3.316540e-04
3.332355e-04
7.689365e-04
-6.790022e-04
1.386846e-04
-3.012979e-04
-4.515747e-04
-6.790022e-04
1.386846e-04
-3.012979e-04
-4.515747e-04
-1.183085e-04
-5.060929e-05
-8.093914e-05
7.239721e-04
-1.183085e-04
-5.060929e-05
-8.093914e-05
7.239721e-04
1.016712e-03
2.952426e-04
5.052980e-04
1.016712e-03
2.952426e-04
5.052980e-04
-5.850351e-04
-7.065796e-04
-5.850351e-04
-7.065796e-04
3.848289e-04
3.780098e-04
-7.211436e-04
-5.074558e-04
3.848289e-04
3.780098e-04
-7.211436e-04
-5.074558e-04
2.815973e-05
-3.915901e-04
2.815973e-05
-3.915901e-04
8.836247e-05
-4.448628e-04
8.836247e-05
-4.448628e-04
1.058748e-04
4.602371e-04
4.992286e-05
1.058748e-04
4.602371e-04
4.992286e-05
2.197269e-04
2.197269e-04
5.531994e-04
4.150121e-05
5.531994e-04
4.150121e-05
-4.177832e-04
-9.751398e-05
-4.177832e-04
-9.751398e-05
-3.730836e-04
-3.730836e-04
-1.257515e-03
-1.257515e-03
-8.291280e-04
-1.087868e-03
-2.118055e-03
-8.291280e-04
-1.087868e-03
-2.118055e-03
9.026600e-07
6.513759e-04
6.199254e-04
1.734238e-04
9.026600e-07
6.513759e-04
6.199254e-04
1.734238e-04
-2.034885e-04
7.536666e-04
-2.034885e-04
7.536666e-04
-8.961441e-04
-8.961441e-04
1.374160e-03
1.256484e-03
8.978316e-04
3.610487e-04
1.374160e-03
1.256484e-03
8.978316e-04
3.610487e-04
1.332106e-03
1.332106e-03
2.528868e-04
2.528868e-04
-9.577304e-05
-9.577304e-05
-4.964262e-05
-4.964262e-05
-2.136226e-05
-2.136226e-05
1.270618e-03
1.270618e-03
-8.149753e-05
4.304201e-04
-8.149753e-05
4.304201e-04
-7.913981e-05
2.887837e-04
-7.913981e-05
2.887837e-04
-3.712159e-04
-1.589833e-04
-3.712159e-04
-1.589833e-04
4.478494e-04
2.155680e-04
4.478494e-04
2.155680e-04
2.942430e-04
1.006553e-04
2.942430e-04
1.006553e-04
-4.116878e-04
-3.065269e-04
-4.116878e-04
-3.065269e-04
-8.064969e-05
-2.859521e-04
-8.064969e-05
-2.859521e-04
1.848134e-04
-2.409524e-04
1.848134e-04
-2.409524e-04
-5.787407e-05
1.734429e-04
-5.787407e-05
1.734429e-04
-5.420772e-04
-9.592787e-05
-5.420772e-04
-9.592787e-05
-6.676496e-04
-5.692999e-04
-6.676496e-04
-5.692999e-04
-1.384762e-04
1.167899e-05
-1.384762e-04
1.167899e-05
2.742352e-04
2.841495e-04
2.742352e-04
2.841495e-04
2.890071e-04
7.128032e-05
2.890071e-04
7.128032e-05
4.836535e-05
4.836535e-05
-3.520869e-04
-3.520869e-04
7.067862e-06
7.067862e-06
4.081372e-04
4.081372e-04
-1.511160e-04
-1.511160e-04
3.665996e-05
3.665996e-05
9.731157e-05
9.731157e-05
-5.392565e-04
-5.392565e-04
1.134467e-04
1.134467e-04
2.044129e-04
2.044129e-04
-6.607520e-04
-6.607520e-04
-6.047138e-04
-6.047138e-04
-5.342872e-06
-5.342872e-06
2.751616e-04
2.751616e-04
1.400119e-04
1.400119e-04
-6.262310e-04
-6.262310e-04
-3.369448e-04
-3.369448e-04
8.825768e-05
8.825768e-05
-4.237251e-04
-4.237251e-04
1.760013e-04
1.760013e-04
5.056761e-04
5.056761e-04
-1.019357e-04
-1.019357e-04
1.333343e-04
1.333343e-04
2.414116e-05
2.414116e-05
-3.811499e-04
-3.811499e-04
-4.723269e-05
-4.723269e-05
8.800496e-05
8.800496e-05
-1.355658e-04
-1.355658e-04
3.256167e-04
3.256167e-04
-3.081249e-04
-3.081249e-04
-9.481488e-05
-9.481488e-05
-1.158300e-05
-1.158300e-05
-2.203861e-04
-2.203861e-04
5.064969e-04
5.064969e-04
1.655805e-04
1.655805e-04
-5.794171e-04
-5.794171e-04
1.155676e-04
1.155676e-04
3.112123e-04
3.112123e-04
-1.238500e-04
-1.238500e-04
3.323220e-04
3.323220e-04
-7.166140e-06
-7.166140e-06
-8.556003e-04
-8.556003e-04
5.899972e-04
5.899972e-04
-5.175661e-05
-5.175661e-05
3.045582e-04
3.045582e-04
1.860824e-04
1.860824e-04
7.575698e-05
7.575698e-05
8.859880e-04
8.859880e-04
-7.633712e-05
-7.633712e-05
-1.203670e-03
-1.203670e-03
4.111793e-05
4.111793e-05
5.849067e-04
5.849067e-04
-4.306697e-04
-4.306697e-04
-2.447723e-04
-2.447723e-04
-2.597198e-04
-2.597198e-04
-8.890462e-04
-8.890462e-04
-1.680578e-04
-4.190691e-04
-1.680578e-04
-4.190691e-04
-4.117385e-05
-4.117385e-05
-4.147694e-04
-4.147694e-04
-2.978459e-04
-2.978459e-04
-1.091762e-06
-1.091762e-06
7.985128e-05
7.985128e-05
2.416796e-04
2.416796e-04
2.946969e-04
2.946969e-04
-1.571483e-05
4.202805e-05
-1.571483e-05
4.202805e-05
-1.157553e-04
-1.157553e-04
6.617526e-05
6.617526e-05
6.122613e-05
6.122613e-05
-3.361918e-05
-3.361918e-05
-3.142445e-05
-3.142445e-05
-4.959604e-05
-4.959604e-05
-3.419091e-06
-3.419091e-06
-2.227285e-04
-2.193673e-04
-2.227285e-04
-2.193673e-04
-1.416981e-04
-1.416981e-04
-1.196532e-04
-1.196532e-04
-1.810074e-04
-1.810074e-04
-3.109816e-05
-3.109816e-05
-3.392465e-05
-3.392465e-05
4.428611e-05
4.428611e-05
3.477660e-04
3.477660e-04
-2.314978e-04
-1.481336e-04
-2.314978e-04
-1.481336e-04
-1.832259e-04
-1.832259e-04
-3.540134e-04
-3.540134e-04
-3.454240e-04
-3.454240e-04
-2.673177e-05
-2.673177e-05
-1.530786e-04
-1.530786e-04
2.282094e-04
2.282094e-04
8.778775e-04
8.778775e-04
1.067765e-04
-1.268317e-04
1.067765e-04
-1.268317e-04
-1.213806e-06
-1.213806e-06
-6.753477e-05
-6.753477e-05
1.067997e-06
1.067997e-06
4.838322e-05
4.838322e-05
-1.391523e-04
-1.391523e-04
-1.648372e-05
-1.648372e-05
2.746201e-04
2.746201e-04
1.417744e-05
-3.391831e-04
1.417744e-05
-3.391831e-04
2.881269e-04
2.881269e-04
2.246801e-04
2.246801e-04
-2.482483e-05
-2.482483e-05
2.702130e-04
2.702130e-04
2.745172e-04
2.745172e-04
-2.142096e-04
-2.142096e-04
-4.029626e-04
-4.029626e-04
1.308559e-04
-5.291762e-05
-1.032891e-05
-4.285643e-05
1.308559e-04
-5.291762e-05
-1.032891e-05
-4.285643e-05
-1.738782e-05
-1.678967e-04
-1.738782e-05
-1.678967e-04
-7.696558e-07
-5.397554e-05
-7.696558e-07
-5.397554e-05
4.874217e-04
1.451095e-04
4.874217e-04
1.451095e-04
-5.452124e-05
1.471185e-04
-5.452124e-05
1.471185e-04
4.201227e-04
2.796976e-04
4.201227e-04
2.796976e-04
1.378518e-03
3.926043e-04
1.378518e-03
3.926043e-04
-1.824012e-04
-8.298452e-05
-1.824012e-04
-8.298452e-05
-1.995161e-04
-1.995161e-04
3.491246e-04
3.491246e-04
8.380151e-04
8.380151e-04
-1.357447e-04
-1.357447e-04
-2.192651e-04
-2.192651e-04
1.218492e-05
1.218492e-05
-1.847125e-04
-1.847125e-04
4.985962e-06
4.985962e-06
6.236901e-04
6.236901e-04
3.123821e-04
3.123821e-04
2.901769e-05
2.901769e-05
5.353999e-04
5.353999e-04
1.928136e-04
1.928136e-04
-1.446350e-04
-1.446350e-04
1.063526e-04
1.063526e-04
-2.015991e-04
-2.015991e-04
-3.174546e-05
-3.174546e-05
4.146588e-04
4.146588e-04
1.727108e-05
1.727108e-05
7.627230e-05
7.627230e-05
2.133461e-04
2.133461e-04
2.107805e-04
2.107805e-04
5.023316e-05
5.023316e-05
-2.170196e-04
-2.170196e-04
8.438326e-05
8.438326e-05
-9.114158e-05
-2.665066e-05
-9.114158e-05
-2.665066e-05
-2.510774e-05
2.247494e-04
-2.510774e-05
2.247494e-04
-4.793160e-04
-2.652698e-04
-4.793160e-04
-2.652698e-04
-4.297376e-04
-8.158936e-04
-4.297376e-04
-8.158936e-04
-1.956049e-04
-5.539544e-04
-1.956049e-04
-5.539544e-04
-1.879341e-05
-1.879341e-05
1.547196e-04
1.547196e-04
-3.766867e-05
-3.766867e-05
-4.612780e-04
-4.612780e-04
-1.104579e-04
-1.104579e-04
-1.982524e-04
-1.982524e-04
1.345512e-04
1.345512e-04
-4.234615e-05
-4.234615e-05
-2.270762e-04
-2.270762e-04
2.014767e-04
2.014767e-04
1.347142e-04
1.347142e-04
6.163221e-04
6.163221e-04
1.401516e-04
1.401516e-04
-4.855275e-04
-4.855275e-04
-2.482956e-04
-2.482956e-04
-8.136546e-05
-8.136546e-05
3.538997e-04
3.538997e-04
-7.920283e-06
-7.920283e-06
-2.397040e-04
-2.397040e-04
3.157396e-04
3.157396e-04
-2.667896e-04
-2.667896e-04
-3.045557e-04
-3.045557e-04
-4.985504e-04
-4.985504e-04
1.768788e-04
1.768788e-04
8.245002e-04
8.245002e-04
3.698759e-04
3.698759e-04
2.269076e-04
2.269076e-04
-3.734482e-04
-3.734482e-04
-8.556608e-05
-8.556608e-05
1.269569e-04
1.269569e-04
7.605959e-04
7.605959e-04
8.460260e-04
8.460260e-04
-5.910390e-05
-5.910390e-05
-3.836186e-04
-3.836186e-04
-3.673836e-04
-3.673836e-04
7.902764e-05
7.902764e-05
2.386875e-04
2.386875e-04
1.074800e-04
1.074800e-04
7.782356e-05
7.782356e-05
-2.281588e-04
-2.281588e-04
-2.346748e-04
-2.346748e-04
2.091535e-04
2.091535e-04
3.894763e-04
3.894763e-04
5.254518e-04
5.254518e-04
2.482692e-04
2.482692e-04
-2.498109e-05
-2.498109e-05
-4.899872e-05
-4.899872e-05
-5.057754e-04
-5.057754e-04
-5.773294e-05
-5.773294e-05
3.602707e-04
3.602707e-04
4.051492e-05
4.051492e-05
-8.525878e-05
-8.525878e-05
-2.568327e-04
-2.568327e-04
-3.484081e-04
-3.484081e-04
-2.608256e-04
-2.608256e-04
-8.121467e-05
-8.121467e-05
-2.664740e-04
-2.664740e-04
-1.849088e-04
-1.849088e-04
-2.555510e-04
-2.555510e-04
-5.423024e-05
-5.423024e-05
-2.276381e-04
-2.276381e-04
-1.230989e-04
-1.230989e-04
-2.409990e-04
-2.409990e-04
-3.815098e-04
-3.815098e-04
-4.686703e-04
-4.686703e-04
-3.834156e-04
-3.834156e-04
-2.561843e-04
-2.561843e-04
-2.333981e-04
-2.333981e-04
-1.172362e-04
-1.172362e-04
-1.410419e-04
-1.410419e-04
-4.036623e-04
-4.036623e-04
-3.047531e-04
-3.047531e-04
-9.214277e-05
-9.214277e-05
-3.256207e-04
-3.256207e-04
-1.001272e-04
-1.001272e-04
1.532696e-04
1.532696e-04
-1.204372e-04
-1.204372e-04
-2.083945e-04
-2.083945e-04
-8.337435e-05
-8.337435e-05
3.248531e-06
3.248531e-06
-1.135642e-04
-1.135642e-04
-4.861036e-04
-4.861036e-04
-4.592548e-04
-4.592548e-04
-1.709600e-04
-1.709600e-04
-3.347446e-04
-3.347446e-04
1.136411e-04
1.136411e-04
1.432577e-04
1.432577e-04
-3.313401e-04
-3.313401e-04
-4.664269e-04
-4.664269e-04
1.835938e-05
1.835938e-05
-4.552692e-04
-4.552692e-04
-2.420635e-04
-2.420635e-04
2.081231e-05
2.081231e-05
2.639083e-04
2.639083e-04
-4.255958e-05
-4.255958e-05
4.506809e-04
4.506809e-04
-1.566190e-04
-1.566190e-04
-5.926572e-04
-5.926572e-04
-4.994913e-05
-4.994913e-05
5.804348e-04
5.804348e-04
6.182305e-05
6.182305e-05
5.911828e-04
5.911828e-04
4.169313e-04
4.169313e-04
-5.291224e-04
-5.291224e-04
-2.995833e-04
-2.995833e-04
1.336508e-04
1.336508e-04
-4.717989e-04
-4.717989e-04
2.418001e-04
2.418001e-04
3.808574e-04
3.808574e-04
-6.332951e-05
-6.332951e-05
-1.081343e-03
-1.081343e-03
-2.376620e-03
-2.376620e-03
-3.770637e-03
-3.770637e-03
6.807002e-04
6.807002e-04
-8.157958e-04
-8.157958e-04
-8.730628e-04
-8.730628e-04
-9.657060e-03
-9.657060e-03
-1.633926e-02
-1.633926e-02
-6.549251e-03
-6.549251e-03
-5.949959e-04
-5.949959e-04
-1.749362e-03
-1.749362e-03
-8.270886e-04
-8.270886e-04
8.052797e-03
8.052797e-03
-1.318329e-03
-1.318329e-03
-1.554389e-02
-1.554389e-02
-3.995169e-05
-3.995169e-05
-2.140524e-03
-2.140524e-03
4.671277e-03
4.671277e-03
7.377880e-02
7.377880e-02
6.550316e-02
6.550316e-02
-1.375711e-02
-1.375711e-02
1.386599e-03
1.386599e-03
3.709903e-04
3.709903e-04
4.962380e-03
4.962380e-03
6.503663e-02
6.503663e-02
3.409930e-02
3.409930e-02
-2.439267e-02
-2.439267e-02
1.820121e-03
1.820121e-03
3.077536e-03
3.077536e-03
3.618785e-04
3.618785e-04
-4.393523e-03
-4.393523e-03
-4.696955e-02
-4.696955e-02
-4.044850e-02
-4.044850e-02
2.105831e-03
2.105831e-03
2.388344e-03
2.388344e-03
2.903633e-05
2.903633e-05
-1.135600e-02
-1.135600e-02
-2.145945e-02
-2.145945e-02
-1.348437e-02
-1.348437e-02
1.320225e-03
1.320225e-03
1.213755e-03
1.213755e-03
3.047110e-04
3.047110e-04
1.880623e-03
1.880623e-03
5.870219e-03
5.870219e-03
3.893128e-03
3.893128e-03
1.096884e-03
1.096884e-03
3.960157e-04
3.960157e-04
4.517786e-04
4.517786e-04
3.404564e-04
3.404564e-04
-1.867265e-03
-1.867265e-03
-3.289584e-04
-3.289584e-04
5.183718e-04
5.183718e-04
1.676230e-04
1.676230e-04
5.160147e-04
5.160147e-04
-4.222121e-04
-4.222121e-04
-6.929616e-04
-6.929616e-04
1.142713e-04
1.142713e-04
-7.637131e-05
-7.637131e-05
3.056160e-04
3.056160e-04
4.153847e-04
4.153847e-04
-1.401079e-04
-1.401079e-04
-1.924500e-05
-1.924500e-05
4.965038e-04
4.965038e-04
8.614100e-04
8.614100e-04
4.523193e-04
4.523193e-04
3.003536e-04
3.003536e-04
6.760075e-04
6.760075e-04
4.089814e-04
4.089814e-04
-4.073868e-05
-4.073868e-05
-1.140100e-04
-1.140100e-04
-1.077327e-04
-1.077327e-04
-2.838113e-04
-2.838113e-04
-2.791052e-04
-2.791052e-04
7.192943e-04
7.192943e-04
1.395974e-03
1.395974e-03
5.072238e-04
5.072238e-04
-8.440140e-04
-8.440140e-04
-1.529794e-03
-1.529794e-03
-2.708624e-04
-2.708624e-04
-2.662535e-04
-2.662535e-04
1.379137e-04
1.379137e-04
4.313689e-04
4.313689e-04
3.313883e-04
3.313883e-04
1.697236e-06
1.697236e-06
-1.823557e-05
-1.823557e-05
4.306490e-04
4.306490e-04
5.718482e-04
5.718482e-04
3.890428e-04
3.890428e-04
2.531837e-04
2.531837e-04
-2.620337e-04
-2.620337e-04
-7.029830e-04
-7.029830e-04
-8.394657e-04
-8.394657e-04
-1.841710e-03
-1.841710e-03
-2.421438e-03
-2.421438e-03
-3.953912e-04
-3.953912e-04
2.244023e-03
2.244023e-03
1.830776e-03
1.830776e-03
4.900090e-04
4.900090e-04
-5.419548e-04
-5.419548e-04
-1.535819e-03
-1.535819e-03
-3.148441e-04
-3.148441e-04
-1.265543e-04
-1.265543e-04
-1.763547e-04
-1.763547e-04
-2.119987e-04
-2.119987e-04
2.074165e-04
2.074165e-04
3.599046e-04
3.599046e-04
6.095854e-05
6.095854e-05
8.451160e-05
8.451160e-05
4.646937e-04
4.646937e-04
5.967435e-04
5.967435e-04
2.260174e-04
2.260174e-04
-3.483636e-04
-3.483636e-04
-7.643373e-04
-7.643373e-04
-1.403629e-03
-1.403629e-03
-3.692442e-03
-3.692442e-03
-4.745244e-03
-4.745244e-03
1.898245e-04
1.898245e-04
4.465999e-03
4.465999e-03
2.499453e-03
2.499453e-03
4.411513e-04
4.411513e-04
2.746062e-04
2.746062e-04
1.568453e-04
1.568453e-04
4.170418e-06
4.170418e-06
-1.383771e-04
-1.383771e-04
-3.400468e-04
-3.400468e-04
-3.926228e-04
-3.926228e-04
-5.848166e-05
-5.848166e-05
5.424701e-04
5.424701e-04
4.346299e-04
4.346299e-04
2.833361e-04
2.833361e-04
4.604137e-04
4.604137e-04
4.962404e-04
4.962404e-04
4.964333e-04
4.964333e-04
1.451048e-04
1.451048e-04
-6.530954e-04
-6.530954e-04
-4.129768e-03
-4.129768e-03
-1.374850e-02
-1.374850e-02
-1.301582e-02
-1.301582e-02
8.327359e-03
8.327359e-03
1.266023e-02
1.266023e-02
2.128723e-03
2.128723e-03
6.201803e-04
6.201803e-04
8.694472e-04
8.694472e-04
1.746622e-03
1.746622e-03
1.255434e-05
1.255434e-05
-1.900797e-04
-1.900797e-04
-3.859469e-04
-3.859469e-04
-3.886881e-04
-3.886881e-04
-3.135681e-04
-3.135681e-04
1.800628e-05
1.800628e-05
6.819789e-05
6.819789e-05
1.144067e-04
1.144067e-04
-1.564458e-05
-1.564458e-05
-2.766814e-04
-2.766814e-04
-2.132660e-04
-2.132660e-04
-3.456285e-04
-3.456285e-04
-2.430892e-03
-2.430892e-03
-3.516183e-03
-3.516183e-03
-1.786125e-02
-1.786125e-02
-2.147447e-02
-2.147447e-02
9.730051e-03
9.730051e-03
1.407323e-02
1.407323e-02
-1.103213e-03
-1.103213e-03
4.953810e-04
4.953810e-04
2.242446e-03
2.242446e-03
2.653351e-03
2.653351e-03
1.273947e-05
5.089671e-06
-5.744562e-06
-9.698438e-06
-2.511897e-05
-3.977006e-05
-3.196586e-06
-7.550258e-06
-8.899808e-06
-4.757047e-06
-1.215573e-05
-2.069305e-05
-1.488961e-05
-1.513777e-05
-8.245400e-06
4.817428e-06
1.260003e-05
1.446034e-05
-2.078483e-06
-2.565534e-07
2.815788e-06
8.114702e-06
1.865396e-05
2.514471e-05
1.317461e-05
1.294446e-05
8.022199e-06
2.608325e-06
4.679233e-06
7.471908e-06
2.762337e-05
1.982046e-05
4.876827e-06
-7.964370e-06
-1.509543e-05
-1.652602e-05
2.645832e-05
1.743540e-05
1.096000e-07
-1.385799e-05
-2.472167e-05
-2.992064e-05
8.404454e-06
4.459873e-06
-3.787301e-06
-9.640039e-06
-1.540468e-05
-1.961918e-05
-7.869088e-06
-8.245968e-06
-3.271624e-06
5.899966e-07
-4.381139e-08
8.119844e-07
-1.227231e-05
-1.063458e-05
-4.956769e-06
9.359587e-07
2.733723e-06
2.678836e-06
-9.527057e-06
-7.404016e-06
-7.387512e-06
-5.238667e-06
-2.444911e-06
-3.906539e-06
1.424257e-05
6.825533e-06
-5.383372e-06
-9.593629e-06
-1.899871e-05
-2.898541e-05
7.203709e-06
2.205627e-06
-6.939846e-06
-1.054098e-05
-1.335714e-05
-1.671954e-05
-1.754197e-06
-6.520784e-06
-1.033209e-05
-5.424033e-06
6.280199e-06
1.403166e-05
-8.644038e-06
-1.033410e-05
-7.265226e-06
3.349084e-06
1.958026e-05
2.995607e-05
9.807028e-06
1.117158e-05
9.648584e-06
7.910128e-06
1.056684e-05
1.207445e-05
3.818685e-05
3.284899e-05
1.852397e-05
4.175837e-06
-7.412159e-06
-1.363919e-05
3.826387e-05
2.727248e-05
9.828013e-06
-2.794023e-06
-1.754592e-05
-2.612886e-05
1.171626e-05
7.769856e-06
2.006452e-06
-2.781737e-06
-1.212043e-05
-1.848793e-05
-2.287071e-05
-1.575048e-05
-2.034427e-06
3.781424e-06
1.974438e-06
9.474218e-07
-2.866029e-05
-2.219772e-05
-7.203624e-06
2.998271e-06
4.507915e-06
4.347184e-06
-2.152957e-05
-1.858583e-05
-1.059335e-05
-2.952423e-06
-1.155496e-06
-1.950753e-06
-2.363360e-05
-1.698924e-05
-6.157958e-06
-5.625155e-07
-8.061219e-06
-1.696843e-05
1.570389e-05
6.841643e-06
-9.087323e-06
-1.497321e-05
-1.224027e-05
-1.068817e-05
3.816488e-05
1.770507e-05
-1.673972e-05
-2.820430e-05
-7.482046e-06
1.071983e-05
9.535651e-07
-7.767427e-06
-1.658791e-05
-1.199690e-05
8.976493e-06
2.525939e-05
-6.531178e-06
-4.024014e-06
4.755104e-06
1.384090e-05
1.413373e-05
1.161272e-05
2.729152e-05
2.477248e-05
2.322949e-05
2.335120e-05
6.362599e-06
-9.771666e-06
3.554663e-05
2.865305e-05
2.065669e-05
1.450587e-05
-4.038489e-06
-1.753481e-05
9.854841e-06
1.001190e-05
1.038882e-05
5.556640e-06
-6.409594e-06
-1.332380e-05
-3.051382e-05
-1.926684e-05
8.751691e-07
9.650980e-06
3.572872e-06
-2.386013e-06
-4.691964e-05
-3.158138e-05
-3.410228e-06
9.195684e-06
5.403134e-06
1.837553e-06
-3.593110e-05
-2.459084e-05
-3.870835e-06
3.242467e-06
-1.261897e-07
-1.228410e-06
-8.791163e-05
-5.074604e-05
2.291054e-06
1.770044e-05
4.098900e-06
-9.040520e-06
-2.292745e-05
-1.889806e-05
-1.051182e-05
-6.623568e-06
-6.197225e-06
-5.302276e-06
-2.316827e-05
-2.521952e-05
-3.190054e-05
-3.670670e-05
-1.743968e-05
2.003729e-06
-3.846016e-05
-2.978188e-05
-2.325140e-05
-2.443652e-05
-8.894808e-06
5.684218e-06
2.053622e-05
6.035712e-06
-3.382672e-06
6.574027e-06
6.318101e-06
1.187598e-06
3.898135e-05
1.954000e-05
4.639783e-06
1.614439e-05
6.548806e-06
-1.001027e-05
4.034948e-05
2.936853e-05
1.061753e-05
8.976199e-07
-1.186671e-05
-2.268119e-05
2.169471e-05
9.690698e-06
-5.244923e-06
-1.484976e-05
-2.440583e-05
-2.728867e-05
-3.303815e-05
-3.067987e-05
-1.558253e-05
-4.864898e-06
-1.242730e-05
-1.796827e-05
-6.830933e-05
-4.262321e-05
-3.732321e-06
7.242001e-06
-3.604706e-06
-1.222095e-05
-5.948866e-05
-3.240858e-05
2.004006e-06
5.452571e-06
-6.375246e-06
-1.431912e-05
-7.065020e-05
-4.446694e-05
7.851153e-06
2.754257e-05
6.952559e-06
-7.194034e-06
3.913712e-05
1.484563e-05
-7.073864e-06
-5.531378e-06
-9.338257e-06
-1.231563e-05
1.203204e-06
-5.646420e-07
-9.038267e-06
-2.958188e-05
-3.193863e-05
-2.045756e-05
-1.125599e-04
-5.170565e-05
3.743963e-06
-1.686301e-05
-2.524986e-05
-1.843439e-05
2.761749e-06
-1.396630e-05
-2.470611e-05
-4.916588e-06
1.849325e-06
-5.186049e-06
4.665651e-05
1.023749e-05
-2.534416e-05
-2.556690e-06
9.732204e-06
7.099549e-08
1.057190e-04
6.417105e-05
2.732682e-06
-1.661078e-05
-1.690532e-05
-1.774683e-05
8.880123e-05
4.216216e-05
-1.239566e-05
-2.783398e-05
-3.365225e-05
-3.195095e-05
-3.162301e-05
-2.212248e-05
-9.709223e-06
-1.055450e-05
-2.022981e-05
-2.614711e-05
-4.236329e-05
-2.102094e-05
8.303527e-06
7.432792e-06
-1.107787e-05
-2.073569e-05
-4.612837e-05
-2.153093e-05
8.058302e-06
5.080386e-06
-1.167575e-05
-2.046219e-05
-2.849000e-05
-2.998167e-05
3.826465e-06
2.804805e-05
2.463338e-06
-1.204314e-05
1.379329e-04
6.920917e-05
-6.318853e-06
-1.143712e-05
-1.620406e-05
-2.265702e-05
1.136915e-04
8.262369e-05
2.466389e-05
-2.649346e-05
-4.392237e-05
-3.708590e-05
-1.310828e-04
-3.897075e-05
3.816115e-05
-7.430256e-06
-3.526368e-05
-3.248588e-05
-5.505074e-05
-5.745077e-05
-4.441164e-05
-8.511366e-06
2.875466e-06
-6.198834e-06
2.118303e-05
-1.493758e-05
-4.568001e-05
-7.015810e-06
1.882088e-05
1.137156e-05
1.517629e-04
8.980158e-05
5.997249e-06
-1.427501e-05
-7.784026e-06
-2.863834e-06
1.388947e-04
7.388689e-05
-1.324045e-06
-1.893172e-05
-2.247585e-05
-1.861548e-05
-2.032502e-05
1.836082e-06
1.429418e-05
9.499108e-07
-1.245196e-05
-2.221257e-05
3.101064e-06
1.380266e-05
2.670172e-05
1.371237e-05
-1.042217e-05
-1.936989e-05
-1.160955e-05
2.341284e-06
1.816612e-05
6.406744e-06
-1.098731e-05
-1.474800e-05
SCALARS E23 float 1
LOOKUP_TABLE default
-4.481091e-05
-2.018795e-04
-1.651230e-03
-7.158763e-03
-4.481091e-05
-2.018795e-04
-1.651230e-03
-7.158763e-03
2.773659e-04
-2.278326e-04
-5.067101e-04
-2.776663e-05
2.773659e-04
-2.278326e-04
-5.067101e-04
-2.776663e-05
-1.014002e-04
-4.591762e-04
-1.215200e-04
-1.014002e-04
-4.591762e-04
-1.215200e-04
-1.548365e-04
7.634164e-05
-2.930636e-04
2.982171e-05
-1.548365e-04
7.634164e-05
-2.930636e-04
2.982171e-05
-7.518793e-04
-1.461211e-04
-7.518793e-04
-1.461211e-04
-5.093227e-04
1.375841e-04
-5.093227e-04
1.375841e-04
1.187304e-05
-7.801464e-05
1.404345e-04
-6.222121e-05
1.187304e-05
-7.801464e-05
1.404345e-04
-6.222121e-05
-1.063785e-04
1.636679e-04
3.726715e-04
9.216443e-05
-1.063785e-04
1.636679e-04
3.726715e-04
9.216443e-05
-5.280475e-04
2.422654e-03
2.716347e-05
-5.686388e-04
-5.280475e-04
2.422654e-03
2.716347e-05
-5.686388e-04
1.873045e-05
-7.234906e-04
1.873045e-05
-7.234906e-04
1.008765e-04
1.008765e-04
1.200055e-03
5.536241e-06
1.200055e-03
5.536241e-06
-5.131976e-03
-1.072021e-03
-5.131976e-03
-1.072021e-03
-1.525999e-03
-1.525999e-03
-5.372553e-04
-5.372553e-04
1.503183e-04
1.503183e-04
-9.046571e-05
-1.735522e-05
1.065388e-04
-9.046571e-05
-1.735522e-05
1.065388e-04
-2.676295e-05
-4.279337e-05
-2.388246e-04
-3.091049e-04
-2.676295e-05
-4.279337e-05
-2.388246e-04
-3.091049e-04
1.479265e-04
1.479265e-04
-7.666737e-04
-5.321933e-04
-7.666737e-04
-5.321933e-04
-7.367171e-04
-7.367171e-04
-1.549924e-05
-1.549924e-05
3.796305e-04
3.796305e-04
-3.166937e-04
-3.166937e-04
-1.649623e-03
-1.649623e-03
-1.780917e-03
-1.780917e-03
-3.306343e-04
-3.306343e-04
-9.205384e-03
-9.205384e-03
9.887483e-05
2.744313e-04
9.887483e-05
2.744313e-04
1.599229e-05
1.599229e-05
-4.089824e-05
-4.089824e-05
-3.541030e-05
-3.541030e-05
-1.554681e-06
-1.554681e-06
-1.150679e-04
2.085212e-04
-1.150679e-04
2.085212e-04
-1.618455e-04
-1.618455e-04
-2.826916e-05
-2.826916e-05
4.249094e-06
4.249094e-06
2.829159e-05
2.829159e-05
-1.427843e-04
3.955785e-06
-1.427843e-04
3.955785e-06
-1.278928e-04
-1.278928e-04
1.802250e-05
1.802250e-05
4.725997e-05
4.725997e-05
6.004981e-05
6.004981e-05
-5.782089e-05
9.287653e-05
-5.782089e-05
9.287653e-05
-8.239674e-05
-8.239674e-05
-1.421118e-05
-1.421118e-05
1.122282e-05
1.122282e-05
1.106240e-05
1.106240e-05
-5.238801e-05
2.181518e-04
-5.238801e-05
2.181518e-04
-7.877332e-05
-7.877332e-05
-1.455499e-05
-1.455499e-05
4.677202e-07
4.677202e-07
-2.368833e-06
-2.368833e-06
4.782270e-05
1.603567e-04
4.782270e-05
1.603567e-04
5.062285e-05
5.062285e-05
4.027107e-05
4.027107e-05
2.237780e-05
2.237780e-05
1.470246e-05
1.470246e-05
1.108607e-04
1.065457e-04
1.108607e-04
1.065457e-04
1.061529e-04
1.061529e-04
3.514545e-05
3.514545e-05
2.202996e-05
2.202996e-05
2.221177e-06
2.221177e-06
3.619405e-06
6.019984e-05
3.619405e-06
6.019984e-05
2.800237e-05
2.800237e-05
3.725381e-05
3.725381e-05
8.035494e-06
8.035494e-06
8.573850e-07
8.573850e-07
-4.518974e-05
8.027537e-06
-4.518974e-05
8.027537e-06
-2.355973e-05
-2.355973e-05
1.225267e-05
1.225267e-05
-1.467357e-05
-1.467357e-05
-9.758378e-06
-9.758378e-06
-2.135033e-05
5.460554e-06
-2.135033e-05
5.460554e-06
1.593985e-05
1.593985e-05
3.025309e-05
3.025309e-05
-1.931397e-05
-1.931397e-05
-2.040719e-05
-2.040719e-05
-2.579996e-05
-5.010911e-07
-2.579996e-05
-5.010911e-07
5.599515e-05
5.599515e-05
8.594927e-05
8.594927e-05
5.906193e-06
5.906193e-06
5.117442e-06
5.117442e-06
6.824638e-06
-4.645357e-06
6.824638e-06
-4.645357e-06
5.087058e-05
5.087058e-05
5.242799e-05
5.242799e-05
-3.740089e-06
-3.740089e-06
-2.048179e-05
-2.048179e-05
-8.741055e-06
-2.232383e-05
-8.741055e-06
-2.232383e-05
-4.521435e-06
-4.521435e-06
-2.990320e-06
-2.990320e-06
-6.791101e-06
-6.791101e-06
2.819723e-06
2.819723e-06
-4.081839e-05
-5.810623e-05
-4.081839e-05
-5.810623e-05
-4.896546e-05
-4.896546e-05
-2.791721e-05
-2.791721e-05
2.604419e-05
2.604419e-05
8.388862e-05
8.388862e-05
1.983638e-04
-3.619918e-05
-2.520101e-04
2.283360e-05
1.983638e-04
-3.619918e-05
-2.520101e-04
2.283360e-05
6.934081e-05
7.607861e-06
6.934081e-05
7.607861e-06
-1.282783e-04
1.869444e-04
-1.282783e-04
1.869444e-04
4.965793e-06
4.965793e-06
9.533573e-05
2.671233e-04
9.533573e-05
2.671233e-04
-1.612210e-05
-1.612210e-05
1.846153e-04
1.934541e-04
1.846153e-04
1.934541e-04
-2.073155e-05
-2.073155e-05
8.865039e-05
7.623691e-05
8.865039e-05
7.623691e-05
-1.619289e-05
-1.619289e-05
-1.852817e-05
-8.937198e-05
-1.852817e-05
-8.937198e-05
-3.142226e-05
-3.142226e-05
5.741732e-05
3.676198e-05
5.741732e-05
3.676198e-05
-8.696071e-05
-8.696071e-05
5.706815e-05
5.706815e-05
2.761130e-04
2.761130e-04
2.022294e-04
2.022294e-04
1.420312e-04
1.420312e-04
4.052522e-04
1.683722e-04
4.052522e-04
1.683722e-04
3.041089e-04
3.041089e-04
3.205941e-04
3.205941e-04
2.134313e-04
2.134313e-04
-1.342310e-05
-1.342310e-05
7.262428e-05
7.262428e-05
9.479092e-05
9.479092e-05
-1.924071e-04
-1.924071e-04
9.918849e-05
9.918849e-05
4.624270e-04
4.624270e-04
4.881399e-04
4.881399e-04
7.168177e-04
7.168177e-04
1.916080e-04
1.916080e-04
-7.440773e-04
-7.440773e-04
2.999462e-04
1.632211e-04
2.240195e-05
5.303671e-05
2.999462e-04
1.632211e-04
2.240195e-05
5.303671e-05
-9.807077e-06
-3.662538e-05
-3.413918e-06
3.384284e-05
-9.807077e-06
-3.662538e-05
-3.413918e-06
3.384284e-05
2.944663e-04
4.893715e-04
3.712835e-04
1.708387e-04
2.944663e-04
4.893715e-04
3.712835e-04
1.708387e-04
4.230403e-05
1.547221e-04
9.552639e-05
4.230403e-05
1.547221e-04
9.552639e-05
3.233852e-05
1.860445e-04
3.233852e-05
1.860445e-04
6.197328e-04
9.217883e-04
3.664006e-04
2.049867e-04
6.197328e-04
9.217883e-04
3.664006e-04
2.049867e-04
9.594526e-05
-1.349072e-04
9.594526e-05
-1.349072e-04
1.686423e-04
1.603553e-04
1.686423e-04
1.603553e-04
-3.773918e-05
-3.425363e-05
-2.435694e-05
-3.773918e-05
-3.425363e-05
-2.435694e-05
1.765505e-05
1.765505e-05
5.822182e-05
1.329571e-04
5.822182e-05
1.329571e-04
-4.419330e-04
-9.340799e-04
-4.419330e-04
-9.340799e-04
-2.235857e-04
-2.235857e-04
3.643595e-04
3.643595e-04
3.400453e-04
6.230525e-04
8.885518e-04
3.400453e-04
6.230525e-04
8.885518e-04
1.661912e-04
-2.391343e-04
-5.028052e-04
1.886859e-04
1.661912e-04
-2.391343e-04
-5.028052e-04
1.886859e-04
1.997778e-04
-1.373273e-04
1.997778e-04
-1.373273e-04
2.132145e-04
2.132145e-04
7.995752e-04
4.096073e-04
-1.010476e-05
-9.167048e-04
7.995752e-04
4.096073e-04
-1.010476e-05
-9.167048e-04
-3.113718e-05
-3.113718e-05
3.008585e-04
3.008585e-04
4.479610e-04
4.479610e-04
2.665274e-05
2.665274e-05
-4.272757e-05
-4.272757e-05
-1.014642e-04
-1.014642e-04
-1.271616e-04
-2.181631e-05
-1.271616e-04
-2.181631e-05
-1.487945e-04
-5.705741e-05
-1.487945e-04
-5.705741e-05
-5.551840e-05
7.866600e-06
-5.551840e-05
7.866600e-06
-4.946147e-05
6.710051e-05
-4.946147e-05
6.710051e-05
9.016926e-06
3.153821e-05
9.016926e-06
3.153821e-05
4.561655e-05
-2.147522e-05
4.561655e-05
-2.147522e-05
2.491427e-05
-4.814429e-05
2.491427e-05
-4.814429e-05
-1.158185e-06
-5.611604e-06
-1.158185e-06
-5.611604e-06
-3.153256e-05
-3.664536e-05
-3.153256e-05
-3.664536e-05
-2.912483e-06
-5.945146e-05
-2.912483e-06
-5.945146e-05
3.214890e-05
4.897355e-05
3.214890e-05
4.897355e-05
2.698210e-05
3.336222e-05
2.698210e-05
3.336222e-05
1.062103e-05
-4.360344e-06
1.062103e-05
-4.360344e-06
7.350076e-06
2.254469e-05
7.350076e-06
2.254469e-05
-2.890662e-05
-2.890662e-05
1.794102e-06
1.794102e-06
7.582914e-06
7.582914e-06
7.122720e-07
7.122720e-07
-3.753897e-05
-3.753897e-05
-7.840523e-06
-7.840523e-06
1.795405e-05
1.795405e-05
1.554857e-06
1.554857e-06
-5.040402e-05
-5.040402e-05
-5.984557e-05
-5.984557e-05
2.692969e-05
2.692969e-05
1.985110e-05
1.985110e-05
4.683570e-06
4.683570e-06
3.574039e-05
3.574039e-05
-1.057182e-05
-1.057182e-05
5.311052e-05
5.311052e-05
-1.086172e-05
-1.086172e-05
-6.337987e-05
-6.337987e-05
-5.011789e-05
-5.011789e-05
3.307545e-05
3.307545e-05
8.494069e-05
8.494069e-05
2.443390e-05
2.443390e-05
-4.739523e-06
-4.739523e-06
-9.808914e-07
-9.808914e-07
-1.604987e-05
-1.604987e-05
1.922500e-06
1.922500e-06
1.300595e-05
1.300595e-05
3.410026e-07
3.410026e-07
-1.160414e-05
-1.160414e-05
1.074537e-05
1.074537e-05
3.415463e-06
3.415463e-06
6.929807e-06
6.929807e-06
1.727672e-05
1.727672e-05
1.552161e-05
1.552161e-05
1.366692e-05
1.366692e-05
1.449089e-05
1.449089e-05
7.573948e-06
7.573948e-06
-6.747313e-06
-6.747313e-06
-3.561165e-06
-3.561165e-06
8.526619e-06
8.526619e-06
1.109177e-05
1.109177e-05
1.044884e-05
1.044884e-05
-1.506028e-05
-1.506028e-05
-2.353336e-06
-2.353336e-06
1.202191e-05
1.202191e-05
5.538404e-06
5.538404e-06
-2.998352e-06
-2.998352e-06
-4.290166e-06
-4.290166e-06
-4.023855e-06
-4.023855e-06
7.863517e-07
7.863517e-07
1.021708e-06
1.021708e-06
-1.253027e-05
-1.253027e-05
-2.010820e-05
-2.010820e-05
-1.709738e-05
-1.709738e-05
1.568402e-05
1.568402e-05
4.948018e-05
4.948018e-05
-1.570362e-07
-3.010098e-04
-1.570362e-07
-3.010098e-04
3.509289e-04
3.509289e-04
3.643593e-04
3.643593e-04
4.691719e-04
4.691719e-04
2.072128e-04
2.072128e-04
-2.643480e-04
-2.643480e-04
-2.796424e-04
-2.796424e-04
-2.443293e-04
-2.443293e-04
-1.468316e-04
-3.144819e-04
-1.468316e-04
-3.144819e-04
-6.197977e-05
-6.197977e-05
-3.611442e-04
-3.611442e-04
-1.279435e-04
-1.279435e-04
1.862514e-04
1.862514e-04
-2.298264e-04
-2.298264e-04
-3.434371e-04
-3.434371e-04
-1.381216e-04
-1.381216e-04
-3.879792e-05
-7.418557e-05
-3.879792e-05
-7.418557e-05
-7.710572e-05
-7.710572e-05
-2.804461e-04
-2.804461e-04
-1.882918e-04
-1.882918e-04
1.384372e-04
1.384372e-04
1.251297e-04
1.251297e-04
-3.244891e-06
-3.244891e-06
-3.855060e-05
-3.855060e-05
1.692139e-04
3.892236e-04
1.692139e-04
3.892236e-04
6.610658e-05
6.610658e-05
8.694334e-05
8.694334e-05
-5.450255e-05
-5.450255e-05
-1.485017e-04
-1.485017e-04
5.061696e-05
5.061696e-05
-1.313267e-04
-1.313267e-04
-6.212152e-04
-6.212152e-04
1.803754e-05
4.142380e-04
1.803754e-05
4.142380e-04
-2.678616e-04
-2.678616e-04
-1.837574e-04
-1.837574e-04
-6.348323e-05
-6.348323e-05
-1.289759e-04
-1.289759e-04
-1.578134e-04
-1.578134e-04
-3.483369e-04
-3.483369e-04
-6.934721e-04
-6.934721e-04
-8.420064e-05
4.616441e-05
-8.420064e-05
4.616441e-05
-3.291203e-04
-3.291203e-04
-1.048164e-04
-1.048164e-04
2.337470e-04
2.337470e-04
8.598768e-05
8.598768e-05
-4.476027e-04
-4.476027e-04
-4.314309e-04
-4.314309e-04
-1.128407e-04
-1.128407e-04
1.777927e-04
3.030016e-05
-6.644062e-05
2.115901e-04
1.777927e-04
3.030016e-05
-6.644062e-05
2.115901e-04
-1.282171e-04
-2.288293e-05
-1.282171e-04
-2.288293e-05
-9.929721e-05
-1.947513e-04
-9.929721e-05
-1.947513e-04
-8.812512e-05
-1.619229e-04
-8.812512e-05
-1.619229e-04
-1.342886e-04
-1.869155e-04
-1.342886e-04
-1.869155e-04
-3.881809e-05
-2.524633e-04
-3.881809e-05
-2.524633e-04
8.073110e-05
-2.093148e-04
8.073110e-05
-2.093148e-04
1.899058e-05
2.966360e-05
1.899058e-05
2.966360e-05
1.844173e-05
1.844173e-05
2.014310e-06
2.014310e-06
-3.208713e-05
-3.208713e-05
-7.536159e-05
-7.536159e-05
-2.828331e-05
-2.828331e-05
1.665768e-05
1.665768e-05
-2.349586e-04
-2.349586e-04
-2.227397e-05
-2.227397e-05
5.584133e-05
5.584133e-05
1.332416e-04
1.332416e-04
3.012599e-06
3.012599e-06
1.045049e-05
1.045049e-05
4.236827e-06
4.236827e-06
3.276747e-05
3.276747e-05
-1.883546e-05
-1.883546e-05
-7.317676e-05
-7.317676e-05
2.118938e-05
2.118938e-05
3.781804e-05
3.781804e-05
3.381776e-05
3.381776e-05
2.132582e-05
2.132582e-05
4.964513e-05
4.964513e-05
-3.030889e-04
-3.030889e-04
4.388695e-05
4.388695e-05
3.538857e-05
3.538857e-05
-6.465507e-04
-6.465507e-04
6.281328e-05
3.251239e-04
6.281328e-05
3.251239e-04
1.114315e-04
-1.849727e-04
1.114315e-04
-1.849727e-04
7.020016e-05
-2.221199e-04
7.020016e-05
-2.221199e-04
-2.254204e-04
2.203501e-04
-2.254204e-04
2.203501e-04
-1.998724e-04
2.540020e-04
-1.998724e-04
2.540020e-04
1.492611e-04
1.492611e-04
-2.582826e-04
-2.582826e-04
-1.679676e-04
-1.679676e-04
4.658799e-04
4.658799e-04
3.151277e-04
3.151277e-04
4.104879e-05
4.104879e-05
4.724727e-05
4.724727e-05
1.624737e-04
1.624737e-04
1.175034e-04
1.175034e-04
4.551129e-05
4.551129e-05
-9.661977e-05
-9.661977e-05
-1.942066e-04
-1.942066e-04
-1.149265e-04
-1.149265e-04
-2.902127e-04
-2.902127e-04
-1.225609e-04
-1.225609e-04
-7.880254e-05
-7.880254e-05
-3.605549e-05
-3.605549e-05
2.389460e-04
2.389460e-04
7.814240e-05
7.814240e-05
-1.082415e-04
-1.082415e-04
1.191376e-04
1.191376e-04
2.285931e-04
2.285931e-04
4.023746e-04
4.023746e-04
1.683443e-04
1.683443e-04
-4.711561e-04
-4.711561e-04
-4.423965e-04
-4.423965e-04
-3.292583e-04
-3.292583e-04
-3.301994e-04
-3.301994e-04
-4.037197e-05
-4.037197e-05
-2.186134e-04
-2.186134e-04
-1.016800e-03
-1.016800e-03
-7.318414e-04
-7.318414e-04
-6.640243e-04
-6.640243e-04
9.532123e-06
9.532123e-06
3.706939e-04
3.706939e-04
-1.526308e-04
-1.526308e-04
-1.802909e-04
-1.802909e-04
-6.596464e-05
-6.596464e-05
1.623996e-04
1.623996e-04
2.738326e-04
2.738326e-04
6.346975e-05
6.346975e-05
-1.426782e-05
-1.426782e-05
-2.171271e-04
-2.171271e-04
-1.600605e-04
-1.600605e-04
6.692425e-06
6.692425e-06
3.470969e-04
3.470969e-04
4.293164e-04
4.293164e-04
-3.088427e-05
-3.088427e-05
-2.191885e-04
-2.191885e-04
-2.515107e-04
-2.515107e-04
-2.444196e-04
-2.444196e-04
1.631617e-04
1.631617e-04
3.488258e-04
3.488258e-04
9.978158e-05
9.978158e-05
-1.605067e-06
-1.605067e-06
1.732647e-04
1.732647e-04
-2.547447e-04
-2.547447e-04
-3.663181e-04
-3.663181e-04
-6.700759e-05
-6.700759e-05
-6.014935e-05
-6.014935e-05
1.681275e-04
1.681275e-04
3.905162e-04
3.905162e-04
8.051333e-05
8.051333e-05
-6.125357e-05
-6.125357e-05
1.668634e-04
1.668634e-04
-8.695070e-04
-8.695070e-04
-1.166798e-04
-1.166798e-04
-8.821318e-05
-8.821318e-05
9.092957e-05
9.092957e-05
3.464337e-04
3.464337e-04
3.957124e-04
3.957124e-04
-9.306731e-04
-9.306731e-04
-3.719110e-04
-3.719110e-04
-1.524434e-04
-1.524434e-04
3.816913e-04
3.816913e-04
2.220564e-04
2.220564e-04
6.933088e-05
6.933088e-05
-4.802967e-04
-4.802967e-04
-2.939717e-04
-2.939717e-04
-2.854329e-04
-2.854329e-04
5.810920e-05
5.810920e-05
-4.601245e-04
-4.601245e-04
-3.566567e-04
-3.566567e-04
-6.900737e-04
-6.900737e-04
-4.703141e-04
-4.703141e-04
-1.352229e-03
-1.352229e-03
-1.335028e-03
-1.335028e-03
-4.943274e-04
-4.943274e-04
-3.109839e-04
-3.109839e-04
-3.198869e-04
-3.198869e-04
-6.023710e-04
-6.023710e-04
-2.306731e-03
-2.306731e-03
-2.319761e-03
-2.319761e-03
-1.493036e-04
-1.493036e-04
3.995717e-04
3.995717e-04
2.169905e-04
2.169905e-04
-2.242754e-04
-2.242754e-04
-2.238389e-03
-2.238389e-03
-2.492322e-03
-2.492322e-03
-1.470689e-04
-1.470689e-04
5.978895e-04
5.978895e-04
-1.819014e-04
-1.819014e-04
-9.495844e-04
-9.495844e-04
-1.275081e-03
-1.275081e-03
-2.241646e-04
-2.241646e-04
2.980650e-03
2.980650e-03
3.890282e-03
3.890282e-03
-3.574256e-04
-3.574256e-04
-1.544110e-03
-1.544110e-03
-1.036043e-03
-1.036043e-03
4.531597e-03
4.531597e-03
1.291537e-02
1.291537e-02
1.230926e-02
1.230926e-02
-4.002121e-04
-4.002121e-04
-2.763897e-04
-2.763897e-04
2.594210e-03
2.594210e-03
2.522855e-02
2.522855e-02
4.789152e-02
4.789152e-02
3.768779e-02
3.768779e-02
1.536369e-03
1.536369e-03
2.942285e-03
2.942285e-03
4.508722e-03
4.508722e-03
5.246782e-02
5.246782e-02
1.215069e-01
1.215069e-01
1.038676e-01
1.038676e-01
3.271328e-03
3.271328e-03
4.986871e-03
4.986871e-03
7.747443e-03
7.747443e-03
1.077870e-01
1.077870e-01
2.264760e-01
2.264760e-01
1.672094e-01
1.672094e-01
-1.865018e-03
-1.865018e-03
4.850093e-03
4.850093e-03
-6.179248e-03
-6.179248e-03
7.390334e-02
7.390334e-02
1.089477e-01
1.089477e-01
-4.704372e-03
-4.704372e-03
-1.080357e-02
-1.080357e-02
-8.591619e-03
-8.591619e-03
-2.655106e-02
-2.655106e-02
-1.465455e-02
-1.465455e-02
-6.945665e-02
-6.945665e-02
-1.534335e-01
-1.534335e-01
-1.499174e-02
-1.499174e-02
-1.668841e-02
-1.668841e-02
-1.708213e-02
-1.708213e-02
-1.630185e-02
-1.630185e-02
-3.519752e-02
-3.519752e-02
-4.581029e-02
-4.581029e-02
-1.065767e-02
-1.065767e-02
-8.037712e-03
-8.037712e-03
-3.161146e-03
-3.161146e-03
-2.607479e-03
-2.607479e-03
5.407245e-04
5.407245e-04
7.160931e-03
7.160931e-03
-5.085249e-03
-5.085249e-03
-4.508463e-03
-4.508463e-03
1.501258e-03
1.501258e-03
5.697212e-03
5.697212e-03
1.980101e-03
1.980101e-03
-6.601075e-03
-6.601075e-03
-3.790164e-03
-3.790164e-03
-4.016279e-03
-4.016279e-03
2.810046e-03
2.810046e-03
7.151747e-03
7.151747e-03
4.969875e-03
4.969875e-03
-3.716138e-04
-3.716138e-04
-3.672010e-04
-3.672010e-04
-1.660738e-04
-1.660738e-04
-2.479903e-04
-2.479903e-04
-3.224658e-04
-3.224658e-04
-3.050433e-04
-3.050433e-04
-2.467178e-04
-2.467178e-04
-2.811711e-04
-2.811711e-04
-1.469068e-04
-1.469068e-04
2.402359e-04
2.402359e-04
3.397686e-05
3.397686e-05
-1.211000e-04
-1.211000e-04
-3.309325e-05
-3.309325e-05
-4.055931e-04
-4.055931e-04
-1.430050e-03
-1.430050e-03
-3.118712e-03
-3.118712e-03
-1.994377e-03
-1.994377e-03
1.150292e-03
1.150292e-03
1.417531e-03
1.417531e-03
7.585288e-04
7.585288e-04
3.705730e-04
3.705730e-04
-1.453645e-04
-1.453645e-04
-3.701764e-04
-3.701764e-04
-6.828083e-04
-6.828083e-04
-3.607924e-04
-3.607924e-04
-1.988610e-04
-1.988610e-04
-1.246691e-04
-1.246691e-04
-3.179711e-05
-3.179711e-05
-1.781843e-04
-1.781843e-04
-6.512453e-04
-6.512453e-04
-7.746967e-04
-7.746967e-04
-3.286943e-04
-3.286943e-04
7.402090e-05
7.402090e-05
2.479851e-04
2.479851e-04
5.914816e-05
5.914816e-05
-2.097541e-04
-2.097541e-04
-1.050742e-03
-1.050742e-03
-2.076356e-03
-2.076356e-03
4.203438e-04
4.203438e-04
3.089607e-03
3.089607e-03
2.553016e-03
2.553016e-03
9.958820e-04
9.958820e-04
-1.253465e-04
-1.253465e-04
-1.133794e-04
-1.133794e-04
-1.986538e-04
-1.986538e-04
-3.661975e-04
-3.661975e-04
-3.787599e-04
-3.787599e-04
-1.404434e-04
-1.404434e-04
1.896659e-04
1.896659e-04
1.995750e-05
1.995750e-05
-8.037342e-05
-8.037342e-05
-2.989375e-04
-2.989375e-04
-2.610770e-04
-2.610770e-04
3.614289e-04
3.614289e-04
6.458525e-04
6.458525e-04
4.561997e-04
4.561997e-04
-5.700897e-04
-5.700897e-04
-7.896874e-04
-7.896874e-04
1.011092e-03
1.011092e-03
8.184219e-04
8.184219e-04
1.862666e-03
1.862666e-03
3.609281e-03
3.609281e-03
2.227878e-03
2.227878e-03
6.567199e-04
6.567199e-04
-7.190462e-06
-7.190462e-06
2.113986e-04
2.113986e-04
-2.353892e-04
-2.353892e-04
1.437159e-04
1.437159e-04
-1.777793e-04
-1.777793e-04
-3.287900e-04
-3.287900e-04
1.017343e-04
1.017343e-04
8.244834e-05
8.244834e-05
-7.065212e-05
-7.065212e-05
-1.196011e-04
-1.196011e-04
9.699188e-05
9.699188e-05
6.331519e-04
6.331519e-04
8.355060e-04
8.355060e-04
5.766964e-04
5.766964e-04
-7.603878e-04
-7.603878e-04
2.941534e-04
2.941534e-04
1.008258e-02
1.008258e-02
1.280881e-02
1.280881e-02
4.098147e-03
4.098147e-03
-4.165640e-04
-4.165640e-04
-3.917684e-04
-3.917684e-04
4.409392e-04
4.409392e-04
7.114116e-04
7.114116e-04
8.554041e-04
8.554041e-04
-1.933335e-04
-1.933335e-04
2.935410e-04
2.935410e-04
9.270757e-06
9.270757e-06
-2.912330e-04
-2.912330e-04
1.038887e-04
1.038887e-04
3.677042e-04
3.677042e-04
1.825517e-04
1.825517e-04
-5.519969e-05
-5.519969e-05
-3.611931e-04
-3.611931e-04
-1.480140e-04
-1.480140e-04
2.250335e-04
2.250335e-04
1.887150e-03
1.887150e-03
3.824306e-03
3.824306e-03
1.241218e-02
1.241218e-02
4.025458e-02
4.025458e-02
5.668386e-02
5.668386e-02
-2.452713e-02
-2.452713e-02
-7.875342e-02
-7.875342e-02
-2.071593e-02
-2.071593e-02
4.831872e-03
4.831872e-03
-2.309956e-03
-2.309956e-03
4.276548e-04
4.276548e-04
4.694660e-05
3.355574e-05
2.068898e-05
1.258578e-05
6.326619e-07
-2.693151e-06
3.363992e-05
2.870332e-05
2.299681e-05
1.401631e-05
-3.685767e-07
-6.542866e-06
2.350261e-05
1.676974e-05
1.241784e-05
1.443415e-05
7.273748e-06
4.780085e-07
1.522956e-05
2.728539e-07
-5.543415e-06
9.652963e-06
1.288730e-05
1.006570e-05
-1.875660e-05
-2.029338e-05
-1.797420e-05
-7.964647e-06
-2.423325e-06
-3.035581e-06
-4.333657e-05
-3.981027e-05
-3.870968e-05
-3.564687e-05
-2.316313e-05
-1.616790e-05
-3.959186e-05
-4.616120e-05
-5.603305e-05
-5.108249e-05
-2.999217e-05
-1.715493e-05
-4.348381e-05
-4.445084e-05
-5.060752e-05
-4.274072e-05
-2.093663e-05
-1.218897e-05
-2.701395e-05
-2.813737e-05
-3.112151e-05
-2.395783e-05
-1.143501e-05
-7.936607e-06
2.307718e-06
-2.864329e-06
-9.837954e-06
-7.009691e-06
-4.566421e-06
-6.752992e-06
5.486652e-06
5.790146e-06
1.329334e-06
1.099822e-06
2.259643e-07
-5.182689e-06
4.594855e-05
3.952597e-05
2.784888e-05
2.103973e-05
7.528669e-06
-4.427745e-06
2.943438e-05
2.787871e-05
2.111533e-05
1.692006e-05
7.799424e-06
-2.333656e-06
1.240648e-06
2.204602e-06
3.678266e-06
1.164764e-05
1.266782e-05
6.228339e-06
-1.128731e-05
-1.402614e-05
-9.223650e-06
7.992210e-06
1.383706e-05
1.000736e-05
-8.281759e-06
-1.511524e-05
-1.618323e-05
-6.705578e-06
-3.339232e-06
-3.685042e-06
-1.631732e-05
-2.357496e-05
-3.026051e-05
-2.964330e-05
-2.284528e-05
-1.609238e-05
-2.817865e-05
-3.657202e-05
-4.394643e-05
-4.108490e-05
-2.717201e-05
-1.510169e-05
-3.226583e-05
-3.859728e-05
-4.256548e-05
-3.319101e-05
-1.599292e-05
-5.806057e-06
-2.425605e-05
-2.406135e-05
-2.417090e-05
-1.512167e-05
-3.046223e-06
-3.242704e-07
-1.681358e-06
-6.051625e-07
-1.644235e-06
1.052030e-06
1.810820e-06
-2.241924e-06
8.768187e-06
9.712406e-06
8.238627e-06
7.749259e-06
3.468825e-06
-2.740238e-06
1.427403e-05
2.472403e-05
2.738168e-05
2.219761e-05
8.148322e-06
-8.509235e-06
3.116649e-06
5.996086e-06
4.772598e-06
1.316207e-05
1.357159e-05
1.488696e-06
-3.415528e-05
-2.508998e-05
-1.837657e-05
4.137640e-06
2.174625e-05
1.448877e-05
-4.407481e-05
-2.604453e-05
-1.182503e-05
6.022122e-06
2.011666e-05
1.255327e-05
8.329533e-06
-3.253630e-06
-5.005517e-06
3.174821e-06
1.525820e-06
1.527759e-06
2.129564e-05
-1.687236e-07
-5.733837e-06
-6.961626e-06
-1.733935e-05
-1.059004e-05
-1.069922e-05
-1.396108e-05
-1.063521e-05
-1.581962e-05
-1.855670e-05
-9.521638e-06
-1.508958e-06
-1.321503e-05
-1.814547e-05
-1.395466e-05
-6.445497e-06
3.648482e-06
2.307472e-06
-3.356578e-06
-6.371437e-06
-9.676848e-07
3.837387e-06
5.887898e-06
-6.413232e-06
5.370357e-06
1.278247e-05
9.573184e-06
6.677131e-06
2.618881e-06
-1.008449e-06
1.047485e-05
1.709725e-05
1.243427e-05
7.907207e-06
3.182239e-06
-3.598102e-06
3.470359e-08
2.698704e-06
-2.716422e-06
-9.968967e-06
-1.277519e-05
-2.642574e-05
-1.979975e-05
-1.291542e-05
-3.231769e-06
5.762066e-06
5.330587e-06
-4.412337e-05
-2.023854e-05
-1.145581e-05
3.860967e-06
2.777017e-05
2.126051e-05
-4.073232e-05
-9.455868e-06
2.665060e-07
1.291863e-05
3.210091e-05
1.707699e-05
-7.248462e-06
-1.176530e-05
4.341504e-06
2.213005e-05
1.699479e-05
1.469463e-05
4.355952e-05
1.507435e-05
2.467244e-05
2.737697e-05
-3.102096e-06
1.797582e-06
2.521470e-05
2.183768e-05
2.665821e-05
1.319171e-05
-6.531641e-06
-4.590941e-06
-1.455156e-05
-2.098653e-06
8.852125e-06
7.628709e-07
1.945802e-07
6.213417e-06
8.094472e-07
6.395107e-06
1.213497e-05
3.626170e-06
-1.330615e-06
2.375604e-06
8.048493e-06
1.667328e-05
1.822730e-05
6.240028e-06
-7.905050e-07
-2.904535e-06
-5.909746e-06
8.294112e-06
1.214945e-05
5.232087e-06
4.493453e-06
3.236570e-07
-7.320177e-05
-4.779580e-05
-1.857769e-05
-2.614482e-05
-2.140345e-05
-5.282818e-06
-5.854446e-05
-3.344267e-05
-1.450307e-05
-1.760703e-05
2.611041e-06
1.977087e-05
4.601421e-07
3.235395e-05
2.234004e-05
2.108067e-06
3.094172e-05
3.809963e-05
-1.956241e-05
1.459107e-05
1.606509e-05
1.797619e-05
4.111166e-05
2.965657e-05
-2.323181e-05
-2.530465e-05
7.831176e-06
4.414343e-05
3.413079e-05
2.301456e-05
8.206457e-06
5.193399e-06
5.497774e-05
6.826468e-05
1.508395e-05
1.413693e-06
1.552807e-05
2.894345e-05
5.577159e-05
4.473351e-05
2.411756e-06
-1.545915e-05
-3.283043e-05
-1.159714e-06
2.250917e-05
7.637758e-06
-4.377581e-06
-9.523336e-06
-5.806398e-05
-2.334599e-05
6.733840e-06
-5.399729e-06
-1.021773e-05
-7.540334e-06
-2.703313e-06
2.270776e-06
5.739989e-07
-7.274256e-06
-9.042135e-06
-9.632624e-06
-7.051394e-06
-2.592013e-06
-7.529728e-06
-7.031049e-06
-2.355750e-06
-7.576226e-06
-1.556098e-04
-9.170916e-05
-2.279821e-05
-3.195524e-05
-2.099699e-05
4.128611e-06
-8.323299e-05
-4.234779e-05
-1.286397e-05
-2.225018e-05
4.873696e-06
2.998241e-05
4.187777e-05
6.736555e-05
3.589986e-05
-4.091644e-06
3.177370e-05
5.067709e-05
-8.005601e-06
2.432995e-05
2.085101e-05
1.582791e-05
4.346800e-05
4.031669e-05
-1.750072e-05
-2.364886e-05
1.136057e-05
5.582291e-05
4.157879e-05
2.402988e-05
-3.881677e-05
-1.275970e-05
7.095427e-05
9.149190e-05
2.422082e-05
-5.930999e-06
-2.400627e-05
1.327221e-05
6.881615e-05
6.253166e-05
5.125226e-06
-2.773125e-05
-1.852782e-05
8.191531e-06
2.554660e-05
9.481758e-06
-1.098609e-05
-2.475340e-05
-9.163376e-05
-4.621002e-05
-6.324845e-06
-1.370166e-05
-1.544203e-05
-1.534415e-05
-2.865964e-05
-1.971830e-05
-1.629115e-05
-1.699595e-05
-1.133706e-05
-1.048756e-05
-1.634991e-05
-1.445722e-05
-2.031177e-05
-1.405644e-05
-4.595679e-06
-9.137500e-06
SCALARS E13 float 1
LOOKUP_TABLE default
2.035542e-03
2.773434e-03
-1.311358e-03
-3.583607e-03
2.035542e-03
2.773434e-03
-1.311358e-03
-3.583607e-03
1.448461e-03
5.520105e-04
-5.469144e-05
-4.087188e-04
1.448461e-03
5.520105e-04
-5.469144e-05
-4.087188e-04
-1.099913e-03
-1.149642e-03
-5.241582e-04
-1.099913e-03
-1.149642e-03
-5.241582e-04
-2.281575e-06
-3.464006e-05
-1.110791e-04
-8.173318e-04
-2.281575e-06
-3.464006e-05
-1.110791e-04
-8.173318e-04
-5.398355e-04
-4.343541e-04
-5.398355e-04
-4.343541e-04
3.815986e-05
-9.383902e-04
3.815986e-05
-9.383902e-04
-2.684021e-03
-1.615137e-03
-6.451597e-04
-1.162517e-03
-2.684021e-03
-1.615137e-03
-6.451597e-04
-1.162517e-03
6.663996e-04
2.902621e-04
-1.059587e-03
-1.173412e-04
6.663996e-04
2.902621e-04
-1.059587e-03
-1.173412e-04
1.368403e-03
-6.932652e-04
3.244912e-03
1.869018e-03
1.368403e-03
-6.932652e-04
3.244912e-03
1.869018e-03
1.589291e-03
5.017173e-04
1.589291e-03
5.017173e-04
5.622629e-03
5.622629e-03
8.723403e-04
6.437817e-04
8.723403e-04
6.437817e-04
-3.514840e-03
-6.952818e-04
-3.514840e-03
-6.952818e-04
-8.327653e-05
-8.327653e-05
-2.259664e-04
-2.259664e-04
-1.006930e-03
-1.006930e-03
-4.169587e-04
1.998783e-06
1.403802e-05
-4.169587e-04
1.998783e-06
1.403802e-05
-1.968212e-04
-2.468774e-04
-1.932064e-03
-2.275597e-03
-1.968212e-04
-2.468774e-04
-1.932064e-03
-2.275597e-03
-2.782347e-04
-2.782347e-04
9.392376e-04
-3.675662e-04
9.392376e-04
-3.675662e-04
8.769923e-04
8.769923e-04
-1.497560e-03
-1.497560e-03
-1.527453e-03
-1.527453e-03
-3.734699e-03
-3.734699e-03
6.450101e-04
6.450101e-04
-2.719086e-03
-2.719086e-03
-4.574675e-03
-4.574675e-03
-6.239648e-03
-6.239648e-03
-1.004801e-03
-1.420120e-03
-1.004801e-03
-1.420120e-03
-2.442599e-05
-2.442599e-05
6.731885e-04
6.731885e-04
7.661337e-04
7.661337e-04
6.196699e-04
6.196699e-04
-1.324904e-03
-5.355899e-04
-1.324904e-03
-5.355899e-04
-3.677255e-04
-3.677255e-04
7.579411e-04
7.579411e-04
9.513981e-04
9.513981e-04
9.788571e-04
9.788571e-04
-8.247262e-04
2.054082e-05
-8.247262e-04
2.054082e-05
-5.003228e-04
-5.003228e-04
2.485890e-04
2.485890e-04
3.605081e-04
3.605081e-04
3.634087e-04
3.634087e-04
-2.712714e-04
4.314912e-04
-2.712714e-04
4.314912e-04
-1.394208e-04
-1.394208e-04
3.127418e-04
3.127418e-04
3.457024e-04
3.457024e-04
3.609790e-04
3.609790e-04
-1.104984e-04
9.775023e-04
-1.104984e-04
9.775023e-04
-1.386142e-04
-1.386142e-04
2.675364e-04
2.675364e-04
4.623324e-04
4.623324e-04
6.596157e-04
6.596157e-04
3.814500e-04
8.700657e-04
3.814500e-04
8.700657e-04
-1.455768e-05
-1.455768e-05
-1.208252e-04
-1.208252e-04
6.489139e-05
6.489139e-05
2.881005e-04
2.881005e-04
7.340927e-04
8.061831e-04
7.340927e-04
8.061831e-04
2.842799e-04
2.842799e-04
-1.928047e-04
-1.928047e-04
-4.755956e-04
-4.755956e-04
-5.612405e-04
-5.612405e-04
9.710342e-05
3.935017e-04
9.710342e-05
3.935017e-04
-1.582299e-04
-1.582299e-04
-3.579450e-04
-3.579450e-04
-8.273101e-04
-8.273101e-04
-1.200962e-03
-1.200962e-03
-2.954663e-04
-7.892499e-05
-2.954663e-04
-7.892499e-05
-2.836504e-04
-2.836504e-04
-3.380636e-05
-3.380636e-05
-4.464032e-04
-4.464032e-04
-1.044576e-03
-1.044576e-03
-2.326082e-04
-1.207979e-04
-2.326082e-04
-1.207979e-04
-3.179019e-04
-3.179019e-04
1.386772e-04
1.386772e-04
3.826547e-04
3.826547e-04
1.096713e-04
1.096713e-04
-1.991848e-04
-8.059031e-05
-1.991848e-04
-8.059031e-05
-5.220066e-04
-5.220066e-04
-3.195467e-04
-3.195467e-04
3.140971e-04
3.140971e-04
4.820446e-04
4.820446e-04
2.981027e-04
2.712592e-04
2.981027e-04
2.712592e-04
-1.022795e-04
-1.022795e-04
9.222907e-05
9.222907e-05
1.282133e-04
1.282133e-04
-1.212054e-04
-1.212054e-04
1.675146e-04
6.365860e-04
1.675146e-04
6.365860e-04
-4.232375e-04
-4.232375e-04
3.072393e-05
3.072393e-05
5.650548e-04
5.650548e-04
7.446360e-04
7.446360e-04
-2.737060e-04
6.807767e-04
-2.737060e-04
6.807767e-04
-1.009794e-03
-1.009794e-03
-5.895409e-04
-5.895409e-04
8.215467e-04
8.215467e-04
1.865467e-03
1.865467e-03
1.574674e-04
5.883286e-04
7.262565e-04
5.287120e-04
1.574674e-04
5.883286e-04
7.262565e-04
5.287120e-04
6.796451e-04
2.219194e-04
6.796451e-04
2.219194e-04
3.389466e-04
2.554297e-04
3.389466e-04
2.554297e-04
4.193441e-05
4.193441e-05
9.161061e-06
-2.576895e-04
9.161061e-06
-2.576895e-04
2.317484e-04
2.317484e-04
-6.683129e-04
-4.786967e-04
-6.683129e-04
-4.786967e-04
-2.514183e-04
-2.514183e-04
-4.295627e-04
-1.725692e-04
-4.295627e-04
-1.725692e-04
-1.001457e-04
-1.001457e-04
3.280387e-04
1.697585e-04
3.280387e-04
1.697585e-04
5.221233e-04
5.221233e-04
-7.270469e-04
-9.320955e-04
-7.270469e-04
-9.320955e-04
-4.204494e-04
-4.204494e-04
3.009515e-04
3.009515e-04
1.037328e-03
1.037328e-03
8.245425e-04
8.245425e-04
7.415495e-04
7.415495e-04
-1.718953e-03
-8.380904e-04
-1.718953e-03
-8.380904e-04
-1.503976e-03
-1.503976e-03
-7.260275e-04
-7.260275e-04
-4.164792e-05
-4.164792e-05
4.740204e-04
4.740204e-04
4.322806e-04
4.322806e-04
1.860814e-05
1.860814e-05
8.491976e-05
8.491976e-05
-2.496667e-04
-2.496667e-04
-4.984964e-04
-4.984964e-04
-8.424114e-04
-8.424114e-04
-8.267975e-04
-8.267975e-04
-9.665837e-05
-9.665837e-05
-2.100524e-04
-2.100524e-04
7.617652e-05
2.846780e-04
3.601359e-05
-3.927179e-04
7.617652e-05
2.846780e-04
3.601359e-05
-3.927179e-04
1.304535e-03
3.312245e-04
5.274787e-04
1.885790e-04
1.304535e-03
3.312245e-04
5.274787e-04
1.885790e-04
-7.251870e-04
3.041760e-05
-1.708345e-04
-9.683556e-04
-7.251870e-04
3.041760e-05
-1.708345e-04
-9.683556e-04
-1.183676e-03
-3.993146e-04
-7.940065e-04
-1.183676e-03
-3.993146e-04
-7.940065e-04
-4.244771e-04
4.603743e-04
-4.244771e-04
4.603743e-04
1.623765e-03
9.576809e-04
4.577581e-04
-7.263882e-07
1.623765e-03
9.576809e-04
4.577581e-04
-7.263882e-07
-7.694477e-04
-3.332878e-04
-7.694477e-04
-3.332878e-04
1.002185e-04
4.820312e-04
1.002185e-04
4.820312e-04
3.798445e-04
-2.525074e-04
4.148509e-04
3.798445e-04
-2.525074e-04
4.148509e-04
1.212759e-05
1.212759e-05
-3.195322e-04
-1.598797e-03
-3.195322e-04
-1.598797e-03
4.355619e-04
-6.024283e-04
4.355619e-04
-6.024283e-04
6.295478e-04
6.295478e-04
-1.987649e-03
-1.987649e-03
-1.713198e-03
-1.965445e-03
-3.307658e-03
-1.713198e-03
-1.965445e-03
-3.307658e-03
-3.421030e-04
2.534135e-04
4.930729e-04
-4.904932e-04
-3.421030e-04
2.534135e-04
4.930729e-04
-4.904932e-04
1.739622e-04
5.801133e-04
1.739622e-04
5.801133e-04
-8.086239e-04
-8.086239e-04
5.402792e-04
9.979977e-04
-1.720814e-03
-1.816088e-03
5.402792e-04
9.979977e-04
-1.720814e-03
-1.816088e-03
-5.676574e-04
-5.676574e-04
-2.127086e-04
-2.127086e-04
-7.438124e-05
-7.438124e-05
5.799794e-04
5.799794e-04
5.274420e-04
5.274420e-04
-8.508258e-04
-8.508258e-04
5.243048e-04
3.516248e-06
5.243048e-04
3.516248e-06
1.942210e-04
-2.418231e-04
1.942210e-04
-2.418231e-04
1.803368e-04
-7.917625e-05
1.803368e-04
-7.917625e-05
4.300477e-04
-9.998043e-05
4.300477e-04
-9.998043e-05
-6.288468e-05
-1.850090e-04
-6.288468e-05
-1.850090e-04
-5.260939e-04
-2.533768e-04
-5.260939e-04
-2.533768e-04
-2.353156e-04
4.013945e-05
-2.353156e-04
4.013945e-05
2.147070e-04
1.496512e-04
2.147070e-04
1.496512e-04
6.811747e-04
6.123674e-04
6.811747e-04
6.123674e-04
5.233737e-04
7.369768e-04
5.233737e-04
7.369768e-04
-2.190109e-04
-3.018705e-04
-2.190109e-04
-3.018705e-04
-1.061526e-04
-4.768720e-05
-1.061526e-04
-4.768720e-05
3.660134e-04
1.369487e-04
3.660134e-04
1.369487e-04
3.697374e-04
-4.956439e-04
3.697374e-04
-4.956439e-04
3.476436e-04
3.476436e-04
3.360381e-04
3.360381e-04
-9.696517e-05
-9.696517e-05
-6.090768e-04
-6.090768e-04
-4.686789e-04
-4.686789e-04
1.704960e-04
1.704960e-04
5.253769e-04
5.253769e-04
8.403339e-05
8.403339e-05
1.224944e-04
1.224944e-04
2.052357e-04
2.052357e-04
-3.836095e-04
-3.836095e-04
-8.082255e-05
-8.082255e-05
-1.651342e-04
-1.651342e-04
-8.275437e-04
-8.275437e-04
3.746434e-04
3.746434e-04
4.402221e-04
4.402221e-04
-8.423431e-05
-8.423431e-05
-2.998412e-04
-2.998412e-04
-2.277363e-05
-2.277363e-05
4.040342e-04
4.040342e-04
6.251042e-04
6.251042e-04
3.300007e-04
3.300007e-04
1.262045e-04
1.262045e-04
7.308259e-05
7.308259e-05
2.615479e-04
2.615479e-04
4.842386e-04
4.842386e-04
1.502345e-04
1.502345e-04
-1.958437e-04
-1.958437e-04
5.477599e-04
5.477599e-04
2.083299e-04
2.083299e-04
-2.257765e-04
-2.257765e-04
-1.026621e-04
-1.026621e-04
2.947017e-04
2.947017e-04
4.997206e-04
4.997206e-04
2.779534e-04
2.779534e-04
1.011103e-04
1.011103e-04
3.461293e-04
3.461293e-04
5.824066e-04
5.824066e-04
6.974610e-04
6.974610e-04
5.507878e-04
5.507878e-04
1.654380e-04
1.654380e-04
-2.510314e-05
-2.510314e-05
6.730645e-04
6.730645e-04
-3.093387e-05
-3.093387e-05
-3.038800e-04
-3.038800e-04
-2.741130e-04
-2.741130e-04
-7.019368e-05
-7.019368e-05
3.274300e-04
3.274300e-04
-3.466172e-05
-3.466172e-05
-3.452185e-04
-3.452185e-04
3.507575e-04
3.507575e-04
9.905466e-04
9.905466e-04
7.910515e-04
7.910515e-04
3.728028e-04
3.728028e-04
9.422905e-05
9.422905e-05
-4.002621e-05
-4.002621e-05
-1.017507e-07
-2.017813e-05
-1.017507e-07
-2.017813e-05
-2.282602e-05
-2.282602e-05
-1.995164e-05
-1.995164e-05
-3.825694e-05
-3.825694e-05
-2.042122e-05
-2.042122e-05
6.430480e-07
6.430480e-07
-3.008291e-05
-3.008291e-05
-4.132179e-05
-4.132179e-05
3.865269e-05
7.798431e-05
3.865269e-05
7.798431e-05
6.826173e-06
6.826173e-06
3.722583e-05
3.722583e-05
1.262856e-05
1.262856e-05
-1.140800e-05
-1.140800e-05
2.788438e-05
2.788438e-05
3.232046e-05
3.232046e-05
1.129231e-05
1.129231e-05
-2.559763e-05
-3.287513e-05
-2.559763e-05
-3.287513e-05
8.430568e-07
8.430568e-07
2.470538e-05
2.470538e-05
2.928827e-05
2.928827e-05
-8.635809e-06
-8.635809e-06
2.241312e-06
2.241312e-06
-1.163265e-05
-1.163265e-05
-6.393410e-05
-6.393410e-05
-6.187263e-05
-5.041584e-05
-6.187263e-05
-5.041584e-05
-1.684385e-05
-1.684385e-05
1.209981e-06
1.209981e-06
2.059055e-05
2.059055e-05
1.705058e-05
1.705058e-05
1.286240e-05
1.286240e-05
-2.570215e-05
-2.570215e-05
-6.297684e-05
-6.297684e-05
-7.151298e-06
-1.027539e-04
-7.151298e-06
-1.027539e-04
2.228566e-05
2.228566e-05
2.972679e-05
2.972679e-05
1.465300e-05
1.465300e-05
9.479888e-06
9.479888e-06
3.537159e-05
3.537159e-05
2.989041e-05
2.989041e-05
2.227133e-05
2.227133e-05
-6.445989e-06
-1.512043e-04
-6.445989e-06
-1.512043e-04
2.718841e-05
2.718841e-05
3.303227e-05
3.303227e-05
1.082428e-05
1.082428e-05
-2.164233e-05
-2.164233e-05
-2.697407e-05
-2.697407e-05
1.519880e-05
1.519880e-05
5.303083e-05
5.303083e-05
3.604535e-05
2.339189e-04
-1.039325e-04
-1.870106e-04
3.604535e-05
2.339189e-04
-1.039325e-04
-1.870106e-04
4.334853e-06
-1.443085e-04
4.334853e-06
-1.443085e-04
1.350364e-04
1.292724e-04
1.350364e-04
1.292724e-04
2.207742e-04
2.331524e-04
2.207742e-04
2.331524e-04
4.413938e-05
1.669679e-04
4.413938e-05
1.669679e-04
-1.147810e-03
-7.165818e-04
-1.147810e-03
-7.165818e-04
-1.906647e-03
-1.253269e-03
-1.906647e-03
-1.253269e-03
3.091892e-04
-2.036775e-06
3.091892e-04
-2.036775e-06
-9.937345e-06
-9.937345e-06
8.599307e-05
8.599307e-05
2.444702e-04
2.444702e-04
1.475078e-04
1.475078e-04
1.954994e-04
1.954994e-04
-5.022316e-05
-5.022316e-05
-2.611634e-04
-2.611634e-04
5.168630e-04
5.168630e-04
3.877445e-04
3.877445e-04
1.110647e-04
1.110647e-04
1.498715e-04
1.498715e-04
1.655955e-04
1.655955e-04
2.234595e-05
2.234595e-05
-2.105387e-04
-2.105387e-04
1.533669e-05
1.533669e-05
-2.145347e-05
-2.145347e-05
-3.120439e-04
-3.120439e-04
4.596872e-05
4.596872e-05
1.053226e-04
1.053226e-04
-1.835839e-04
-1.835839e-04
-2.200671e-04
-2.200671e-04
-5.228635e-05
-5.228635e-05
-7.782672e-05
-7.782672e-05
-4.860192e-04
-4.860192e-04
-2.544340e-04
-2.544340e-04
6.487350e-05
1.044619e-05
6.487350e-05
1.044619e-05
3.585191e-05
9.765101e-06
3.585191e-05
9.765101e-06
-1.048842e-04
-7.765903e-05
-1.048842e-04
-7.765903e-05
-8.565881e-05
-1.189413e-04
-8.565881e-05
-1.189413e-04
-4.623828e-05
-7.031792e-05
-4.623828e-05
-7.031792e-05
2.205183e-05
2.205183e-05
6.220532e-07
6.220532e-07
-1.919695e-05
-1.919695e-05
-2.594081e-05
-2.594081e-05
-1.329848e-05
-1.329848e-05
-4.490643e-06
-4.490643e-06
3.994869e-06
3.994869e-06
1.174363e-05
1.174363e-05
3.703981e-06
3.703981e-06
2.356153e-05
2.356153e-05
-1.688650e-05
-1.688650e-05
-4.193036e-05
-4.193036e-05
-2.771739e-05
-2.771739e-05
-1.524964e-05
-1.524964e-05
2.088827e-06
2.088827e-06
9.414556e-06
9.414556e-06
-2.204853e-05
-2.204853e-05
1.561551e-05
1.561551e-05
1.132126e-05
1.132126e-05
-4.345783e-05
-4.345783e-05
3.191279e-05
3.191279e-05
5.628886e-05
5.628886e-05
8.419667e-05
8.419667e-05
-1.494782e-06
-1.494782e-06
-1.086144e-04
-1.086144e-04
-9.813984e-05
-9.813984e-05
-6.062297e-05
-6.062297e-05
2.106626e-05
2.106626e-05
1.090697e-05
1.090697e-05
-3.782183e-05
-3.782183e-05
-2.028550e-04
-2.028550e-04
-1.848756e-04
-1.848756e-04
-3.359634e-05
-3.359634e-05
4.987130e-05
4.987130e-05
5.174559e-05
5.174559e-05
1.500093e-04
1.500093e-04
1.863246e-04
1.863246e-04
1.157695e-04
1.157695e-04
9.345981e-05
9.345981e-05
-5.874144e-05
-5.874144e-05
-8.867434e-05
-8.867434e-05
2.166427e-04
2.166427e-04
2.754872e-04
2.754872e-04
3.572028e-04
3.572028e-04
2.219790e-04
2.219790e-04
2.525514e-05
2.525514e-05
8.920991e-06
8.920991e-06
-8.683632e-05
-8.683632e-05
1.204601e-04
1.204601e-04
3.037118e-04
3.037118e-04
1.719214e-04
1.719214e-04
6.458461e-06
6.458461e-06
-1.081834e-04
-1.081834e-04
5.105352e-05
5.105352e-05
1.299009e-04
1.299009e-04
1.143695e-04
1.143695e-04
4.326107e-05
4.326107e-05
7.110403e-05
7.110403e-05
-5.903548e-05
-5.903548e-05
1.680618e-04
1.680618e-04
1.047540e-04
1.047540e-04
5.379644e-05
5.379644e-05
-3.621834e-05
-3.621834e-05
-2.905389e-05
-2.905389e-05
-1.455297e-05
-1.455297e-05
1.099905e-04
1.099905e-04
4.163015e-06
4.163015e-06
-2.688309e-05
-2.688309e-05
-5.768134e-05
-5.768134e-05
1.269160e-05
1.269160e-05
9.557653e-05
9.557653e-05
2.410282e-04
2.410282e-04
1.667991e-04
1.667991e-04
1.294699e-05
1.294699e-05
-1.004806e-05
-1.004806e-05
6.780462e-05
6.780462e-05
8.472445e-05
8.472445e-05
1.597386e-04
1.597386e-04
8.023757e-05
8.023757e-05
5.402734e-05
5.402734e-05
-1.021643e-05
-1.021643e-05
-1.313252e-04
-1.313252e-04
-2.609933e-04
-2.609933e-04
2.785322e-04
2.785322e-04
1.227552e-04
1.227552e-04
5.439882e-05
5.439882e-05
-2.098147e-04
-2.098147e-04
-5.355870e-04
-5.355870e-04
-5.698746e-04
-5.698746e-04
1.945738e-04
1.945738e-04
-2.475247e-05
-2.475247e-05
-1.365021e-04
-1.365021e-04
-4.689191e-04
-4.689191e-04
-3.725521e-04
-3.725521e-04
-2.610614e-04
-2.610614e-04
-7.376238e-05
-7.376238e-05
-6.588156e-04
-6.588156e-04
-5.755337e-04
-5.755337e-04
-3.229631e-04
-3.229631e-04
-1.773495e-04
-1.773495e-04
-2.208702e-05
-2.208702e-05
-3.083040e-04
-3.083040e-04
-1.016577e-03
-1.016577e-03
-1.490394e-03
-1.490394e-03
-1.268748e-03
-1.268748e-03
-1.509532e-04
-1.509532e-04
1.172321e-03
1.172321e-03
-8.508500e-04
-8.508500e-04
-2.030107e-03
-2.030107e-03
-3.161103e-03
-3.161103e-03
-2.697938e-03
-2.697938e-03
-6.381779e-04
-6.381779e-04
2.306534e-03
2.306534e-03
-1.288732e-03
-1.288732e-03
-2.513933e-03
-2.513933e-03
-4.788030e-03
-4.788030e-03
-1.595118e-02
-1.595118e-02
-1.454014e-02
-1.454014e-02
1.054766e-02
1.054766e-02
-1.683167e-03
-1.683167e-03
-4.918392e-03
-4.918392e-03
-9.412256e-03
-9.412256e-03
6.581088e-03
6.581088e-03
6.133569e-02
6.133569e-02
8.123680e-02
8.123680e-02
-4.191881e-03
-4.191881e-03
-9.797204e-03
-9.797204e-03
5.040596e-03
5.040596e-03
-7.678398e-02
-7.678398e-02
-1.450135e-01
-1.450135e-01
1.483849e-02
1.483849e-02
-3.779676e-03
-3.779676e-03
-7.905660e-03
-7.905660e-03
2.338324e-02
2.338324e-02
-2.300657e-01
-2.300657e-01
-5.179253e-01
-5.179253e-01
-1.549910e-01
-1.549910e-01
-2.858889e-03
-2.858889e-03
-7.662006e-03
-7.662006e-03
-3.309744e-03
-3.309744e-03
-1.433920e-01
-1.433920e-01
-2.884076e-01
-2.884076e-01
-7.996198e-02
-7.996198e-02
-5.039891e-03
-5.039891e-03
-1.032637e-02
-1.032637e-02
-1.871119e-02
-1.871119e-02
-1.385318e-02
-1.385318e-02
8.070570e-03
8.070570e-03
2.269344e-02
2.269344e-02
-3.972805e-03
-3.972805e-03
-6.153962e-03
-6.153962e-03
-5.027827e-03
-5.027827e-03
-3.340708e-03
-3.340708e-03
-6.607529e-04
-6.607529e-04
5.740856e-03
5.740856e-03
-1.478770e-03
-1.478770e-03
-2.366717e-03
-2.366717e-03
-2.765468e-03
-2.765468e-03
-1.920088e-03
-1.920088e-03
4.172716e-04
4.172716e-04
2.399628e-03
2.399628e-03
-4.719774e-04
-4.719774e-04
-1.720996e-03
-1.720996e-03
-2.954402e-03
-2.954402e-03
-2.530615e-03
-2.530615e-03
-1.286935e-03
-1.286935e-03
1.210046e-04
1.210046e-04
-1.923095e-05
-1.923095e-05
2.737348e-04
2.737348e-04
3.875936e-04
3.875936e-04
-1.559805e-05
-1.559805e-05
-1.611431e-05
-1.611431e-05
6.230420e-05
6.230420e-05
-2.768366e-05
-2.768366e-05
-7.589030e-05
-7.589030e-05
-2.390688e-04
-2.390688e-04
-6.283478e-04
-6.283478e-04
-6.192843e-04
-6.192843e-04
8.342453e-05
8.342453e-05
8.298795e-04
8.298795e-04
8.938861e-04
8.938861e-04
-5.632876e-04
-5.632876e-04
-2.760611e-03
-2.760611e-03
-2.969194e-03
-2.969194e-03
-8.601050e-04
-8.601050e-04
1.952684e-04
1.952684e-04
-2.719914e-04
-2.719914e-04
-4.407208e-04
-4.407208e-04
-5.780240e-05
-5.780240e-05
-8.223689e-05
-8.223689e-05
1.943292e-04
1.943292e-04
3.166121e-04
3.166121e-04
1.662433e-04
1.662433e-04
-4.796345e-07
-4.796345e-07
-7.862113e-05
-7.862113e-05
-8.374567e-05
-8.374567e-05
-1.759932e-04
-1.759932e-04
-4.097580e-04
-4.097580e-04
-6.549506e-04
-6.549506e-04
-3.829637e-04
-3.829637e-04
6.949368e-04
6.949368e-04
1.287327e-03
1.287327e-03
8.861932e-04
8.861932e-04
-6.493335e-04
-6.493335e-04
-3.177024e-03
-3.177024e-03
-2.261593e-03
-2.261593e-03
4.428124e-04
4.428124e-04
6.470619e-04
6.470619e-04
1.101982e-04
1.101982e-04
-1.157507e-04
-1.157507e-04
-1.049578e-04
-1.049578e-04
-4.552994e-05
-4.552994e-05
-1.027024e-04
-1.027024e-04
-1.523531e-04
-1.523531e-04
5.090363e-05
5.090363e-05
4.896382e-05
4.896382e-05
-3.881429e-05
-3.881429e-05
-1.783286e-05
-1.783286e-05
-1.369622e-04
-1.369622e-04
-4.441941e-04
-4.441941e-04
-4.968267e-04
-4.968267e-04
5.285258e-05
5.285258e-05
1.100049e-03
1.100049e-03
2.265159e-03
2.265159e-03
2.759775e-03
2.759775e-03
1.376306e-03
1.376306e-03
-1.446067e-03
-1.446067e-03
6.097683e-04
6.097683e-04
2.624006e-03
2.624006e-03
1.231159e-03
1.231159e-03
1.922002e-04
1.922002e-04
-9.370570e-04
-9.370570e-04
1.722762e-05
1.722762e-05
-2.257588e-05
-2.257588e-05
-2.206121e-04
-2.206121e-04
-2.841712e-04
-2.841712e-04
-3.588613e-05
-3.588613e-05
1.533941e-04
1.533941e-04
1.212020e-04
1.212020e-04
-2.726967e-05
-2.726967e-05
-2.806014e-04
-2.806014e-04
-4.828429e-04
-4.828429e-04
-1.796723e-04
-1.796723e-04
8.849557e-04
8.849557e-04
1.817314e-03
1.817314e-03
4.677061e-03
4.677061e-03
5.264115e-03
5.264115e-03
-1.203458e-02
-1.203458e-02
-2.095718e-02
-2.095718e-02
-1.511618e-03
-1.511618e-03
7.117367e-03
7.117367e-03
2.113219e-03
2.113219e-03
-9.663009e-05
-9.663009e-05
-1.777063e-03
-1.777063e-03
1.659668e-05
1.659668e-05
-1.843398e-05
-1.843398e-05
-1.731045e-04
-1.731045e-04
-2.146384e-04
-2.146384e-04
-2.626703e-05
-2.626703e-05
1.790785e-04
1.790785e-04
1.517513e-04
1.517513e-04
-1.779244e-04
-1.779244e-04
-5.115978e-04
-5.115978e-04
-5.695371e-04
-5.695371e-04
-8.694572e-05
-8.694572e-05
1.460202e-03
1.460202e-03
3.370487e-03
3.370487e-03
1.588532e-02
1.588532e-02
3.553775e-02
3.553775e-02
5.788149e-02
5.788149e-02
8.347462e-02
8.347462e-02
5.956809e-02
5.956809e-02
1.682798e-02
1.682798e-02
5.333638e-03
5.333638e-03
4.190875e-04
4.190875e-04
-1.678133e-03
-1.678133e-03
2.616469e-05
1.371127e-05
7.082505e-06
1.195570e-05
1.683604e-07
-1.066752e-05
1.492960e-05
1.048608e-05
1.181947e-05
1.679108e-05
1.395628e-06
-1.319452e-05
-2.750176e-05
-1.128395e-05
1.325878e-05
2.106007e-05
5.314826e-07
-1.947349e-05
-6.760140e-05
-4.142557e-05
-7.879531e-07
1.733972e-05
-2.373353e-06
-2.575230e-05
-7.398279e-05
-5.359809e-05
-1.397098e-05
1.361564e-05
-2.427668e-06
-2.681518e-05
-5.909197e-05
-4.327154e-05
-9.823573e-06
1.414376e-05
-8.749056e-07
-2.223337e-05
-2.164692e-05
-1.772579e-05
-9.776276e-07
1.416941e-05
-9.995226e-07
-1.848846e-05
7.994346e-06
-1.281790e-06
1.293760e-06
1.308018e-05
-2.356030e-06
-1.772697e-05
-1.059576e-06
-1.521379e-06
5.056125e-06
1.135057e-05
1.425174e-06
-7.755368e-06
-9.145619e-06
-1.942871e-06
5.594676e-06
4.803261e-06
2.962796e-06
2.248546e-06
-3.612669e-06
-3.242361e-07
2.377663e-06
-3.108844e-08
2.809773e-07
2.415261e-06
-2.528534e-06
-3.706975e-07
4.499769e-06
6.516340e-06
-7.996195e-06
-2.181267e-05
-1.146517e-05
-5.545854e-06
2.310446e-06
5.506526e-06
-1.304763e-05
-3.286088e-05
-4.762717e-05
-2.817920e-05
-6.892242e-06
-5.533075e-08
-2.066208e-05
-4.626675e-05
-9.740968e-05
-5.981248e-05
-1.796691e-05
-4.473293e-06
-2.289426e-05
-5.056049e-05
-1.099114e-04
-7.021183e-05
-2.328324e-05
-4.281505e-06
-2.146672e-05
-5.042465e-05
-7.730293e-05
-5.358529e-05
-2.221470e-05
-3.525350e-06
-1.807035e-05
-4.365175e-05
-4.192356e-05
-3.249077e-05
-1.570679e-05
8.699367e-07
-1.216435e-05
-3.442418e-05
-1.865146e-05
-1.851371e-05
-7.301842e-06
7.230804e-06
-6.068124e-06
-2.282558e-05
-2.563307e-06
-4.978640e-06
2.417988e-06
9.628187e-06
-1.275861e-06
-9.578146e-06
-7.943626e-08
2.346479e-06
6.402620e-06
4.094316e-06
-2.211014e-06
-4.577815e-06
-3.237948e-06
1.869860e-06
4.888006e-06
-1.172908e-06
-5.448518e-06
-5.752876e-06
-1.047018e-05
-5.481733e-06
-2.855111e-06
-7.080603e-06
-1.752803e-05
-2.611179e-05
-2.404713e-05
-2.241664e-05
-1.895341e-05
-1.561782e-05
-2.652376e-05
-3.893257e-05
-6.138500e-05
-5.794792e-05
-4.793879e-05
-2.983704e-05
-3.316785e-05
-4.802836e-05
-1.040148e-04
-7.546412e-05
-5.082871e-05
-3.399990e-05
-2.819117e-05
-4.312652e-05
-1.080209e-04
-6.447322e-05
-3.616315e-05
-2.980288e-05
-2.365559e-05
-3.910622e-05
-7.380678e-05
-5.215735e-05
-3.348425e-05
-2.156402e-05
-1.969135e-05
-3.271525e-05
-5.719250e-05
-4.875494e-05
-2.869947e-05
-8.034160e-06
-1.220010e-05
-2.541344e-05
-4.953060e-05
-3.804566e-05
-1.607915e-05
4.681267e-06
9.515051e-07
-1.305709e-05
-1.626071e-05
-1.327620e-05
-3.032126e-06
1.154617e-05
7.898742e-06
-3.067430e-06
8.404121e-06
6.558964e-06
7.310064e-06
8.159849e-06
9.455907e-07
-4.522195e-06
1.019807e-05
1.133666e-05
1.045128e-05
2.655164e-06
-5.240782e-06
-7.364587e-06
6.374221e-05
2.502385e-05
-1.133212e-05
-1.511864e-05
-2.326293e-05
-2.525830e-05
5.275605e-05
7.242403e-06
-2.650034e-05
-2.032271e-05
-2.634006e-05
-2.676414e-05
2.590729e-05
-1.792530e-05
-4.184339e-05
-1.671467e-05
-1.151876e-05
-1.153708e-05
3.822869e-05
-1.443165e-06
-3.487967e-05
-2.629988e-06
1.784155e-05
1.229877e-05
5.199376e-05
1.675229e-05
-2.241583e-05
5.127225e-06
2.783498e-05
1.907305e-05
3.404560e-05
9.536672e-06
-5.877173e-06
1.276538e-05
1.794096e-05
1.356905e-05
5.568311e-05
1.898612e-05
2.042662e-06
1.535870e-05
7.045800e-06
5.170398e-06
5.648712e-05
1.675574e-05
-9.874214e-06
1.033899e-05
1.178430e-05
6.117845e-06
6.906183e-06
-6.078988e-06
-1.306412e-05
1.052514e-05
2.017308e-05
1.223178e-05
-7.582183e-07
-2.616066e-06
-3.012673e-06
8.514046e-06
1.338843e-05
8.197342e-06
1.679557e-05
1.045906e-05
1.605351e-06
3.857280e-06
5.423089e-06
2.219764e-06
-5.026658e-05
-9.504695e-06
2.212006e-05
-4.500267e-06
-1.026085e-05
1.461769e-06
-8.762055e-05
-3.488521e-05
2.360491e-05
7.011954e-06
-2.559553e-06
1.021667e-05
-9.387441e-05
-4.231509e-05
1.887857e-05
2.702312e-05
3.398892e-05
4.244453e-05
8.052648e-06
4.648262e-06
-6.864452e-06
3.327146e-05
8.270492e-05
8.389415e-05
4.898714e-05
1.641125e-05
-1.678534e-05
3.774004e-05
9.246715e-05
9.204817e-05
1.942114e-05
1.004359e-05
2.297830e-05
5.166639e-05
6.056873e-05
6.309524e-05
5.016706e-05
3.033947e-05
4.183216e-05
4.835221e-05
2.915208e-05
3.475217e-05
5.657839e-05
2.596083e-05
1.531217e-05
2.680113e-05
1.812229e-05
1.792340e-05
2.119943e-05
7.927446e-07
-6.323039e-06
1.589226e-05
1.613843e-05
7.460198e-06
-2.265117e-06
-1.222743e-05
-1.373677e-05
4.680188e-06
9.488439e-06
4.332724e-06
-1.435882e-05
-1.387197e-05
-1.473643e-05
-6.652774e-06
3.417328e-06
4.052454e-06
-2.177362e-04
-6.556789e-05
5.927711e-05
5.998568e-06
7.108852e-06
3.417438e-05
-2.909875e-04
-1.075107e-04
6.950224e-05
2.921171e-05
2.200438e-05
4.862369e-05
-2.945808e-04
-1.196010e-04
5.260960e-05
4.897221e-05
6.653532e-05
8.496653e-05
-1.411637e-04
-6.054602e-05
-1.048112e-05
3.008940e-05
1.167595e-04
1.323064e-04
-7.621510e-05
-4.280294e-05
-2.846984e-05
2.779851e-05
1.224589e-04
1.417719e-04
-8.134859e-05
-3.940182e-05
2.534828e-05
5.586843e-05
8.113864e-05
9.869202e-05
-6.321690e-05
-2.754745e-05
5.261599e-05
6.234825e-05
4.314155e-05
5.869658e-05
-5.358138e-05
-2.193550e-05
3.411192e-05
4.090538e-05
2.435920e-05
2.542110e-05
1.321063e-07
-4.373030e-06
7.638065e-06
2.592079e-05
1.170510e-05
-4.277093e-06
4.807699e-06
-1.274064e-05
-1.403862e-05
5.266609e-06
1.476015e-06
-5.369453e-06
-3.904942e-05
-3.005269e-05
-1.917935e-05
-1.339505e-05
-3.315075e-06
2.857218e-06
SCALARS EQ_PSTRAIN float 1
LOOKUP_TABLE default
8.010648e-02
1.051798e-01
1.501107e-01
1.362742e-01
8.010648e-02
1.051798e-01
1.501107e-01
1.362742e-01
1.293100e-02
2.405652e-02
3.220695e-02
1.444945e-02
1.293100e-02
2.405652e-02
3.220695e-02
1.444945e-02
1.101755e-02
1.246849e-02
1.010717e-02
1.101755e-02
1.246849e-02
1.010717e-02
4.952824e-03
8.211875e-03
7.875386e-03
4.327388e-03
4.952824e-03
8.211875e-03
7.875386e-03
4.327388e-03
1.150016e-02
1.337106e-02
1.150016e-02
1.337106e-02
5.084812e-03
5.250971e-03
5.084812e-03
5.250971e-03
8.882590e-03
6.699024e-03
3.341595e-03
3.179693e-03
8.882590e-03
6.699024e-03
3.341595e-03
3.179693e-03
4.403154e-03
7.327882e-03
8.559798e-03
3.384967e-03
4.403154e-03
7.327882e-03
8.559798e-03
3.384967e-03
4.884955e-02
1.020234e-01
5.810659e-02
2.380471e-02
4.884955e-02
1.020234e-01
5.810659e-02
2.380471e-02
9.208143e-03
1.456992e-02
9.208143e-03
1.456992e-02
2.287270e-02
2.287270e-02
1.660457e-02
2.919350e-02
1.660457e-02
2.919350e-02
3.684795e-02
2.581590e-02
3.684795e-02
2.581590e-02
3.498464e-02
3.498464e-02
4.522686e-02
4.522686e-02
5.381613e-03
5.381613e-03
2.343742e-03
8.601282e-05
1.331328e-05
2.343742e-03
8.601282e-05
1.331328e-05
1.324381e-04
1.522319e-04
5.280978e-03
6.182807e-03
1.324381e-04
1.522319e-04
5.280978e-03
6.182807e-03
9.572854e-04
9.572854e-04
4.439744e-03
8.248671e-03
4.439744e-03
8.248671e-03
5.461603e-03
5.461603e-03
2.597875e-03
2.597875e-03
5.093871e-03
5.093871e-03
1.147238e-02
1.147238e-02
2.389952e-02
2.389952e-02
6.205526e-02
6.205526e-02
1.300145e-02
1.300145e-02
8.107657e-02
8.107657e-02
2.166481e-04
8.960003e-03
2.166481e-04
8.960003e-03
3.207434e-05
3.207434e-05
9.027520e-06
9.027520e-06
3.227385e-05
3.227385e-05
6.454770e-05
6.454770e-05
2.760492e-04
6.286253e-03
2.760492e-04
6.286253e-03
1.876107e-05
1.876107e-05
9.027520e-06
9.027520e-06
8.771551e-05
8.771551e-05
1.754310e-04
1.754310e-04
3.378240e-04
3.659426e-03
3.378240e-04
3.659426e-03
0.000000e+00
0.000000e+00
0.000000e+00
0.000000e+00
1.232346e-04
1.232346e-04
2.464692e-04
2.464692e-04
1.555084e-04
4.666646e-04
1.555084e-04
4.666646e-04
0.000000e+00
0.000000e+00
0.000000e+00
0.000000e+00
6.779292e-05
6.779292e-05
1.355858e-04
1.355858e-04
0.000000e+00
3.366547e-05
0.000000e+00
3.366547e-05
0.000000e+00
0.000000e+00
0.000000e+00
0.000000e+00
8.025427e-06
8.025427e-06
1.605085e-05
1.605085e-05
0.000000e+00
3.366547e-05
0.000000e+00
3.366547e-05
0.000000e+00
0.000000e+00
0.000000e+00
0.000000e+00
8.025427e-06
8.025427e-06
1.605085e-05
1.605085e-05
0.000000e+00
0.000000e+00
0.000000e+00
0.000000e+00
0.000000e+00
0.000000e+00
0.000000e+00
0.000000e+00
9.441209e-05
9.441209e-05
1.888242e-04
1.888242e-04
0.000000e+00
0.000000e+00
0.000000e+00
0.000000e+00
0.000000e+00
0.000000e+00
0.000000e+00
0.000000e+00
1.047867e-04
1.047867e-04
2.095735e-04
2.095735e-04
0.000000e+00
0.000000e+00
0.000000e+00
0.000000e+00
0.000000e+00
0.000000e+00
2.992422e-05
2.992422e-05
7.218160e-05
7.218160e-05
8.451476e-05
8.451476e-05
0.000000e+00
1.240459e-06
0.000000e+00
1.240459e-06
0.000000e+00
0.000000e+00
1.610665e-04
1.610665e-04
2.761171e-04
2.761171e-04
2.301011e-04
2.301011e-04
0.000000e+00
1.240459e-06
0.000000e+00
1.240459e-06
0.000000e+00
0.000000e+00
1.311423e-04
1.311423e-04
2.169476e-04
2.169476e-04
1.716105e-04
1.716105e-04
0.000000e+00
0.000000e+00
0.000000e+00
0.000000e+00
2.316906e-06
2.316906e-06
8.257588e-06
8.257588e-06
7.155209e-05
7.155209e-05
1.312228e-04
1.312228e-04
1.921307e-04
1.581189e-04
1.921307e-04
1.581189e-04
7.362034e-05
7.362034e-05
3.225169e-05
3.225169e-05
1.047037e-03
1.047037e-03
2.059489e-03
2.059489e-03
3.842615e-04
3.162377e-04
3.842615e-04
3.162377e-04
1.426069e-04
1.426069e-04
4.798821e-05
4.798821e-05
1.956245e-03
1.956245e-03
3.867082e-03
3.867082e-03
0.000000e+00
0.000000e+00
0.000000e+00
0.000000e+00
0.000000e+00
0.000000e+00
0.000000e+00
0.000000e+00
0.000000e+00
0.000000e+00
0.000000e+00
0.000000e+00
0.000000e+00
4.022460e-06
0.000000e+00
4.022460e-06
1.240459e-06
1.240459e-06
0.000000e+00
1.966558e-05
0.000000e+00
1.966558e-05
1.240459e-06
1.240459e-06
0.000000e+00
7.112897e-05
0.000000e+00
7.112897e-05
0.000000e+00
0.000000e+00
4.899170e-04
1.050156e-03
4.899170e-04
1.050156e-03
2.041177e-04
2.041177e-04
9.798340e-04
1.989340e-03
9.798340e-04
1.989340e-03
4.082354e-04
4.082354e-04
2.875099e-02
4.606085e-02
2.875099e-02
4.606085e-02
1.060143e-02
1.060143e-02
1.563463e-03
1.563463e-03
2.269404e-04
2.269404e-04
9.403484e-05
9.403484e-05
0.000000e+00
0.000000e+00
4.999208e-02
7.765586e-02
4.999208e-02
7.765586e-02
1.597892e-02
1.597892e-02
4.021893e-03
4.021893e-03
6.828411e-04
6.828411e-04
2.278214e-04
2.278214e-04
6.196623e-05
6.196623e-05
8.357911e-05
8.357911e-05
2.023807e-04
2.023807e-04
7.274269e-04
7.274269e-04
3.396196e-03
3.396196e-03
9.892690e-03
9.892690e-03
2.992210e-02
2.992210e-02
4.622023e-02
4.622023e-02
3.152946e-02
3.152946e-02
1.782360e-04
4.433038e-04
3.882732e-04
7.577219e-04
1.782360e-04
4.433038e-04
3.882732e-04
7.577219e-04
1.613321e-04
1.096907e-03
6.898953e-04
6.912200e-04
1.613321e-04
1.096907e-03
6.898953e-04
6.912200e-04
1.043420e-03
4.715298e-04
9.016598e-04
3.256913e-03
1.043420e-03
4.715298e-04
9.016598e-04
3.256913e-03
6.342566e-03
3.538124e-03
3.289636e-03
6.342566e-03
3.538124e-03
3.289636e-03
1.348756e-03
1.019512e-03
1.348756e-03
1.019512e-03
8.517065e-03
1.181672e-02
2.557381e-03
4.550772e-03
8.517065e-03
1.181672e-02
2.557381e-03
4.550772e-03
5.511918e-04
9.193544e-04
5.511918e-04
9.193544e-04
5.555269e-04
4.845865e-04
5.555269e-04
4.845865e-04
1.008544e-04
1.050268e-03
1.815109e-04
1.008544e-04
1.050268e-03
1.815109e-04
4.934996e-04
4.934996e-04
9.869993e-04
1.973999e-03
9.869993e-04
1.973999e-03
4.878480e-03
1.711698e-02
4.878480e-03
1.711698e-02
1.463573e-03
1.463573e-03
1.081902e-02
1.081902e-02
1.271538e-02
1.052395e-02
2.103279e-02
1.271538e-02
1.052395e-02
2.103279e-02
1.202988e-02
1.798219e-02
2.500478e-02
1.532422e-02
1.202988e-02
1.798219e-02
2.500478e-02
1.532422e-02
1.239425e-02
2.155606e-02
1.239425e-02
2.155606e-02
7.719314e-03
7.719314e-03
2.394208e-02
2.028689e-02
3.267948e-02
3.285486e-02
2.394208e-02
2.028689e-02
3.267948e-02
3.285486e-02
2.333423e-02
2.333423e-02
1.773015e-04
1.773015e-04
1.575378e-04
1.575378e-04
8.266667e-05
8.266667e-05
3.105411e-03
3.105411e-03
1.761164e-03
1.761164e-03
4.590439e-03
1.075610e-06
4.590439e-03
1.075610e-06
2.671945e-03
5.092683e-06
2.671945e-03
5.092683e-06
6.217022e-04
4.017073e-06
6.217022e-04
4.017073e-06
7.821353e-05
0.000000e+00
7.821353e-05
0.000000e+00
7.181213e-06
0.000000e+00
7.181213e-06
0.000000e+00
0.000000e+00
0.000000e+00
0.000000e+00
0.000000e+00
0.000000e+00
0.000000e+00
0.000000e+00
0.000000e+00
0.000000e+00
0.000000e+00
0.000000e+00
0.000000e+00
0.000000e+00
0.000000e+00
0.000000e+00
0.000000e+00
0.000000e+00
0.000000e+00
0.000000e+00
0.000000e+00
0.000000e+00
0.000000e+00
0.000000e+00
0.000000e+00
0.000000e+00
0.000000e+00
0.000000e+00
0.000000e+00
3.726125e-04
5.796218e-04
3.726125e-04
5.796218e-04
7.452250e-04
1.159244e-03
7.452250e-04
1.159244e-03
0.000000e+00
0.000000e+00
0.000000e+00
0.000000e+00
0.000000e+00
0.000000e+00
0.000000e+00
0.000000e+00
0.000000e+00
0.000000e+00
0.000000e+00
0.000000e+00
0.000000e+00
0.000000e+00
0.000000e+00
0.000000e+00
0.000000e+00
0.000000e+00
0.000000e+00
0.000000e+00
0.000000e+00
0.000000e+00
0.000000e+00
0.000000e+00
3.922517e-04
3.922517e-04
7.845033e-04
7.845033e-04
0.000000e+00
0.000000e+00
0.000000e+00
0.000000e+00
6.607179e-06
6.607179e-06
6.607179e-06
6.607179e-06
0.000000e+00
0.000000e+00
0.000000e+00
0.000000e+00
0.000000e+00
0.000000e+00
0.000000e+00
0.000000e+00
0.000000e+00
0.000000e+00
0.000000e+00
0.000000e+00
0.000000e+00
0.000000e+00
0.000000e+00
0.000000e+00
8.987498e-05
8.987498e-05
1.797500e-04
1.797500e-04
2.147291e-06
2.147291e-06
2.334010e-06
2.334010e-06
1.044966e-05
1.044966e-05
2.276669e-05
2.276669e-05
1.261175e-05
1.261175e-05
1.080017e-07
1.080017e-07
0.000000e+00
0.000000e+00
3.018608e-05
3.018608e-05
4.721077e-05
4.721077e-05
2.167120e-04
2.167120e-04
2.404429e-04
2.404429e-04
9.208762e-05
9.208762e-05
6.379347e-04
6.379347e-04
1.173205e-03
1.173205e-03
4.294581e-06
4.294581e-06
4.668020e-06
4.668020e-06
7.684963e-06
7.684963e-06
3.231903e-05
3.231903e-05
2.522351e-05
2.522351e-05
2.160034e-07
2.160034e-07
0.000000e+00
0.000000e+00
6.037216e-05
6.037216e-05
9.442154e-05
9.442154e-05
4.334240e-04
4.334240e-04
4.808859e-04
4.808859e-04
1.841752e-04
1.841752e-04
1.216147e-03
1.216147e-03
2.226966e-03
2.226966e-03
8.500660e-05
3.492859e-05
8.500660e-05
3.492859e-05
1.555617e-04
1.555617e-04
1.093825e-04
1.093825e-04
2.123705e-05
2.123705e-05
4.156543e-05
4.156543e-05
1.490687e-04
1.490687e-04
1.245697e-03
1.245697e-03
2.268343e-03
2.268343e-03
6.339372e-05
0.000000e+00
6.339372e-05
0.000000e+00
1.555617e-04
1.555617e-04
1.220270e-04
1.220270e-04
2.985908e-05
2.985908e-05
3.710060e-05
3.710060e-05
1.858604e-04
1.858604e-04
8.419417e-04
8.419417e-04
1.386364e-03
1.386364e-03
4.678134e-05
1.004212e-05
4.678134e-05
1.004212e-05
4.699924e-05
4.699924e-05
8.325943e-05
8.325943e-05
7.775062e-05
7.775062e-05
2.110314e-05
2.110314e-05
1.090719e-04
1.090719e-04
4.439038e-04
4.439038e-04
7.023677e-04
7.023677e-04
1.328614e-04
1.143678e-05
1.328614e-04
1.143678e-05
1.330793e-04
1.330793e-04
7.061493e-05
7.061493e-05
6.782444e-05
6.782444e-05
1.147971e-04
1.147971e-04
2.086323e-04
2.086323e-04
5.377339e-04
5.377339e-04
8.728583e-04
8.728583e-04
8.956404e-05
4.878610e-06
8.956404e-05
4.878610e-06
1.753281e-04
1.753281e-04
1.915456e-04
1.915456e-04
2.877469e-04
2.877469e-04
2.916257e-04
2.916257e-04
2.288011e-04
2.288011e-04
6.946771e-04
6.946771e-04
1.144105e-03
1.144105e-03
6.458669e-06
3.483941e-06
6.458669e-06
3.483941e-06
1.395091e-04
1.395091e-04
2.909261e-04
2.909261e-04
4.165530e-04
4.165530e-04
3.115849e-04
3.115849e-04
1.377896e-04
1.377896e-04
8.362631e-04
8.362631e-04
1.495794e-03
1.495794e-03
8.226189e-06
0.000000e+00
0.000000e+00
8.226189e-06
8.226189e-06
0.000000e+00
0.000000e+00
8.226189e-06
1.216021e-04
1.455329e-04
1.216021e-04
1.455329e-04
5.778612e-04
7.705209e-04
5.778612e-04
7.705209e-04
1.756203e-03
2.677150e-03
1.756203e-03
2.677150e-03
4.955390e-03
5.199893e-03
4.955390e-03
5.199893e-03
2.297557e-02
1.558774e-02
2.297557e-02
1.558774e-02
3.891314e-02
2.419967e-02
3.891314e-02
2.419967e-02
0.000000e+00
0.000000e+00
0.000000e+00
0.000000e+00
3.108766e-06
3.108766e-06
1.152616e-04
1.152616e-04
3.732962e-04
3.732962e-04
2.286480e-03
2.286480e-03
1.225795e-02
1.225795e-02
2.256650e-02
2.256650e-02
1.534116e-02
1.534116e-02
0.000000e+00
0.000000e+00
0.000000e+00
0.000000e+00
0.000000e+00
0.000000e+00
0.000000e+00
0.000000e+00
0.000000e+00
0.000000e+00
5.783520e-06
5.783520e-06
0.000000e+00
0.000000e+00
0.000000e+00
0.000000e+00
1.315382e-05
1.315382e-05
0.000000e+00
0.000000e+00
0.000000e+00
0.000000e+00
1.127286e-05
1.127286e-05
2.173429e-04
2.173429e-04
2.875784e-04
2.875784e-04
6.374697e-04
6.374697e-04
4.346859e-04
4.346859e-04
5.751567e-04
5.751567e-04
1.267134e-03
1.267134e-03
8.070771e-05
1.367506e-05
8.070771e-05
1.367506e-05
5.366815e-05
9.148541e-06
5.366815e-05
9.148541e-06
0.000000e+00
3.699674e-06
0.000000e+00
3.699674e-06
0.000000e+00
0.000000e+00
0.000000e+00
0.000000e+00
0.000000e+00
2.974728e-06
0.000000e+00
2.974728e-06
1.605762e-05
1.605762e-05
1.536714e-05
1.536714e-05
1.113621e-05
1.113621e-05
1.347892e-05
1.347892e-05
6.013954e-05
6.013954e-05
2.382568e-06
2.382568e-06
6.218603e-06
6.218603e-06
7.436538e-06
7.436538e-06
3.780524e-05
3.780524e-05
1.335852e-04
1.335852e-04
5.783520e-06
5.783520e-06
0.000000e+00
0.000000e+00
0.000000e+00
0.000000e+00
1.100730e-04
1.100730e-04
2.415974e-04
2.415974e-04
1.315382e-05
1.315382e-05
1.326956e-06
1.326956e-06
1.326956e-06
1.326956e-06
1.877415e-04
1.877415e-04
3.165955e-04
3.165955e-04
1.127286e-05
1.127286e-05
1.326956e-06
1.326956e-06
1.326956e-06
1.326956e-06
2.019351e-04
2.019351e-04
3.184048e-04
3.184048e-04
8.445958e-04
8.445958e-04
7.591740e-04
7.591740e-04
5.029436e-04
5.029436e-04
4.435272e-04
4.435272e-04
8.685353e-04
8.685353e-04
1.681387e-03
1.681387e-03
1.518348e-03
1.518348e-03
1.005887e-03
1.005887e-03
6.871739e-04
6.871739e-04
1.403098e-03
1.403098e-03
2.603696e-04
2.603696e-04
9.806116e-05
9.806116e-05
1.646143e-04
1.646143e-04
9.045683e-05
9.045683e-05
1.394669e-06
1.394669e-06
0.000000e+00
0.000000e+00
7.776664e-04
7.776664e-04
3.887019e-04
3.887019e-04
3.669231e-04
3.669231e-04
1.504494e-04
1.504494e-04
2.117263e-05
2.117263e-05
2.462306e-06
2.462306e-06
1.580596e-03
1.580596e-03
6.600233e-04
6.600233e-04
3.374751e-04
3.374751e-04
1.866593e-04
1.866593e-04
1.585151e-04
1.585151e-04
3.876586e-05
3.876586e-05
3.717589e-03
3.717589e-03
1.287741e-03
1.287741e-03
2.911479e-04
2.911479e-04
2.297044e-04
2.297044e-04
2.339024e-04
2.339024e-04
6.412190e-05
6.412190e-05
6.354773e-03
6.354773e-03
2.373788e-03
2.373788e-03
8.738671e-04
8.738671e-04
3.957648e-04
3.957648e-04
1.237036e-04
1.237036e-04
3.383219e-05
3.383219e-05
7.228933e-03
7.228933e-03
3.055560e-03
3.055560e-03
1.524125e-03
1.524125e-03
7.328901e-04
7.328901e-04
1.531004e-04
1.531004e-04
7.064452e-05
7.064452e-05
5.476406e-03
5.476406e-03
2.794136e-03
2.794136e-03
1.915314e-03
1.915314e-03
1.584481e-03
1.584481e-03
8.047685e-04
8.047685e-04
5.483472e-04
5.483472e-04
4.041724e-03
4.041724e-03
2.659591e-03
2.659591e-03
2.575623e-03
2.575623e-03
2.603760e-03
2.603760e-03
1.392123e-03
1.392123e-03
9.697441e-04
9.697441e-04
4.960467e-03
4.960467e-03
3.703942e-03
3.703942e-03
3.849924e-03
3.849924e-03
3.552500e-03
3.552500e-03
2.026440e-03
2.026440e-03
1.636953e-03
1.636953e-03
5.030773e-03
5.030773e-03
5.282657e-03
5.282657e-03
6.638886e-03
6.638886e-03
6.233091e-03
6.233091e-03
3.928341e-03
3.928341e-03
3.175387e-03
3.175387e-03
5.332885e-03
5.332885e-03
6.960864e-03
6.960864e-03
9.394160e-03
9.394160e-03
9.714563e-03
9.714563e-03
8.266043e-03
8.266043e-03
7.428177e-03
7.428177e-03
8.578075e-03
8.578075e-03
1.069369e-02
1.069369e-02
1.394409e-02
1.394409e-02
1.452346e-02
1.452346e-02
1.464135e-02
1.464135e-02
1.359647e-02
1.359647e-02
1.377332e-02
1.377332e-02
1.927960e-02
1.927960e-02
2.726521e-02
2.726521e-02
3.010412e-02
3.010412e-02
3.015714e-02
3.015714e-02
2.648955e-02
2.648955e-02
2.560897e-02
2.560897e-02
3.574016e-02
3.574016e-02
5.829319e-02
5.829319e-02
8.342331e-02
8.342331e-02
1.047365e-01
1.047365e-01
9.363716e-02
9.363716e-02
5.255884e-02
5.255884e-02
6.788966e-02
6.788966e-02
1.211418e-01
1.211418e-01
2.180959e-01
2.180959e-01
3.174586e-01
3.174586e-01
2.752018e-01
2.752018e-01
9.988149e-02
9.988149e-02
1.216787e-01
1.216787e-01
2.325870e-01
2.325870e-01
6.151979e-01
6.151979e-01
9.519665e-01
9.519665e-01
6.780613e-01
6.780613e-01
1.397518e-01
1.397518e-01
1.604073e-01
1.604073e-01
3.123572e-01
3.123572e-01
9.508221e-01
9.508221e-01
1.497029e+00
1.497029e+00
9.895676e-01
9.895676e-01
1.233959e-01
1.233959e-01
1.358468e-01
1.358468e-01
2.465325e-01
2.465325e-01
6.289918e-01
6.289918e-01
9.448616e-01
9.448616e-01
6.388919e-01
6.388919e-01
7.332379e-02
7.332379e-02
8.186796e-02
8.186796e-02
1.244483e-01
1.244483e-01
1.797102e-01
1.797102e-01
2.046101e-01
2.046101e-01
1.591893e-01
1.591893e-01
3.509650e-02
3.509650e-02
4.236312e-02
4.236312e-02
5.610017e-02
5.610017e-02
6.043458e-02
6.043458e-02
5.350857e-02
5.350857e-02
4.197051e-02
4.197051e-02
2.842230e-02
2.842230e-02
3.605978e-02
3.605978e-02
5.690788e-02
5.690788e-02
9.654201e-02
9.654201e-02
9.030492e-02
9.030492e-02
2.061074e-02
2.061074e-02
3.684929e-02
3.684929e-02
4.619677e-02
4.619677e-02
7.960412e-02
7.960412e-02
1.565528e-01
1.565528e-01
2.116780e-01
2.116780e-01
4.665262e-04
4.665262e-04
1.668584e-03
1.668584e-03
2.559183e-03
2.559183e-03
2.842351e-03
2.842351e-03
3.894323e-03
3.894323e-03
3.710161e-03
3.710161e-03
1.749082e-03
1.749082e-03
5.695518e-04
5.695518e-04
2.700958e-04
2.700958e-04
3.607232e-04
3.607232e-04
3.595136e-04
3.595136e-04
3.512030e-04
3.512030e-04
7.992067e-04
7.992067e-04
1.683034e-03
1.683034e-03
4.326473e-03
4.326473e-03
1.391502e-02
1.391502e-02
2.741681e-02
2.741681e-02
2.746161e-02
2.746161e-02
1.455149e-02
1.455149e-02
6.099194e-03
6.099194e-03
8.334624e-03
8.334624e-03
1.197037e-02
1.197037e-02
1.808869e-04
1.808869e-04
7.917894e-04
7.917894e-04
1.221473e-03
1.221473e-03
1.049638e-03
1.049638e-03
1.202589e-03
1.202589e-03
1.091799e-03
1.091799e-03
5.513721e-04
5.513721e-04
2.654092e-04
2.654092e-04
2.110285e-04
2.110285e-04
4.720106e-04
4.720106e-04
5.346095e-04
5.346095e-04
7.311864e-04
7.311864e-04
1.484823e-03
1.484823e-03
2.800402e-03
2.800402e-03
5.939018e-03
5.939018e-03
1.531956e-02
1.531956e-02
2.640129e-02
2.640129e-02
2.513149e-02
2.513149e-02
1.254136e-02
1.254136e-02
4.271921e-03
4.271921e-03
9.211612e-03
9.211612e-03
1.500239e-02
1.500239e-02
1.510070e-05
1.510070e-05
3.392345e-04
3.392345e-04
5.755883e-04
5.755883e-04
4.231223e-04
4.231223e-04
4.834693e-04
4.834693e-04
5.058881e-04
5.058881e-04
4.801471e-04
4.801471e-04
4.434158e-04
4.434158e-04
5.809782e-04
5.809782e-04
1.204840e-03
1.204840e-03
1.467186e-03
1.467186e-03
1.691536e-03
1.691536e-03
3.186196e-03
3.186196e-03
6.809765e-03
6.809765e-03
1.478208e-02
1.478208e-02
2.998871e-02
2.998871e-02
4.372141e-02
4.372141e-02
3.931620e-02
3.931620e-02
2.108805e-02
2.108805e-02
8.946181e-03
8.946181e-03
1.563370e-02
1.563370e-02
2.469005e-02
2.469005e-02
0.000000e+00
0.000000e+00
0.000000e+00
0.000000e+00
0.000000e+00
0.000000e+00
1.257351e-05
1.257351e-05
1.828352e-04
1.828352e-04
3.799044e-04
3.799044e-04
5.637203e-04
5.637203e-04
5.737578e-04
5.737578e-04
9.378760e-04
9.378760e-04
2.199505e-03
2.199505e-03
3.138923e-03
3.138923e-03
4.060506e-03
4.060506e-03
7.351146e-03
7.351146e-03
1.861910e-02
1.861910e-02
4.162888e-02
4.162888e-02
7.675229e-02
7.675229e-02
9.614397e-02
9.614397e-02
7.243564e-02
7.243564e-02
3.464265e-02
3.464265e-02
1.479310e-02
1.479310e-02
3.639879e-02
3.639879e-02
6.232483e-02
6.232483e-02
0.000000e+00
0.000000e+00
2.462306e-06
2.462306e-06
2.462306e-06
2.462306e-06
0.000000e+00
0.000000e+00
1.348598e-04
1.348598e-04
2.645902e-04
2.645902e-04
6.368841e-04
6.368841e-04
9.679558e-04
9.679558e-04
1.449405e-03
1.449405e-03
3.062663e-03
3.062663e-03
5.877737e-03
5.877737e-03
9.193479e-03
9.193479e-03
1.703256e-02
1.703256e-02
5.129597e-02
5.129597e-02
1.302779e-01
1.302779e-01
2.437574e-01
2.437574e-01
3.018344e-01
3.018344e-01
2.114379e-01
2.114379e-01
8.223882e-02
8.223882e-02
2.721027e-02
2.721027e-02
4.092937e-02
4.092937e-02
9.195765e-02
9.195765e-02
0.000000e+00
0.000000e+00
0.000000e+00
0.000000e+00
0.000000e+00
0.000000e+00
0.000000e+00
0.000000e+00
0.000000e+00
0.000000e+00
0.000000e+00
0.000000e+00
0.000000e+00
0.000000e+00
0.000000e+00
0.000000e+00
0.000000e+00
0.000000e+00
0.000000e+00
0.000000e+00
0.000000e+00
0.000000e+00
0.000000e+00
0.000000e+00
0.000000e+00
0.000000e+00
0.000000e+00
0.000000e+00
0.000000e+00
0.000000e+00
0.000000e+00
0.000000e+00
0.000000e+00
0.000000e+00
0.000000e+00
0.000000e+00
0.000000e+00
0.000000e+00
0.000000e+00
0.000000e+00
0.000000e+00
0.000000e+00
0.000000e+00
0.000000e+00
0.000000e+00
0.000000e+00
0.000000e+00
0.000000e+00
0.000000e+00
0.000000e+00
0.000000e+00
0.000000e+00
0.000000e+00
0.000000e+00
0.000000e+00
0.000000e+00
0.000000e+00
0.000000e+00
0.000000e+00
0.000000e+00
0.000000e+00
0.000000e+00
0.000000e+00
0.000000e+00
0.000000e+00
0.000000e+00
0.000000e+00
0.000000e+00
0.000000e+00
0.000000e+00
0.000000e+00
0.000000e+00
0.000000e+00
0.000000e+00
0.000000e+00
0.000000e+00
0.000000e+00
0.000000e+00
0.000000e+00
0.000000e+00
0.000000e+00
0.000000e+00
0.000000e+00
0.000000e+00
0.000000e+00
0.000000e+00
0.000000e+00
0.000000e+00
0.000000e+00
0.000000e+00
0.000000e+00
0.000000e+00
0.000000e+00
0.000000e+00
0.000000e+00
0.000000e+00
0.000000e+00
0.000000e+00
0.000000e+00
0.000000e+00
0.000000e+00
0.000000e+00
0.000000e+00
0.000000e+00
0.000000e+00
0.000000e+00
0.000000e+00
0.000000e+00
0.000000e+00
0.000000e+00
0.000000e+00
0.000000e+00
0.000000e+00
0.000000e+00
0.000000e+00
0.000000e+00
0.000000e+00
0.000000e+00
0.000000e+00
0.000000e+00
0.000000e+00
0.000000e+00
0.000000e+00
0.000000e+00
0.000000e+00
0.000000e+00
0.000000e+00
0.000000e+00
0.000000e+00
0.000000e+00
0.000000e+00
0.000000e+00
0.000000e+00
0.000000e+00
0.000000e+00
0.000000e+00
0.000000e+00
0.000000e+00
0.000000e+00
0.000000e+00
0.000000e+00
0.000000e+00
0.000000e+00
0.000000e+00
0.000000e+00
0.000000e+00
0.000000e+00
0.000000e+00
0.000000e+00
0.000000e+00
0.000000e+00
0.000000e+00
0.000000e+00
0.000000e+00
0.000000e+00
0.000000e+00
0.000000e+00
0.000000e+00
0.000000e+00
0.000000e+00
0.000000e+00
0.000000e+00
0.000000e+00
0.000000e+00
0.000000e+00
0.000000e+00
0.000000e+00
0.000000e+00
0.000000e+00
0.000000e+00
0.000000e+00
0.000000e+00
0.000000e+00
0.000000e+00
0.000000e+00
0.000000e+00
0.000000e+00
0.000000e+00
0.000000e+00
0.000000e+00
0.000000e+00
0.000000e+00
0.000000e+00
0.000000e+00
0.000000e+00
0.000000e+00
0.000000e+00
0.000000e+00
0.000000e+00
0.000000e+00
0.000000e+00
0.000000e+00
0.000000e+00
0.000000e+00
0.000000e+00
0.000000e+00
0.000000e+00
0.000000e+00
0.000000e+00
0.000000e+00
0.000000e+00
0.000000e+00
0.000000e+00
0.000000e+00
0.000000e+00
0.000000e+00
0.000000e+00
0.000000e+00
0.000000e+00
0.000000e+00
0.000000e+00
0.000000e+00
0.000000e+00
0.000000e+00
0.000000e+00
0.000000e+00
0.000000e+00
0.000000e+00
0.000000e+00
0.000000e+00
0.000000e+00
0.000000e+00
0.000000e+00
0.000000e+00
0.000000e+00
0.000000e+00
0.000000e+00
0.000000e+00
0.000000e+00
0.000000e+00
0.000000e+00
0.000000e+00
0.000000e+00
0.000000e+00
0.000000e+00
0.000000e+00
0.000000e+00
0.000000e+00
0.000000e+00
0.000000e+00
0.000000e+00
0.000000e+00
0.000000e+00
0.000000e+00
0.000000e+00
0.000000e+00
0.000000e+00
0.000000e+00
0.000000e+00
0.000000e+00
0.000000e+00
0.000000e+00
0.000000e+00
0.000000e+00
0.000000e+00
0.000000e+00
0.000000e+00
0.000000e+00
0.000000e+00
0.000000e+00
0.000000e+00
0.000000e+00
0.000000e+00
0.000000e+00
0.000000e+00
0.000000e+00
0.000000e+00
0.000000e+00
0.000000e+00
0.000000e+00
0.000000e+00
0.000000e+00
0.000000e+00
0.000000e+00
0.000000e+00
0.000000e+00
0.000000e+00
0.000000e+00
0.000000e+00
0.000000e+00
0.000000e+00
0.000000e+00
0.000000e+00
0.000000e+00
0.000000e+00
0.000000e+00
0.000000e+00
0.000000e+00
0.000000e+00
0.000000e+00
0.000000e+00
0.000000e+00
0.000000e+00
0.000000e+00
0.000000e+00
0.000000e+00
0.000000e+00
0.000000e+00
0.000000e+00
0.000000e+00
0.000000e+00
0.000000e+00
0.000000e+00
0.000000e+00
0.000000e+00
0.000000e+00
0.000000e+00
0.000000e+00
0.000000e+00
0.000000e+00
0.000000e+00
0.000000e+00
0.000000e+00
0.000000e+00
0.000000e+00
0.000000e+00
0.000000e+00
0.000000e+00
0.000000e+00
0.000000e+00
0.000000e+00
0.000000e+00
0.000000e+00
0.000000e+00
0.000000e+00
0.000000e+00
0.000000e+00
0.000000e+00
0.000000e+00
0.000000e+00
0.000000e+00
0.000000e+00
0.000000e+00
0.000000e+00
0.000000e+00
0.000000e+00
0.000000e+00
0.000000e+00
0.000000e+00
0.000000e+00
0.000000e+00
0.000000e+00
0.000000e+00
0.000000e+00
0.000000e+00
0.000000e+00
0.000000e+00
0.000000e+00
0.000000e+00
0.000000e+00
0.000000e+00
0.000000e+00
0.000000e+00
0.000000e+00
0.000000e+00
0.000000e+00
0.000000e+00
0.000000e+00
0.000000e+00
0.000000e+00
0.000000e+00
0.000000e+00
0.000000e+00
0.000000e+00
0.000000e+00
0.000000e+00
0.000000e+00
0.000000e+00
0.000000e+00
0.000000e+00
0.000000e+00
0.000000e+00
0.000000e+00
0.000000e+00
0.000000e+00
0.000000e+00
0.000000e+00
0.000000e+00
0.000000e+00
0.000000e+00
0.000000e+00
0.000000e+00
0.000000e+00
0.000000e+00
0.000000e+00
0.000000e+00
0.000000e+00
0.000000e+00
0.000000e+00
0.000000e+00
0.000000e+00
0.000000e+00
0.000000e+00
0.000000e+00
0.000000e+00
0.000000e+00
SCALARS S11 float 1
LOOKUP_TABLE default
-2.325186e+01
3.975018e+01
5.371373e+01
1.673445e+01
-2.325186e+01
3.975018e+01
5.371373e+01
1.673445e+01
-1.123763e+00
-1.480154e+01
3.906199e+01
1.850141e+00
-1.123763e+00
-1.480154e+01
3.906199e+01
1.850141e+00
-9.820532e-01
2.450805e+01
1.395838e+01
-9.820532e-01
2.450805e+01
1.395838e+01
3.352335e+01
4.457320e+00
-1.575861e+00
-8.951118e+00
3.352335e+01
4.457320e+00
-1.575861e+00
-8.951118e+00
2.680097e+00
-2.603155e+01
2.680097e+00
-2.603155e+01
4.980535e+00
6.087480e+00
4.980535e+00
6.087480e+00
4.232514e+01
2.068901e+01
2.001777e+01
-6.416371e+00
4.232514e+01
2.068901e+01
2.001777e+01
-6.416371e+00
-1.494259e+00
1.263998e+01
2.074808e+01
-6.260706e+00
-1.494259e+00
1.263998e+01
2.074808e+01
-6.260706e+00
-3.397757e+01
3.745705e+01
5.056256e-01
-4.281246e+01
-3.397757e+01
3.745705e+01
5.056256e-01
-4.281246e+01
-2.437922e+01
-4.942086e+00
-2.437922e+01
-4.942086e+00
-3.721262e+01
-3.721262e+01
-2.078351e+01
1.568505e+01
-2.078351e+01
1.568505e+01
-2.613703e+01
-3.377228e+01
-2.613703e+01
-3.377228e+01
-2.839255e+01
-2.839255e+01
4.675112e+01
4.675112e+01
3.757901e+00
3.757901e+00
-3.032918e+01
-1.222730e+01
-8.273518e+00
-3.032918e+01
-1.222730e+01
-8.273518e+00
1.203856e+01
1.178957e+01
-1.265921e+01
6.232846e+00
1.203856e+01
1.178957e+01
-1.265921e+01
6.232846e+00
5.925927e+00
5.925927e+00
-1.279413e+01
-6.056583e+01
-1.279413e+01
-6.056583e+01
1.577302e+01
1.577302e+01
-3.774387e+01
-3.774387e+01
8.333178e+00
8.333178e+00
1.928058e+01
1.928058e+01
-2.691527e+01
-2.691527e+01
-4.350354e+00
-4.350354e+00
3.873668e+01
3.873668e+01
-1.310904e+01
-1.310904e+01
-9.135274e-01
-2.029700e+01
-9.135274e-01
-2.029700e+01
-9.290332e-02
-9.290332e-02
7.134818e+00
7.134818e+00
-9.006066e+00
-9.006066e+00
-1.916831e+01
-1.916831e+01
1.097504e+01
-1.037953e+01
1.097504e+01
-1.037953e+01
-3.977571e+00
-3.977571e+00
-1.066649e+01
-1.066649e+01
-2.488408e+01
-2.488408e+01
-2.983576e+01
-2.983576e+01
1.524008e+01
-1.367479e+01
1.524008e+01
-1.367479e+01
1.255268e+01
1.255268e+01
-2.258552e-01
-2.258552e-01
3.632018e+00
3.632018e+00
4.231390e+00
4.231390e+00
1.336552e+01
5.644552e+00
1.336552e+01
5.644552e+00
3.388758e+00
3.388758e+00
-1.143873e+01
-1.143873e+01
1.221141e+01
1.221141e+01
2.555216e+01
2.555216e+01
1.921803e+01
-5.723838e+00
1.921803e+01
-5.723838e+00
-9.065265e+00
-9.065265e+00
-4.278282e+00
-4.278282e+00
1.421416e+01
1.421416e+01
1.948881e+01
1.948881e+01
-1.215083e+00
4.759605e+00
-1.215083e+00
4.759605e+00
-1.422322e+01
-1.422322e+01
-2.649115e+00
-2.649115e+00
1.365998e+01
1.365998e+01
1.360635e+01
1.360635e+01
-7.879543e+00
-1.939764e+00
-7.879543e+00
-1.939764e+00
-4.078028e+00
-4.078028e+00
-7.496859e+00
-7.496859e+00
-1.601733e+01
-1.601733e+01
-1.747145e+01
-1.747145e+01
2.663935e+00
-2.465332e+00
2.663935e+00
-2.465332e+00
6.912329e+00
6.912329e+00
8.184079e+00
8.184079e+00
-1.350092e+01
-1.350092e+01
-2.281998e+01
-2.281998e+01
4.188307e+00
5.208533e+00
4.188307e+00
5.208533e+00
-2.353139e+00
-2.353139e+00
-4.802309e+00
-4.802309e+00
1.190069e+01
1.190069e+01
3.383215e+01
3.383215e+01
8.721025e+00
-8.450428e+00
8.721025e+00
-8.450428e+00
1.409013e+01
1.409013e+01
-8.166550e+00
-8.166550e+00
-1.373307e+01
-1.373307e+01
-6.010779e+00
-6.010779e+00
-4.706915e-01
7.202510e+00
-4.706915e-01
7.202510e+00
2.567988e+01
2.567988e+01
-2.825099e-01
-2.825099e-01
-1.069706e+01
-1.069706e+01
-8.611993e-01
-8.611993e-01
-1.513536e+01
8.834520e-01
-1.513536e+01
8.834520e-01
4.285232e-01
4.285232e-01
1.782478e-02
1.782478e-02
4.256736e+00
4.256736e+00
1.888173e+01
1.888173e+01
-7.947852e+00
-3.695232e+01
-7.947852e+00
-3.695232e+01
-1.705727e+00
-1.705727e+00
1.010133e+01
1.010133e+01
1.032658e+01
1.032658e+01
-2.391839e+01
-2.391839e+01
3.474934e+00
-2.878172e+01
3.474934e+00
-2.878172e+01
2.203234e+01
2.203234e+01
1.448198e+01
1.448198e+01
2.400024e+00
2.400024e+00
-4.050102e+01
-4.050102e+01
1.243534e+01
4.272627e+00
-5.052697e+00
-3.105797e+01
1.243534e+01
4.272627e+00
-5.052697e+00
-3.105797e+01
-1.827476e+01
-5.188021e+00
-1.827476e+01
-5.188021e+00
-1.995793e+01
-2.817663e+01
-1.995793e+01
-2.817663e+01
-1.997680e+00
-1.997680e+00
-3.312186e+01
1.419151e+01
-3.312186e+01
1.419151e+01
-2.777968e+00
-2.777968e+00
2.535447e+01
-1.254500e+01
2.535447e+01
-1.254500e+01
2.270356e+01
2.270356e+01
2.503219e+01
-3.113516e+01
2.503219e+01
-3.113516e+01
3.939295e+00
3.939295e+00
-1.822315e+01
4.684363e+00
-1.822315e+01
4.684363e+00
-2.280048e+01
-2.280048e+01
-1.842530e+01
-1.430479e+01
-1.842530e+01
-1.430479e+01
-3.810734e+01
-3.810734e+01
-2.491113e+01
-2.491113e+01
-2.713307e+01
-2.713307e+01
-4.251158e-01
-4.251158e-01
2.379468e+00
2.379468e+00
2.345458e+00
3.148224e+01
2.345458e+00
3.148224e+01
-1.332517e+01
-1.332517e+01
1.085964e+01
1.085964e+01
9.725650e+00
9.725650e+00
-1.237264e+01
-1.237264e+01
5.846793e+00
5.846793e+00
3.167152e+00
3.167152e+00
-3.884851e+01
-3.884851e+01
-6.631440e+00
-6.631440e+00
2.871879e+01
2.871879e+01
8.970784e+00
8.970784e+00
-2.584180e+01
-2.584180e+01
2.088128e+01
2.088128e+01
-2.096750e+00
-2.096750e+00
-3.176492e+00
1.044877e+00
-4.900237e+00
-1.803196e+01
-3.176492e+00
1.044877e+00
-4.900237e+00
-1.803196e+01
9.416520e+00
2.631866e+00
1.727001e+00
9.768133e+00
9.416520e+00
2.631866e+00
1.727001e+00
9.768133e+00
-6.922854e+00
1.469095e+00
3.552017e+00
-2.015329e+01
-6.922854e+00
1.469095e+00
3.552017e+00
-2.015329e+01
-2.025515e+01
1.702746e+01
9.269784e+00
-2.025515e+01
1.702746e+01
9.269784e+00
2.806085e+01
2.266682e+01
2.806085e+01
2.266682e+01
8.297671e+00
1.192263e+00
-2.021532e+00
1.211389e+01
8.297671e+00
1.192263e+00
-2.021532e+00
1.211389e+01
-5.570997e+00
5.820319e+00
-5.570997e+00
5.820319e+00
-7.668183e+00
-4.672740e+00
-7.668183e+00
-4.672740e+00
-2.046949e+01
-2.708232e+01
-3.540542e+00
-2.046949e+01
-2.708232e+01
-3.540542e+00
-4.679439e+00
-4.679439e+00
-6.130385e+00
-1.243860e+01
-6.130385e+00
-1.243860e+01
-4.622786e+00
1.239458e+01
-4.622786e+00
1.239458e+01
-1.532302e+01
-1.532302e+01
-2.386436e+00
-2.386436e+00
-2.616147e-01
-1.652716e+01
-2.926534e+01
-2.616147e-01
-1.652716e+01
-2.926534e+01
1.467432e+01
-1.244744e+01
-1.538605e+01
-1.529788e+01
1.467432e+01
-1.244744e+01
-1.538605e+01
-1.529788e+01
-1.153526e+01
-1.241416e+01
-1.153526e+01
-1.241416e+01
-2.156316e+01
-2.156316e+01
2.728806e+00
6.178572e+00
-1.134792e+01
1.296923e+01
2.728806e+00
6.178572e+00
-1.134792e+01
1.296923e+01
-3.972744e+01
-3.972744e+01
-3.351948e+00
-3.351948e+00
1.879665e+01
1.879665e+01
1.263608e+01
1.263608e+01
1.070943e+01
1.070943e+01
-1.748325e+01
-1.748325e+01
-4.884717e+01
1.316386e+00
-4.884717e+01
1.316386e+00
-3.546300e+00
1.427684e+00
-3.546300e+00
1.427684e+00
4.330204e+00
1.313866e+01
4.330204e+00
1.313866e+01
3.719713e+00
-1.275574e+00
3.719713e+00
-1.275574e+00
1.582945e+01
-1.437198e+01
1.582945e+01
-1.437198e+01
-6.355421e+00
-6.988820e+00
-6.355421e+00
-6.988820e+00
1.811939e+00
5.171851e+00
1.811939e+00
5.171851e+00
9.804343e+00
-1.242593e+00
9.804343e+00
-1.242593e+00
9.115344e+00
8.355314e+00
9.115344e+00
8.355314e+00
-1.223615e+01
2.262702e+01
-1.223615e+01
2.262702e+01
-9.966852e+00
1.148978e+01
-9.966852e+00
1.148978e+01
-4.759448e-01
5.392211e-01
-4.759448e-01
5.392211e-01
-1.692316e+01
-1.400903e+01
-1.692316e+01
-1.400903e+01
-1.195298e+01
-1.516825e+01
-1.195298e+01
-1.516825e+01
1.450402e+01
1.450402e+01
-8.531900e-02
-8.531900e-02
8.262963e+00
8.262963e+00
-7.307458e+00
-7.307458e+00
-7.812704e+00
-7.812704e+00
5.747150e+00
5.747150e+00
2.404554e+00
2.404554e+00
-6.126401e+00
-6.126401e+00
-3.625781e+00
-3.625781e+00
1.031655e+01
1.031655e+01
-9.092367e+00
-9.092367e+00
-3.874220e+00
-3.874220e+00
6.566143e+00
6.566143e+00
-8.344730e+00
-8.344730e+00
1.124839e+01
1.124839e+01
1.833945e+01
1.833945e+01
-3.677572e+00
-3.677572e+00
-1.561134e+01
-1.561134e+01
4.139003e+00
4.139003e+00
1.238252e+01
1.238252e+01
1.252654e+01
1.252654e+01
2.076223e+01
2.076223e+01
-3.971536e+00
-3.971536e+00
4.097836e+00
4.097836e+00
1.560395e+00
1.560395e+00
-8.230182e+00
-8.230182e+00
4.493615e+00
4.493615e+00
1.406629e+00
1.406629e+00
9.982412e+00
9.982412e+00
1.815952e+01
1.815952e+01
-3.096389e+00
-3.096389e+00
-7.504122e+00
-7.504122e+00
-4.392900e+00
-4.392900e+00
-1.264375e+01
-1.264375e+01
1.069437e+01
1.069437e+01
8.530980e+00
8.530980e+00
9.654121e-01
9.654121e-01
1.792550e+01
1.792550e+01
4.258177e+00
4.258177e+00
2.178500e+00
2.178500e+00
7.114801e+00
7.114801e+00
-1.967107e+00
-1.967107e+00
-4.374784e+00
-4.374784e+00
1.092457e+01
1.092457e+01
-1.522217e+01
-1.522217e+01
-1.822343e-01
-1.822343e-01
-5.045251e+00
-5.045251e+00
-1.419539e+01
-1.419539e+01
3.701336e+01
3.701336e+01
-9.126641e+00
-9.126641e+00
3.021192e+00
3.021192e+00
6.535180e+00
6.535180e+00
-1.821835e+01
-1.821835e+01
1.476456e+01
1.476456e+01
-4.076962e+00
-4.076962e+00
-3.142387e+01
-3.142387e+01
6.270101e-02
-3.605916e+01
6.270101e-02
-3.605916e+01
4.296763e+00
4.296763e+00
-1.045842e+01
-1.045842e+01
3.335784e+01
3.335784e+01
3.849163e+01
3.849163e+01
-1.643120e+01
-1.643120e+01
-3.843532e+01
-3.843532e+01
-1.931565e+01
-1.931565e+01
3.540051e+00
1.173569e+01
3.540051e+00
1.173569e+01
-3.530111e+00
-3.530111e+00
3.514531e+00
3.514531e+00
2.215535e+01
2.215535e+01
1.363363e+01
1.363363e+01
7.156407e+00
7.156407e+00
1.517545e+00
1.517545e+00
-3.065995e+00
-3.065995e+00
-8.132465e+00
-6.042539e-01
-8.132465e+00
-6.042539e-01
2.318049e+00
2.318049e+00
-1.971622e+01
-1.971622e+01
-2.875807e+01
-2.875807e+01
-5.161063e+00
-5.161063e+00
1.283269e+01
1.283269e+01
1.072828e+01
1.072828e+01
-1.095711e+00
-1.095711e+00
-2.091079e+01
-4.383903e+00
-2.091079e+01
-4.383903e+00
-7.103138e-01
-7.103138e-01
-3.419136e+00
-3.419136e+00
-8.975531e+00
-8.975531e+00
8.217322e+00
8.217322e+00
1.510093e+01
1.510093e+01
-5.428408e+00
-5.428408e+00
-2.836797e+01
-2.836797e+01
-2.872027e+00
-6.311806e+00
-2.872027e+00
-6.311806e+00
2.023942e+01
2.023942e+01
1.793795e+01
1.793795e+01
1.133372e+01
1.133372e+01
5.115498e+00
5.115498e+00
-2.518292e+01
-2.518292e+01
-3.314090e+01
-3.314090e+01
-3.485070e+01
-3.485070e+01
1.106711e+01
-7.412250e+00
1.106711e+01
-7.412250e+00
1.879850e+01
1.879850e+01
1.289885e+01
1.289885e+01
8.479173e+00
8.479173e+00
9.836521e-01
9.836521e-01
-1.281429e+00
-1.281429e+00
1.915354e+00
1.915354e+00
8.131774e+00
8.131774e+00
-2.815158e+00
2.206308e+00
-1.576764e+00
-5.323151e+00
-2.815158e+00
2.206308e+00
-1.576764e+00
-5.323151e+00
2.805327e+00
5.413114e+00
2.805327e+00
5.413114e+00
1.772114e+01
2.405550e+01
1.772114e+01
2.405550e+01
-1.646508e+01
-1.598293e+01
-1.646508e+01
-1.598293e+01
-2.028021e+01
-9.335767e+00
-2.028021e+01
-9.335767e+00
3.795792e+01
4.500222e+01
3.795792e+01
4.500222e+01
2.013887e+01
1.956686e+01
2.013887e+01
1.956686e+01
6.834519e+00
-1.320026e+01
6.834519e+00
-1.320026e+01
-5.885068e+00
-5.885068e+00
2.846727e+01
2.846727e+01
4.186411e+00
4.186411e+00
-2.883250e+00
-2.883250e+00
-2.100958e+00
-2.100958e+00
-4.078632e+01
-4.078632e+01
1.214453e+01
1.214453e+01
7.155390e+00
7.155390e+00
-7.949112e+00
-7.949112e+00
-2.570752e+01
-2.570752e+01
-2.355660e+00
-2.355660e+00
7.788046e+00
7.788046e+00
-2.079155e+01
-2.079155e+01
-2.691809e+01
-2.691809e+01
-7.345573e+00
-7.345573e+00
1.235447e+01
1.235447e+01
-6.344798e+00
-6.344798e+00
-2.437799e+01
-2.437799e+01
1.055455e+01
1.055455e+01
7.590266e+00
7.590266e+00
-1.768167e-01
-1.768167e-01
-4.533539e+00
-4.533539e+00
-1.582290e+01
-1.582290e+01
4.120714e+00
4.120714e+00
-4.157501e+00
-4.157501e+00
6.051827e+01
1.631246e+01
6.051827e+01
1.631246e+01
6.010601e+01
1.686747e+01
6.010601e+01
1.686747e+01
1.595473e+01
-2.041882e+01
1.595473e+01
-2.041882e+01
2.230216e+01
-1.149297e+01
2.230216e+01
-1.149297e+01
2.896232e+01
1.608941e+01
2.896232e+01
1.608941e+01
-5.594175e+00
-5.594175e+00
-2.448485e+00
-2.448485e+00
-2.269031e+01
-2.269031e+01
-1.875423e+01
-1.875423e+01
-2.274039e+00
-2.274039e+00
-1.578001e+01
-1.578001e+01
-2.307217e+01
-2.307217e+01
-2.120105e+01
-2.120105e+01
1.734012e+01
1.734012e+01
1.566903e+01
1.566903e+01
-1.922617e+01
-1.922617e+01
-1.692455e+01
-1.692455e+01
-4.525733e+00
-4.525733e+00
1.202436e+01
1.202436e+01
3.054581e+00
3.054581e+00
2.040311e+01
2.040311e+01
6.519098e+00
6.519098e+00
1.826180e+01
1.826180e+01
3.564381e-01
3.564381e-01
-1.471057e+01
-1.471057e+01
5.051312e+01
5.051312e+01
1.436364e+01
1.436364e+01
2.636703e+01
2.636703e+01
6.285537e+00
6.285537e+00
-2.464204e+00
-2.464204e+00
-1.507927e+01
-1.507927e+01
-1.574536e+01
-1.574536e+01
8.033892e+00
8.033892e+00
-3.049555e+01
-3.049555e+01
-1.912354e+01
-1.912354e+01
-6.983374e+01
-6.983374e+01
-4.908801e+01
-4.908801e+01
-1.428246e+01
-1.428246e+01
-4.877324e+01
-4.877324e+01
-1.093224e+01
-1.093224e+01
-1.992939e+01
-1.992939e+01
2.440324e+01
2.440324e+01
2.237754e+01
2.237754e+01
-8.245724e-01
-8.245724e-01
-1.831376e+01
-1.831376e+01
-8.133447e+00
-8.133447e+00
-2.118832e+01
-2.118832e+01
1.073914e+01
1.073914e+01
1.288673e+01
1.288673e+01
-5.948443e+00
-5.948443e+00
-8.209114e-01
-8.209114e-01
1.359166e+01
1.359166e+01
-3.432911e+01
-3.432911e+01
-3.262621e+01
-3.262621e+01
5.469624e+00
5.469624e+00
3.577220e+01
3.577220e+01
3.784762e+01
3.784762e+01
3.769593e+01
3.769593e+01
-5.082399e+01
-5.082399e+01
-4.886258e+01
-4.886258e+01
-2.113301e+01
-2.113301e+01
2.486084e+01
2.486084e+01
5.021197e+01
5.021197e+01
4.013801e+01
4.013801e+01
-7.044284e-01
-7.044284e-01
-1.001434e+01
-1.001434e+01
-3.012025e+01
-3.012025e+01
-3.911778e+00
-3.911778e+00
3.078110e+01
3.078110e+01
3.925112e+01
3.925112e+01
3.367099e+01
3.367099e+01
1.838825e+01
1.838825e+01
1.980403e+01
1.980403e+01
-1.095984e+01
-1.095984e+01
-2.391409e+01
-2.391409e+01
1.379487e+01
1.379487e+01
-2.496564e+01
-2.496564e+01
2.361707e+01
2.361707e+01
3.393925e+01
3.393925e+01
1.361300e+01
1.361300e+01
-9.319875e+00
-9.319875e+00
-3.605612e+00
-3.605612e+00
-3.407695e+01
-3.407695e+01
1.819985e+01
1.819985e+01
4.856903e+01
4.856903e+01
5.200011e+01
5.200011e+01
1.209042e+01
1.209042e+01
-8.885854e+00
-8.885854e+00
9.818361e+00
9.818361e+00
3.426821e+01
3.426821e+01
5.216366e+01
5.216366e+01
4.203855e+01
4.203855e+01
-1.836082e+01
-1.836082e+01
-1.631614e+01
-1.631614e+01
4.867111e+01
4.867111e+01
6.998171e+01
6.998171e+01
3.365541e+01
3.365541e+01
1.999073e+01
1.999073e+01
-2.239094e+01
-2.239094e+01
-1.218911e+01
-1.218911e+01
5.518688e+01
5.518688e+01
6.681126e+01
6.681126e+01
4.143733e+01
4.143733e+01
8.079030e+00
8.079030e+00
2.028449e+01
2.028449e+01
9.619333e-01
9.619333e-01
3.556267e+01
3.556267e+01
2.005415e+01
2.005415e+01
1.053594e+01
1.053594e+01
4.772663e+01
4.772663e+01
5.860228e+01
5.860228e+01
3.153644e+00
3.153644e+00
-1.593809e+01
-1.593809e+01
6.164784e+00
6.164784e+00
2.265729e+01
2.265729e+01
4.335924e+01
4.335924e+01
6.174222e+01
6.174222e+01
1.208886e+00
1.208886e+00
-1.311292e+01
-1.311292e+01
6.821789e+00
6.821789e+00
3.346110e+01
3.346110e+01
1.178430e+01
1.178430e+01
5.559197e+00
5.559197e+00
2.489507e+01
2.489507e+01
2.507290e+01
2.507290e+01
2.601546e+01
2.601546e+01
3.177416e+01
3.177416e+01
1.795744e+01
1.795744e+01
-4.033455e+01
-4.033455e+01
2.353400e+01
2.353400e+01
-5.704687e+00
-5.704687e+00
2.302148e+01
2.302148e+01
5.521342e+01
5.521342e+01
-3.378370e+00
-3.378370e+00
2.666479e+01
2.666479e+01
7.597292e+01
7.597292e+01
1.615338e+01
1.615338e+01
-1.234177e+01
-1.234177e+01
-6.584378e-02
-6.584378e-02
-8.204032e+01
-8.204032e+01
-1.818959e+01
-1.818959e+01
1.395776e+02
1.395776e+02
6.209623e+00
6.209623e+00
-1.155426e+01
-1.155426e+01
-1.732415e+01
-1.732415e+01
-2.839748e+01
-2.839748e+01
-1.226479e+01
-1.226479e+01
6.904559e+00
6.904559e+00
-5.761781e-01
-5.761781e-01
1.890641e+01
1.890641e+01
3.870344e+01
3.870344e+01
9.013203e+01
9.013203e+01
5.606014e+01
5.606014e+01
-1.071616e+01
-1.071616e+01
-1.558652e+01
-1.558652e+01
2.086399e+01
2.086399e+01
3.984082e+01
3.984082e+01
3.699938e+01
3.699938e+01
2.424483e+01
2.424483e+01
2.707688e+01
2.707688e+01
-3.629037e+01
-3.629037e+01
2.681178e+01
2.681178e+01
3.775146e+01
3.775146e+01
3.005424e+01
3.005424e+01
4.991814e+01
4.991814e+01
-4.644121e+01
-4.644121e+01
8.062966e+00
8.062966e+00
6.116760e+01
6.116760e+01
6.611263e+01
6.611263e+01
8.232595e+01
8.232595e+01
1.041610e+02
1.041610e+02
7.879714e+01
7.879714e+01
3.920580e+01
3.920580e+01
2.110965e+01
2.110965e+01
3.109903e+01
3.109903e+01
2.682401e+01
2.682401e+01
5.791606e+01
5.791606e+01
1.723340e+01
1.723340e+01
-3.664335e+01
-3.664335e+01
-1.829394e+01
-1.829394e+01
-2.326451e+00
-2.326451e+00
-1.620347e+01
-1.620347e+01
-2.729786e+01
-2.729786e+01
-2.415728e+01
-2.415728e+01
-1.470518e+01
-1.470518e+01
-3.227204e+00
-3.227204e+00
2.938276e+00
2.938276e+00
1.107973e+01
1.107973e+01
-5.387165e+00
-5.387165e+00
9.843262e+00
9.843262e+00
2.591138e+01
2.591138e+01
2.943366e+01
2.943366e+01
3.258110e+01
3.258110e+01
8.451021e+01
8.451021e+01
6.359585e+01
6.359585e+01
4.498261e+01
4.498261e+01
2.155491e+01
2.155491e+01
2.626283e+01
2.626283e+01
2.331842e+01
2.331842e+01
-2.540641e+01
-2.540641e+01
-3.615298e+01
-3.615298e+01
-3.332938e+01
-3.332938e+01
-4.427902e+01
-4.427902e+01
-3.462311e+01
-3.462311e+01
-3.899904e-01
-3.899904e-01
2.952605e+01
2.952605e+01
2.193328e+01
2.193328e+01
-9.179183e+00
-9.179183e+00
-2.385546e+01
-2.385546e+01
-8.345257e+00
-8.345257e+00
1.606618e+01
1.606618e+01
3.592067e+01
3.592067e+01
3.241434e+01
3.241434e+01
1.021944e+01
1.021944e+01
6.986845e-01
6.986845e-01
2.942874e+01
2.942874e+01
2.284615e+01
2.284615e+01
3.677039e+01
3.677039e+01
1.588506e+01
1.588506e+01
1.227128e+00
1.227128e+00
-2.235433e+01
-2.235433e+01
-2.685320e+01
-2.685320e+01
-2.190720e+01
-2.190720e+01
-3.049232e+01
-3.049232e+01
-2.028932e+01
-2.028932e+01
1.695149e+00
1.695149e+00
4.465017e+01
4.465017e+01
5.481856e+01
5.481856e+01
4.663126e+01
4.663126e+01
1.640192e+01
1.640192e+01
-5.111627e+01
-5.111627e+01
-3.278706e+01
-3.278706e+01
1.186174e+01
1.186174e+01
3.269474e+01
3.269474e+01
2.399197e+01
2.399197e+01
-1.758322e+01
-1.758322e+01
-1.633420e+01
-1.633420e+01
1.286682e+01
1.286682e+01
-3.229083e+00
-3.229083e+00
-5.466963e-01
-5.466963e-01
-9.685206e+00
-9.685206e+00
-7.491580e+00
-7.491580e+00
-1.553214e+01
-1.553214e+01
5.033589e+00
5.033589e+00
-3.156912e+00
-3.156912e+00
-1.943614e+01
-1.943614e+01
-2.358981e+01
-2.358981e+01
-1.380117e+01
-1.380117e+01
1.701873e+01
1.701873e+01
7.928518e-01
7.928518e-01
-4.124925e-01
-4.124925e-01
2.380288e+01
2.380288e+01
-1.271678e+01
-1.271678e+01
-4.802478e+01
-4.802478e+01
4.029054e+00
4.029054e+00
6.180450e+00
6.180450e+00
-1.596306e+01
-1.596306e+01
-2.340485e+01
-2.340485e+01
-4.510821e+01
-4.510821e+01
2.065310e+01
2.065310e+01
1.100825e+01
1.100825e+01
1.763269e+01
1.763269e+01
-3.568923e+00
-3.568923e+00
2.865264e+01
2.865264e+01
2.939444e+01
2.939444e+01
1.768220e+01
1.768220e+01
1.140815e+01
1.140815e+01
3.060694e+00
3.060694e+00
-8.600257e+00
-8.600257e+00
-4.752564e+01
-4.752564e+01
-3.122049e+01
-3.122049e+01
-3.195368e+01
-3.195368e+01
-5.205505e+00
-5.205505e+00
4.755189e+01
4.755189e+01
4.138386e+01
4.138386e+01
3.348627e+01
3.348627e+01
2.239044e+01
2.239044e+01
-2.092111e+01
-2.092111e+01
-4.026342e+01
-4.026342e+01
-6.158175e+01
-6.158175e+01
-1.139280e+02
-1.139280e+02
-2.498968e+00
-1.391439e+00
-1.508192e-01
1.597059e+00
7.466655e+00
1.172146e+01
-3.229756e+00
-2.136929e+00
-2.401016e-01
1.797915e+00
8.290495e+00
1.354906e+01
2.129084e+00
8.115190e-01
-3.767883e-01
8.660064e-01
9.183160e+00
1.638678e+01
1.312800e+01
7.721348e+00
2.005318e+00
2.641128e+00
7.552838e+00
1.151936e+01
1.316677e+01
7.782318e+00
1.665955e+00
6.729643e-01
-1.299261e+00
-3.010410e+00
7.827057e+00
3.468502e+00
-4.910573e-01
-1.300488e+00
-6.194299e+00
-9.879684e+00
1.061185e+01
5.126213e+00
2.333298e+00
2.817950e+00
-4.443170e+00
-9.496224e+00
1.033768e+01
5.453713e+00
2.061953e+00
1.351111e+00
-7.340024e+00
-1.382811e+01
8.187911e+00
4.811844e+00
7.428938e-01
-3.721718e-01
-9.952987e+00
-1.911162e+01
4.041390e+00
4.445374e-01
1.438009e+00
7.181939e+00
-9.718926e-01
-1.027933e+01
-1.483497e+00
-5.770002e+00
9.683444e-01
1.377665e+01
8.232097e+00
9.040827e-01
-2.230056e+00
-1.090314e+00
5.147812e-01
9.435408e-01
3.306438e+00
5.705930e+00
-3.406875e+00
-1.554075e+00
2.506071e-01
4.857233e-01
4.521867e+00
8.274777e+00
-3.672171e-01
1.928549e-01
7.630659e-03
-9.208967e-01
4.816782e+00
1.073769e+01
7.602188e+00
3.922630e+00
4.904221e-01
3.162975e-01
4.358116e+00
8.821408e+00
7.091052e+00
3.131498e+00
-5.656271e-01
7.739778e-02
2.473997e-01
3.680631e-02
4.259947e+00
2.333561e+00
6.672324e-01
8.727218e-03
-2.957751e+00
-5.005665e+00
8.413317e+00
5.507251e+00
4.025946e+00
2.862386e+00
-1.522342e+00
-3.318748e+00
9.512260e+00
5.217866e+00
2.226595e+00
1.443543e+00
-3.846810e+00
-7.050987e+00
7.635146e+00
3.877991e+00
4.653228e-01
-1.622719e-01
-6.069170e+00
-1.100399e+01
5.666785e-01
-9.571842e-01
-1.119550e-01
3.048726e+00
1.093364e+00
-1.653587e+00
-6.246142e+00
-6.403278e+00
-1.335522e+00
5.949263e+00
8.085797e+00
8.162438e+00
-4.799250e+00
-2.284079e+00
1.545460e+00
1.984975e+00
5.103536e-01
-8.941538e-02
-5.615588e+00
-2.479911e+00
1.454617e+00
1.261721e+00
1.461218e+00
2.652462e+00
-3.427022e+00
-1.405267e+00
3.057123e-01
-9.182598e-01
8.919644e-01
3.615385e+00
2.738745e-01
-7.178907e-02
-6.635095e-01
-1.477311e+00
1.544772e+00
5.134601e+00
-2.058746e+00
-1.944517e+00
-1.010334e+00
-2.614887e-01
2.146171e+00
4.624939e+00
-4.059009e+00
-2.122951e+00
6.873101e-01
1.498501e+00
1.479833e+00
1.524176e+00
1.240971e+00
2.066175e+00
3.887709e+00
3.802266e+00
3.178255e+00
3.636016e+00
5.692007e+00
3.887521e+00
2.377772e+00
1.924999e+00
1.442642e+00
1.707795e+00
4.205816e+00
1.835951e+00
-3.046766e-03
1.153454e-01
-3.306732e-02
2.309947e-01
-6.705951e+00
-4.608827e+00
-1.752786e+00
-1.848458e-01
4.590419e+00
8.556662e+00
-1.595212e+01
-9.612521e+00
-3.698735e+00
-1.414573e+00
8.160771e+00
1.502614e+01
-6.112718e-01
4.987953e-01
1.667237e+00
1.758774e+00
7.112310e-01
-3.694737e-01
4.336425e-01
4.037530e-01
9.650726e-01
1.418362e+00
1.288659e+00
1.296876e+00
-8.034471e-01
-1.763786e+00
-1.631066e+00
1.041146e-01
1.607673e+00
2.469109e+00
-5.054038e+00
-3.432722e+00
-1.734669e+00
-9.032879e-01
2.251922e+00
4.652487e+00
-3.128876e+00
-2.653733e+00
-1.623115e+00
-7.157994e-01
2.266081e+00
4.896121e+00
-3.705904e+00
-5.925305e+00
-4.826775e+00
5.602775e-01
2.127046e+00
1.624692e+00
-2.496189e+00
-3.048844e+00
-1.174316e+00
2.850959e+00
3.607513e+00
2.765975e+00
3.052778e+00
3.132003e+00
1.975716e+00
9.456285e-01
1.367407e+00
1.583763e+00
7.654097e-02
1.047641e+00
1.760494e-01
-1.262413e+00
-2.092457e-01
4.396914e-01
-7.391060e+00
-3.299286e+00
-7.429704e-01
-1.060594e+00
1.680014e+00
3.202786e+00
-1.201395e+01
-5.904465e+00
-1.889592e+00
-1.791724e+00
2.174822e+00
3.948891e+00
4.743735e+00
1.433779e+00
5.838655e-01
6.564329e-01
-1.624245e+00
-1.517447e+00
5.903304e+00
1.499494e+00
-6.661256e-01
-1.815078e-01
-2.110356e+00
-2.285633e+00
3.350194e+00
-1.534526e+00
-2.890883e+00
-1.067549e+00
-1.841674e+00
-9.107708e-01
5.902762e-01
-3.667436e+00
-2.571724e+00
3.363696e-01
3.718584e-01
2.852677e+00
6.058750e+00
-4.342451e-01
-2.101542e+00
1.190422e+00
8.557806e-01
2.054874e+00
1.256642e+00
-4.360312e+00
-5.389035e+00
2.539486e-01
2.478199e-01
-8.130622e-01
-9.058077e+00
-6.790728e+00
-2.341037e+00
1.670110e+00
2.838696e+00
2.178478e+00
-6.238705e+00
-3.473241e+00
6.041283e-01
2.155972e+00
3.049317e+00
3.702722e+00
-3.446676e+00
-2.803344e+00
-1.195892e+00
9.002226e-01
2.809558e+00
3.586899e+00
-1.069433e+00
3.437902e-01
-2.203878e+00
-3.326489e+00
9.775077e-02
6.837106e-01
2.332049e+00
2.376499e+00
-3.978427e+00
-7.566258e+00
-4.387699e+00
-4.020684e+00
3.072656e+00
-1.909000e+00
-2.562054e-01
1.475245e+00
-2.796465e+00
-2.165174e+00
3.292141e+00
-1.797118e+00
-1.094479e+00
1.501703e-01
-4.628835e+00
-4.860590e+00
4.316756e+00
-1.926204e+00
-2.300257e+00
-1.472046e+00
-5.565169e+00
-4.617597e+00
9.760002e+00
-7.369180e-01
-1.976655e+00
1.533225e+00
-1.833976e+00
5.461266e-01
1.324242e+01
2.069264e+00
-1.803125e-01
3.807634e+00
-3.223199e-01
4.833628e-01
1.114237e+00
-2.314535e+00
-1.575422e+00
1.066403e+00
-1.077584e+00
-1.695511e+00
-1.685662e+01
-9.239706e+00
-2.766163e-01
2.336013e+00
3.420390e+00
3.238311e+00
-1.588579e+01
-1.041746e+01
-3.788697e-01
4.734709e+00
6.602700e+00
7.927376e+00
-5.717182e+00
-6.974205e+00
-2.937728e+00
4.508333e+00
8.156827e+00
9.652759e+00
2.139384e+00
4.274028e-01
-4.765467e+00
-3.816995e+00
2.857691e+00
5.103015e+00
7.796540e+00
4.373441e+00
-7.935752e+00
-1.250009e+01
-4.742998e+00
-1.307666e+00
SCALARS S22 float 1
LOOKUP_TABLE default
-2.053958e+01
6.429794e+01
5.360890e+01
2.029828e+01
-2.053958e+01
6.429794e+01
5.360890e+01
2.029828e+01
5.711825e+01
3.261054e+01
6.611721e+01
3.973032e+01
5.711825e+01
3.261054e+01
6.611721e+01
3.973032e+01
1.978489e+01
1.526065e+01
7.581966e+00
1.978489e+01
1.526065e+01
7.581966e+00
1.547718e+01
-5.828812e-01
2.548782e+01
2.643294e+01
1.547718e+01
-5.828812e-01
2.548782e+01
2.643294e+01
1.802765e+01
-4.187083e-01
1.802765e+01
-4.187083e-01
2.269443e+01
3.033594e+01
2.269443e+01
3.033594e+01
1.267661e+02
8.777186e+01
7.893469e+01
5.425274e+01
1.267661e+02
8.777186e+01
7.893469e+01
5.425274e+01
2.446445e+01
2.137939e+01
3.110602e+01
3.298436e+01
2.446445e+01
2.137939e+01
3.110602e+01
3.298436e+01
-1.771607e+01
5.969458e+01
1.972404e+01
-4.378428e+01
-1.771607e+01
5.969458e+01
1.972404e+01
-4.378428e+01
-3.321052e+01
-1.755505e+00
-3.321052e+01
-1.755505e+00
-7.067615e+01
-7.067615e+01
-8.082807e-01
-2.210684e+01
-8.082807e-01
-2.210684e+01
-1.451080e+01
1.329452e+01
-1.451080e+01
1.329452e+01
5.738743e+00
5.738743e+00
2.754766e+01
2.754766e+01
6.665900e+01
6.665900e+01
-5.651764e+00
-1.711886e+01
7.629349e+00
-5.651764e+00
-1.711886e+01
7.629349e+00
2.633231e+01
2.015852e+01
7.220679e+00
4.019637e+01
2.633231e+01
2.015852e+01
7.220679e+00
4.019637e+01
5.771141e+01
5.771141e+01
1.856324e+01
-1.735183e+01
1.856324e+01
-1.735183e+01
3.064918e+01
3.064918e+01
5.164912e+00
5.164912e+00
2.539200e+01
2.539200e+01
7.047581e+01
7.047581e+01
-3.632717e+00
-3.632717e+00
-1.612594e+01
-1.612594e+01
1.091912e+02
1.091912e+02
6.462301e+00
6.462301e+00
5.795029e+01
4.774879e+01
5.795029e+01
4.774879e+01
6.085041e+00
6.085041e+00
-8.715586e+00
-8.715586e+00
-2.603066e+01
-2.603066e+01
-3.998052e+01
-3.998052e+01
7.369409e+01
6.736987e+01
7.369409e+01
6.736987e+01
4.547313e+00
4.547313e+00
-3.890250e+01
-3.890250e+01
-6.689459e+01
-6.689459e+01
-7.594495e+01
-7.594495e+01
6.074989e+01
4.740270e+01
6.074989e+01
4.740270e+01
1.649440e+01
1.649440e+01
-2.883080e+01
-2.883080e+01
-2.464911e+01
-2.464911e+01
-1.746890e+01
-1.746890e+01
2.635820e+01
2.697204e+01
2.635820e+01
2.697204e+01
5.646911e+00
5.646911e+00
-2.291396e+01
-2.291396e+01
-8.531607e+00
-8.531607e+00
5.569945e+00
5.569945e+00
9.928363e+00
-4.029123e+01
9.928363e+00
-4.029123e+01
9.069472e-01
9.069472e-01
-8.654559e+00
-8.654559e+00
-1.802198e+01
-1.802198e+01
-2.580502e+01
-2.580502e+01
-2.442112e+01
-5.356105e+01
-2.442112e+01
-5.356105e+01
-1.758058e+01
-1.758058e+01
-1.790396e+01
-1.790396e+01
-4.929491e+00
-4.929491e+00
-5.040342e+00
-5.040342e+00
-2.426417e+01
-4.068879e+01
-2.426417e+01
-4.068879e+01
-1.125679e+01
-1.125679e+01
-1.352499e+01
-1.352499e+01
-5.626336e+00
-5.626336e+00
4.031747e+00
4.031747e+00
1.179337e+01
-1.384225e+01
1.179337e+01
-1.384225e+01
2.065188e+01
2.065188e+01
2.316053e+01
2.316053e+01
8.565064e+00
8.565064e+00
4.320284e+00
4.320284e+00
1.473079e+01
9.920066e+00
1.473079e+01
9.920066e+00
9.991983e+00
9.991983e+00
6.676376e+00
6.676376e+00
2.515434e+01
2.515434e+01
5.399196e+01
5.399196e+01
9.511176e+00
3.094503e-01
9.511176e+00
3.094503e-01
1.338508e+01
1.338508e+01
-1.477593e+01
-1.477593e+01
-2.299155e+01
-2.299155e+01
-4.954546e+00
-4.954546e+00
1.242902e+00
1.187350e+01
1.242902e+00
1.187350e+01
1.852410e+01
1.852410e+01
-2.612517e+01
-2.612517e+01
-4.127034e+01
-4.127034e+01
-2.278022e+01
-2.278022e+01
-1.536473e+01
-8.475567e+00
-1.536473e+01
-8.475567e+00
-1.077172e+01
-1.077172e+01
-3.031220e+01
-3.031220e+01
-3.080468e+01
-3.080468e+01
-1.910495e+01
-1.910495e+01
2.293922e+01
-2.708900e+01
2.293922e+01
-2.708900e+01
2.213100e+01
2.213100e+01
1.806574e+01
1.806574e+01
-2.555749e+00
-2.555749e+00
-5.677461e+01
-5.677461e+01
6.729775e+01
9.331009e+00
6.729775e+01
9.331009e+00
8.108509e+01
8.108509e+01
5.523465e+01
5.523465e+01
7.350785e+00
7.350785e+00
-6.238393e+01
-6.238393e+01
3.146442e+00
-2.204109e+01
-1.529074e+01
-2.147875e+01
3.146442e+00
-2.204109e+01
-1.529074e+01
-2.147875e+01
-4.938068e+01
-2.000866e+01
-4.938068e+01
-2.000866e+01
-1.894185e+01
-9.184978e+00
-1.894185e+01
-9.184978e+00
-1.153744e+01
-1.153744e+01
-1.914476e+01
3.415550e+01
-1.914476e+01
3.415550e+01
-7.668058e+00
-7.668058e+00
6.506371e+01
2.659861e+01
6.506371e+01
2.659861e+01
2.823291e+01
2.823291e+01
4.991183e+01
6.571030e+00
4.991183e+01
6.571030e+00
1.102499e+01
1.102499e+01
-2.140317e+01
2.182511e+01
-2.140317e+01
2.182511e+01
-1.547236e+01
-1.547236e+01
5.560256e+01
5.833612e+01
5.560256e+01
5.833612e+01
1.311056e+01
1.311056e+01
-1.044554e+01
-1.044554e+01
-6.312323e+01
-6.312323e+01
-5.975709e+01
-5.975709e+01
-4.491247e+01
-4.491247e+01
6.446299e+01
1.116954e+02
6.446299e+01
1.116954e+02
2.959694e+01
2.959694e+01
3.081921e+01
3.081921e+01
-1.364248e+01
-1.364248e+01
-6.508473e+01
-6.508473e+01
-3.889028e+01
-3.889028e+01
-2.034935e+01
-2.034935e+01
-5.242260e+01
-5.242260e+01
1.153864e+00
1.153864e+00
5.456845e+01
5.456845e+01
3.772584e+01
3.772584e+01
-3.242137e+00
-3.242137e+00
4.736440e+01
4.736440e+01
1.809968e+01
1.809968e+01
1.841595e+01
2.804477e+01
3.745740e+01
2.616151e+01
1.841595e+01
2.804477e+01
3.745740e+01
2.616151e+01
2.986271e+01
4.690912e+01
3.852312e+01
2.496505e+01
2.986271e+01
4.690912e+01
3.852312e+01
2.496505e+01
-2.289242e+01
4.604152e+00
2.499469e+01
-3.182508e+01
-2.289242e+01
4.604152e+00
2.499469e+01
-3.182508e+01
-4.307783e+01
1.625792e+01
4.650295e+00
-4.307783e+01
1.625792e+01
4.650295e+00
2.756687e+01
4.548310e+01
2.756687e+01
4.548310e+01
-6.745063e+00
7.145854e+00
1.483613e+01
-8.488835e+00
-6.745063e+00
7.145854e+00
1.483613e+01
-8.488835e+00
9.492462e-01
2.018862e+01
9.492462e-01
2.018862e+01
2.628117e+01
2.576255e+01
2.628117e+01
2.576255e+01
6.598483e+00
2.533868e+01
3.271798e+01
6.598483e+00
2.533868e+01
3.271798e+01
9.560404e+00
9.560404e+00
5.771110e-01
-5.900952e+00
5.771110e-01
-5.900952e+00
8.067363e+00
3.529785e+00
8.067363e+00
3.529785e+00
3.227632e+00
3.227632e+00
-4.435757e+01
-4.435757e+01
-3.961298e+01
-8.075287e+01
-6.646673e+01
-3.961298e+01
-8.075287e+01
-6.646673e+01
-5.655368e+00
7.963777e+00
-4.598771e+00
-5.587156e+01
-5.655368e+00
7.963777e+00
-4.598771e+00
-5.587156e+01
-5.255530e+01
-1.853813e+01
-5.255530e+01
-1.853813e+01
-8.485528e+01
-8.485528e+01
-6.882988e+00
-1.790043e+01
-2.712791e+01
-3.003831e+00
-6.882988e+00
-1.790043e+01
-2.712791e+01
-3.003831e+00
-2.618575e+01
-2.618575e+01
-5.531227e+00
-5.531227e+00
2.981896e+01
2.981896e+01
5.319853e+01
5.319853e+01
2.641766e+01
2.641766e+01
4.508966e+01
4.508966e+01
-1.533751e+01
2.217279e+01
-1.533751e+01
2.217279e+01
1.846678e+01
1.670805e+01
1.846678e+01
1.670805e+01
-4.708694e-01
1.397911e+01
-4.708694e-01
1.397911e+01
-2.911306e+01
-2.331907e+01
-2.911306e+01
-2.331907e+01
2.739502e+00
-2.954984e+01
2.739502e+00
-2.954984e+01
-5.913386e+00
-2.073600e+01
-5.913386e+00
-2.073600e+01
2.780447e+00
-8.783990e+00
2.780447e+00
-8.783990e+00
2.552353e+01
7.894604e+00
2.552353e+01
7.894604e+00
2.851245e+01
3.007509e+01
2.851245e+01
3.007509e+01
2.392291e+00
4.140579e+01
2.392291e+00
4.140579e+01
-8.717467e+00
2.387882e+01
-8.717467e+00
2.387882e+01
-9.984617e-01
8.202109e+00
-9.984617e-01
8.202109e+00
-1.057804e+01
-2.361845e+01
-1.057804e+01
-2.361845e+01
-8.040119e+00
-4.238014e+01
-8.040119e+00
-4.238014e+01
3.998797e+01
3.998797e+01
1.445042e+01
1.445042e+01
1.465735e+01
1.465735e+01
-2.031472e+01
-2.031472e+01
-3.383034e+01
-3.383034e+01
-8.195121e+00
-8.195121e+00
-8.740355e+00
-8.740355e+00
-2.070666e+01
-2.070666e+01
-1.352594e+01
-1.352594e+01
1.193055e+01
1.193055e+01
1.443115e+01
1.443115e+01
3.353770e+01
3.353770e+01
1.889120e+01
1.889120e+01
-2.197427e+01
-2.197427e+01
3.020290e+01
3.020290e+01
2.452699e+01
2.452699e+01
3.867343e+00
3.867343e+00
-2.177253e+01
-2.177253e+01
-1.799598e+01
-1.799598e+01
9.926835e+00
9.926835e+00
1.290914e+01
1.290914e+01
-2.840855e+00
-2.840855e+00
-3.693433e+01
-3.693433e+01
-1.335464e+01
-1.335464e+01
2.498648e+01
2.498648e+01
5.110860e+01
5.110860e+01
6.274969e+01
6.274969e+01
4.927191e+01
4.927191e+01
2.877502e+01
2.877502e+01
3.479167e+01
3.479167e+01
6.237279e+00
6.237279e+00
-2.399885e+00
-2.399885e+00
-5.322607e+00
-5.322607e+00
-1.628609e+01
-1.628609e+01
6.087085e+00
6.087085e+00
-8.342637e+00
-8.342637e+00
-2.719702e+01
-2.719702e+01
3.739427e+00
3.739427e+00
2.256523e+01
2.256523e+01
4.331323e+01
4.331323e+01
4.795136e+01
4.795136e+01
3.380342e+01
3.380342e+01
1.665584e+01
1.665584e+01
3.634501e+01
3.634501e+01
-3.857519e+00
-3.857519e+00
1.508995e+01
1.508995e+01
6.603725e+00
6.603725e+00
-2.409760e+01
-2.409760e+01
2.329935e+01
2.329935e+01
-2.667841e+01
-2.667841e+01
-1.860045e+01
-1.860045e+01
4.971491e-01
4.971491e-01
-8.802634e+00
-8.802634e+00
3.065055e+01
3.065055e+01
-5.722219e-01
-5.722219e-01
-4.121630e+01
-4.121630e+01
-4.375825e-01
-1.824066e+01
-4.375825e-01
-1.824066e+01
1.643256e+00
1.643256e+00
-1.027330e+01
-1.027330e+01
2.300629e+01
2.300629e+01
2.220695e+01
2.220695e+01
-7.716730e+00
-7.716730e+00
-8.184438e+00
-8.184438e+00
1.062049e+01
1.062049e+01
1.615443e+00
1.296895e+01
1.615443e+00
1.296895e+01
-4.846957e+00
-4.846957e+00
2.756698e+00
2.756698e+00
1.324412e+01
1.324412e+01
-3.428074e-01
-3.428074e-01
-1.298282e+00
-1.298282e+00
5.571980e+00
5.571980e+00
7.756632e+00
7.756632e+00
-1.282019e+01
-8.727760e+00
-1.282019e+01
-8.727760e+00
3.017226e+00
3.017226e+00
-8.051031e+00
-8.051031e+00
-1.168816e+01
-1.168816e+01
-1.639802e+00
-1.639802e+00
-3.906998e+00
-3.906998e+00
1.557321e+00
1.557321e+00
4.776806e+00
4.776806e+00
-2.152298e+01
-1.505210e+00
-2.152298e+01
-1.505210e+00
-9.628967e+00
-9.628967e+00
-7.660877e+00
-7.660877e+00
-4.475171e-01
-4.475171e-01
6.501258e+00
6.501258e+00
4.374742e+00
4.374742e+00
2.549355e+00
2.549355e+00
-4.776968e+00
-4.776968e+00
-8.065835e+00
3.030031e+00
-8.065835e+00
3.030031e+00
2.846103e+00
2.846103e+00
6.060063e-01
6.060063e-01
5.283774e+00
5.283774e+00
2.257969e+00
2.257969e+00
-2.299154e+01
-2.299154e+01
-1.256719e+01
-1.256719e+01
-3.827461e+00
-3.827461e+00
-5.546676e+00
-1.802423e+01
-5.546676e+00
-1.802423e+01
5.774948e+00
5.774948e+00
3.376878e+00
3.376878e+00
7.629635e+00
7.629635e+00
3.902136e+00
3.902136e+00
5.974705e-01
5.974705e-01
9.692386e+00
9.692386e+00
2.170034e+01
2.170034e+01
-4.425101e-02
1.249780e+01
5.941973e+00
-7.266172e+00
-4.425101e-02
1.249780e+01
5.941973e+00
-7.266172e+00
-2.805799e+00
-8.780243e+00
-2.805799e+00
-8.780243e+00
-1.065771e+01
-6.346305e+00
-1.065771e+01
-6.346305e+00
-7.098023e+01
-4.946941e+01
-7.098023e+01
-4.946941e+01
-4.629435e+01
-4.493496e+01
-4.629435e+01
-4.493496e+01
1.023206e+02
4.791337e+01
1.023206e+02
4.791337e+01
1.314299e+02
5.236095e+01
1.314299e+02
5.236095e+01
2.138122e+01
1.348825e-01
2.138122e+01
1.348825e-01
-3.917497e+00
-3.917497e+00
3.808926e+00
3.808926e+00
-4.330043e+01
-4.330043e+01
-1.026855e+01
-1.026855e+01
5.483573e+01
5.483573e+01
4.097943e+01
4.097943e+01
2.020710e+01
2.020710e+01
1.219987e+01
1.219987e+01
8.883372e+00
8.883372e+00
-6.087319e+00
-6.087319e+00
8.542604e+00
8.542604e+00
1.870410e+01
1.870410e+01
-1.600941e+01
-1.600941e+01
-1.511952e+01
-1.511952e+01
-6.633041e+00
-6.633041e+00
-6.648217e+00
-6.648217e+00
4.229298e+00
4.229298e+00
-1.166989e+01
-1.166989e+01
1.597162e+00
1.597162e+00
2.644328e+01
2.644328e+01
9.703006e+00
9.703006e+00
-7.815113e+00
-7.815113e+00
6.656332e+00
6.656332e+00
3.977696e+00
3.977696e+00
-1.023745e+01
-1.023745e+01
2.362851e+01
-2.939732e-01
2.362851e+01
-2.939732e-01
9.852291e+00
-5.104972e+00
9.852291e+00
-5.104972e+00
-1.167832e+01
-1.336381e+01
-1.167832e+01
-1.336381e+01
7.055826e+00
7.392938e+00
7.055826e+00
7.392938e+00
4.111436e+00
9.816596e+00
4.111436e+00
9.816596e+00
-9.041189e+00
-9.041189e+00
3.220778e+00
3.220778e+00
9.368720e-01
9.368720e-01
8.811516e-01
8.811516e-01
-2.375638e+00
-2.375638e+00
-5.714437e+00
-5.714437e+00
-3.051602e+00
-3.051602e+00
-3.041881e+00
-3.041881e+00
1.350236e+01
1.350236e+01
5.818430e+00
5.818430e+00
-1.258748e+01
-1.258748e+01
-4.214904e+00
-4.214904e+00
-5.781802e-01
-5.781802e-01
4.605966e+00
4.605966e+00
1.222038e+00
1.222038e+00
3.539251e+00
3.539251e+00
-7.917603e+00
-7.917603e+00
1.420240e+00
1.420240e+00
-1.062119e+01
-1.062119e+01
-1.497986e+01
-1.497986e+01
2.469861e+01
2.469861e+01
-9.571285e+00
-9.571285e+00
9.105684e+00
9.105684e+00
4.663263e+00
4.663263e+00
4.470999e-01
4.470999e-01
-1.258735e+01
-1.258735e+01
-6.660813e+00
-6.660813e+00
2.055891e+01
2.055891e+01
-9.022347e+00
-9.022347e+00
-7.325327e+00
-7.325327e+00
-4.410937e+01
-4.410937e+01
-1.499133e+01
-1.499133e+01
1.694253e+01
1.694253e+01
-1.936378e+01
-1.936378e+01
2.187146e+00
2.187146e+00
-1.344951e+00
-1.344951e+00
1.527265e+01
1.527265e+01
5.732243e+00
5.732243e+00
7.195306e+00
7.195306e+00
2.401280e+00
2.401280e+00
-8.052362e+00
-8.052362e+00
-8.851114e+00
-8.851114e+00
5.012137e+00
5.012137e+00
3.555333e+00
3.555333e+00
-1.505272e+00
-1.505272e+00
-1.248962e+00
-1.248962e+00
-9.138275e-01
-9.138275e-01
-1.101875e+01
-1.101875e+01
-1.094154e+01
-1.094154e+01
9.265331e+00
9.265331e+00
2.815629e+01
2.815629e+01
3.295380e+00
3.295380e+00
2.865276e+00
2.865276e+00
-2.069765e+01
-2.069765e+01
-3.885680e+00
-3.885680e+00
-8.604115e+00
-8.604115e+00
1.537881e+01
1.537881e+01
1.546410e+01
1.546410e+01
4.580129e-01
4.580129e-01
6.068339e+00
6.068339e+00
1.621096e+01
1.621096e+01
-1.624672e+01
-1.624672e+01
-6.316376e+00
-6.316376e+00
9.005328e+00
9.005328e+00
3.075052e+00
3.075052e+00
1.482551e+01
1.482551e+01
-2.255541e+00
-2.255541e+00
2.383852e+00
2.383852e+00
-1.542960e+01
-1.542960e+01
-3.012725e+01
-3.012725e+01
-7.636727e+00
-7.636727e+00
-1.098124e+01
-1.098124e+01
4.696228e+00
4.696228e+00
-1.526748e+00
-1.526748e+00
-1.824743e+00
-1.824743e+00
-2.766609e+00
-2.766609e+00
-6.205681e+00
-6.205681e+00
-5.210232e+00
-5.210232e+00
8.052147e+00
8.052147e+00
1.255595e+01
1.255595e+01
2.369360e+01
2.369360e+01
2.121068e+01
2.121068e+01
8.446981e-01
8.446981e-01
-8.570274e-01
-8.570274e-01
-1.919577e+00
-1.919577e+00
2.676731e+00
2.676731e+00
9.766550e+00
9.766550e+00
-3.031328e+00
-3.031328e+00
9.701928e-03
9.701928e-03
8.870241e+00
8.870241e+00
4.565197e+00
4.565197e+00
-1.793393e+01
-1.793393e+01
-1.420302e+00
-1.420302e+00
-1.001465e+01
-1.001465e+01
6.798126e+00
6.798126e+00
8.025161e+00
8.025161e+00
1.722814e+01
1.722814e+01
6.277607e+00
6.277607e+00
-1.347774e+00
-1.347774e+00
9.966767e+00
9.966767e+00
8.392432e+00
8.392432e+00
9.117282e+00
9.117282e+00
9.485458e+00
9.485458e+00
2.674193e+00
2.674193e+00
2.920659e+01
2.920659e+01
2.878855e+01
2.878855e+01
1.066645e+00
1.066645e+00
4.210803e-01
4.210803e-01
2.941461e+00
2.941461e+00
4.776429e+00
4.776429e+00
3.083836e+01
3.083836e+01
2.256908e+01
2.256908e+01
-1.166012e+01
-1.166012e+01
-1.031168e+01
-1.031168e+01
-1.960454e+01
-1.960454e+01
-2.562121e+01
-2.562121e+01
-4.834760e+00
-4.834760e+00
1.360424e+01
1.360424e+01
-1.968264e+01
-1.968264e+01
-1.464751e+01
-1.464751e+01
-2.982109e+01
-2.982109e+01
-4.859517e+01
-4.859517e+01
-4.569283e+01
-4.569283e+01
-4.429281e+01
-4.429281e+01
-5.713204e+01
-5.713204e+01
-2.993541e+01
-2.993541e+01
1.106963e+01
1.106963e+01
1.459242e+01
1.459242e+01
-9.565176e+01
-9.565176e+01
-8.223045e+01
-8.223045e+01
-3.377147e+01
-3.377147e+01
1.819273e+00
1.819273e+00
2.346176e+00
2.346176e+00
-8.009787e+00
-8.009787e+00
-7.231082e+01
-7.231082e+01
-4.729010e+00
-4.729010e+00
3.843621e+01
3.843621e+01
-3.983974e-01
-3.983974e-01
-8.536586e+00
-8.536586e+00
-4.094289e+01
-4.094289e+01
-5.183593e+01
-5.183593e+01
1.911831e+01
1.911831e+01
-2.429495e+01
-2.429495e+01
2.409383e+00
2.409383e+00
-3.705831e+00
-3.705831e+00
-3.465526e+01
-3.465526e+01
-4.792601e+01
-4.792601e+01
-4.192025e+01
-4.192025e+01
-4.292472e+00
-4.292472e+00
-7.244087e-01
-7.244087e-01
-1.494552e+01
-1.494552e+01
-3.364076e+01
-3.364076e+01
-2.622720e+01
-2.622720e+01
-2.029010e+01
-2.029010e+01
4.350605e+01
4.350605e+01
-1.298556e+01
-1.298556e+01
5.566499e+00
5.566499e+00
6.960685e+00
6.960685e+00
2.455089e+00
2.455089e+00
2.500095e+01
2.500095e+01
-7.317605e+00
-7.317605e+00
1.906654e+01
1.906654e+01
2.914508e+01
2.914508e+01
3.120021e+01
3.120021e+01
4.216210e+01
4.216210e+01
4.380155e+01
4.380155e+01
2.928348e+01
2.928348e+01
1.976622e+00
1.976622e+00
-1.967373e+01
-1.967373e+01
-7.932315e+00
-7.932315e+00
-5.262481e+00
-5.262481e+00
1.548970e+01
1.548970e+01
1.416666e+00
1.416666e+00
-1.907640e+01
-1.907640e+01
-3.036002e+00
-3.036002e+00
7.235760e+00
7.235760e+00
4.770490e+00
4.770490e+00
5.124845e+00
5.124845e+00
-3.223546e+00
-3.223546e+00
-1.019165e+01
-1.019165e+01
2.301496e+00
2.301496e+00
2.496622e+00
2.496622e+00
5.887622e+00
5.887622e+00
-6.547309e+00
-6.547309e+00
5.529115e+00
5.529115e+00
1.761981e+01
1.761981e+01
5.508667e+00
5.508667e+00
-4.788344e+00
-4.788344e+00
2.825352e+01
2.825352e+01
1.109492e+01
1.109492e+01
-3.637098e+00
-3.637098e+00
-4.243945e+00
-4.243945e+00
1.438996e+01
1.438996e+01
1.972139e+01
1.972139e+01
-1.146347e+01
-1.146347e+01
-1.372587e+01
-1.372587e+01
-8.032706e+00
-8.032706e+00
-1.271704e+01
-1.271704e+01
-5.229701e+00
-5.229701e+00
3.945981e+00
3.945981e+00
-2.108245e+00
-2.108245e+00
-5.613296e+00
-5.613296e+00
1.805115e+00
1.805115e+00
3.881430e+00
3.881430e+00
6.246986e+00
6.246986e+00
1.257721e+01
1.257721e+01
1.561590e+01
1.561590e+01
4.612103e+00
4.612103e+00
-1.221379e+01
-1.221379e+01
-2.086523e+01
-2.086523e+01
-6.582942e+00
-6.582942e+00
-6.892934e+00
-6.892934e+00
8.892371e+00
8.892371e+00
3.171541e+00
3.171541e+00
3.703712e+00
3.703712e+00
8.501091e-01
8.501091e-01
1.965921e+00
1.965921e+00
2.090803e+00
2.090803e+00
-2.951310e+00
-2.951310e+00
4.722816e+00
4.722816e+00
9.981633e+00
9.981633e+00
1.660311e+01
1.660311e+01
-9.425985e-01
-9.425985e-01
-1.725973e+01
-1.725973e+01
-2.012763e+01
-2.012763e+01
-2.853571e+01
-2.853571e+01
-1.145551e+01
-1.145551e+01
1.218416e+01
1.218416e+01
1.016583e+01
1.016583e+01
2.207037e+00
2.207037e+00
-1.728032e+00
-1.728032e+00
2.192784e+00
2.192784e+00
-1.226110e+01
-1.226110e+01
-2.191132e+01
-2.191132e+01
-2.946898e+00
-2.946898e+00
1.331595e+00
1.331595e+00
9.512834e-01
9.512834e-01
-7.015807e-01
-7.015807e-01
1.346079e+01
1.346079e+01
5.142870e-02
5.142870e-02
-1.031508e+01
-1.031508e+01
-1.118982e+01
-1.118982e+01
-7.222241e-01
-7.222241e-01
8.641154e+00
8.641154e+00
-1.827294e+01
-1.827294e+01
-8.459703e+00
-8.459703e+00
-4.007577e+01
-4.007577e+01
-4.203518e+01
-4.203518e+01
-5.331234e+01
-5.331234e+01
-4.106953e+01
-4.106953e+01
5.926409e+00
5.926409e+00
2.746894e+00
2.746894e+00
1.657836e+01
1.657836e+01
1.066797e+01
1.066797e+01
-1.340623e+00
-1.340623e+00
-8.825298e+00
-8.825298e+00
1.449633e+01
1.449633e+01
-5.416718e-01
-5.416718e-01
1.426333e+01
1.426333e+01
1.372286e+01
1.372286e+01
5.445098e+00
5.445098e+00
-9.745096e-01
-9.745096e-01
-1.583585e+00
-1.583585e+00
3.488546e+00
3.488546e+00
-1.288921e+01
-1.288921e+01
3.979879e-01
3.979879e-01
-1.113400e+01
-1.113400e+01
-1.079484e+01
-1.079484e+01
-5.061845e+01
-5.061845e+01
-3.861001e+01
-3.861001e+01
-6.390695e+01
-6.390695e+01
-8.188243e+01
-8.188243e+01
2.422234e+01
2.422234e+01
2.669183e+01
2.669183e+01
-1.302116e+01
-1.302116e+01
-2.661093e+01
-2.661093e+01
-3.525322e+00
-1.803191e+00
-1.163337e+00
-1.020366e+00
3.391176e+00
6.577471e+00
-4.723928e+00
-2.890000e+00
-1.427163e+00
-9.947522e-01
3.351149e+00
6.893549e+00
-1.868638e+00
-1.181456e+00
-1.043004e+00
-8.187421e-01
4.817903e+00
9.681557e+00
5.707661e+00
3.899234e+00
2.224234e+00
2.927720e+00
5.571842e+00
7.645905e+00
4.305113e+00
2.953071e+00
1.773830e+00
1.138836e+00
-2.444943e+00
-5.220926e+00
-4.550903e-03
-6.265754e-01
-8.949681e-01
-2.167011e+00
-8.020283e+00
-1.224788e+01
5.306101e+00
2.111922e+00
1.509358e+00
1.789045e+00
-6.453422e+00
-1.238396e+01
7.386361e+00
3.163161e+00
1.285548e+00
1.364702e+00
-9.017565e+00
-1.713340e+01
8.674112e+00
5.007982e+00
1.249405e+00
-1.536443e-01
-1.208543e+01
-2.270661e+01
7.842916e+00
3.569561e+00
3.440406e+00
7.509040e+00
-3.327852e+00
-1.408918e+01
3.108864e+00
-1.749086e+00
3.440275e+00
1.438878e+01
6.055181e+00
-3.179605e+00
-1.745542e-01
4.302737e-01
4.119440e-01
-6.118208e-01
1.205062e+00
3.422552e+00
-2.202278e+00
-9.720039e-01
-5.796528e-01
-1.525778e+00
1.189601e+00
4.013181e+00
-2.737930e+00
-1.956232e+00
-1.584904e+00
-2.397781e+00
7.143506e-01
4.228989e+00
3.224090e+00
1.829611e+00
1.051622e+00
8.427146e-01
1.668354e+00
3.319390e+00
4.166460e+00
3.009296e+00
1.624287e+00
9.610387e-01
-1.495392e+00
-3.516420e+00
1.109801e+00
5.956550e-01
2.248412e-01
-1.009434e+00
-5.149106e+00
-7.911169e+00
3.991397e+00
2.050776e+00
1.761448e+00
9.007497e-01
-3.862264e+00
-6.113285e+00
4.963529e+00
1.932294e+00
7.735232e-01
7.957596e-01
-5.099836e+00
-9.145204e+00
5.500190e+00
2.553517e+00
8.166750e-01
9.530407e-01
-6.298468e+00
-1.247651e+01
3.039638e+00
1.560604e+00
2.636514e+00
5.216576e+00
7.976804e-01
-3.646333e+00
-1.396118e+00
-1.852667e+00
2.566739e+00
8.417401e+00
7.491870e+00
5.591633e+00
4.656088e+00
3.166078e+00
1.432478e+00
5.169690e-01
2.682748e-01
6.914998e-01
2.986274e+00
2.288548e+00
9.391758e-01
-5.460015e-01
3.124648e-01
2.004462e+00
3.496669e-01
-2.742206e-01
-3.904914e-01
-1.171897e+00
-1.675320e+00
-8.897203e-01
8.580601e-01
-6.143856e-01
-2.564053e-01
6.898279e-01
-9.524643e-01
-1.710564e+00
3.110612e+00
1.311498e+00
5.400004e-01
1.436528e+00
1.293244e-02
-1.279575e+00
3.115920e+00
1.889241e+00
1.170618e+00
8.360959e-01
-1.380732e+00
-2.754982e+00
1.400738e+00
1.312204e+00
1.799210e+00
1.028018e+00
3.162991e-01
9.513133e-01
1.359410e+00
1.881035e-01
-3.778316e-01
2.016755e-01
5.301529e-01
8.844946e-01
6.767252e-01
-9.552682e-01
-3.954161e-01
1.971122e+00
1.742729e+00
1.339643e+00
-6.479165e+00
-3.573873e+00
1.127277e+00
3.645548e+00
7.070597e+00
9.773232e+00
-1.205057e+01
-5.599235e+00
6.665835e-01
2.609782e+00
1.009848e+01
1.545846e+01
2.479170e+00
1.549345e+00
4.464503e-01
3.068069e-01
4.505449e-01
5.608558e-01
2.463829e+00
1.892895e+00
5.715922e-01
-3.753243e-01
8.675353e-01
2.306942e+00
3.425757e+00
2.045942e+00
3.244598e-01
-7.267193e-02
8.849934e-01
1.898124e+00
1.714830e+00
-3.140123e-01
-6.305754e-01
1.748646e+00
1.560793e+00
7.059966e-01
-6.447188e-01
-3.644276e+00
-3.276846e+00
8.933910e-01
5.809032e-01
-5.348344e-01
-5.131078e-01
-4.018744e+00
-4.351257e+00
-9.002674e-01
-1.738736e+00
-2.855070e+00
1.188230e+00
-3.629956e-01
-4.971493e-01
5.530917e-01
-1.288819e-01
-4.440244e-01
-7.491861e-01
-6.414011e-01
-3.640256e-01
1.120191e-01
5.467851e-01
6.750967e-01
-4.400589e+00
-2.402835e+00
-3.738802e-01
7.508025e-01
2.422759e+00
3.001234e+00
-7.211952e+00
-3.030142e+00
6.720162e-01
2.256523e+00
5.551408e+00
6.782133e+00
-1.020770e+01
-5.043822e+00
-1.004118e+00
1.127161e+00
5.605479e+00
6.828341e+00
7.316903e+00
3.981221e+00
1.647511e+00
6.962321e-02
-2.085057e+00
-1.659876e+00
4.554019e+00
3.658652e+00
2.199627e+00
-7.968516e-01
-2.392635e+00
-1.555599e+00
-2.439045e+00
-6.874080e-01
9.362452e-01
-1.134894e+00
-8.487374e-01
1.380575e+00
1.554054e+00
-2.269430e+00
-3.032279e+00
4.771692e-01
2.827698e+00
4.729413e+00
1.005882e+01
1.140834e+00
-4.902631e+00
-2.789581e-01
1.553206e+00
1.636216e+00
5.009157e+00
-1.752360e+00
-5.263879e+00
-2.301390e+00
-2.949053e+00
-3.309207e+00
-5.289052e-01
-1.154341e+00
4.095209e-01
1.070988e+00
-8.822940e-01
-1.307747e+00
-5.728464e+00
-9.992557e-01
4.451103e+00
3.848785e+00
2.276663e+00
2.028007e+00
-9.404670e+00
-4.583849e+00
7.314816e-01
2.701558e+00
5.267762e+00
6.358398e+00
-4.210172e+00
-2.833744e+00
-4.628180e+00
-2.677929e+00
4.047685e+00
5.652182e+00
-3.321109e-01
-1.803968e+00
-8.543961e+00
-7.687443e+00
-4.741026e-01
6.145857e-01
1.581143e+01
8.532168e+00
3.279853e+00
7.628457e-01
-3.553602e+00
-3.326098e+00
9.833555e+00
7.162617e+00
4.866563e+00
1.217452e-01
-4.923464e+00
-4.848971e+00
-7.423048e+00
-3.284133e+00
2.569393e+00
-4.914190e-01
-3.428900e+00
-1.590959e+00
6.540494e-01
-4.899594e+00
-5.195226e+00
7.899286e-02
2.864015e+00
5.632829e+00
2.360049e+01
9.127694e+00
-3.646313e+00
-2.548833e-01
2.516311e+00
3.594865e+00
1.505222e+01
6.493365e+00
-8.286573e-01
-1.278195e+00
-2.904172e+00
-2.843780e+00
-3.309489e+00
-9.479110e-01
3.398222e+00
3.079374e+00
3.968794e-01
1.778948e-02
-9.780433e+00
-1.040929e+00
8.613095e+00
7.650066e+00
5.702169e+00
5.631820e+00
-1.098098e+01
-6.371614e+00
1.035946e+00
5.784028e+00
9.686972e+00
1.164003e+01
-5.191131e+00
-6.306597e+00
-1.017846e+01
-5.501922e+00
6.210534e+00
1.049005e+01
1.551139e+00
-2.762514e+00
-1.543972e+01
-1.485567e+01
-8.907589e-01
4.126545e+00
SCALARS S33 float 1
LOOKUP_TABLE default
-5.526724e+01
7.537742e+01
6.308008e+01
-2.435860e+01
-5.526724e+01
7.537742e+01
6.308008e+01
-2.435860e+01
4.932680e+01
4.781866e+01
9.951055e+01
4.334646e+01
4.932680e+01
4.781866e+01
9.951055e+01
4.334646e+01
1.310612e+01
3.048993e+01
2.182944e+01
1.310612e+01
3.048993e+01
2.182944e+01
3.820536e+01
1.888651e+01
2.843022e+01
2.704285e+01
3.820536e+01
1.888651e+01
2.843022e+01
2.704285e+01
4.316341e+01
1.412940e+01
4.316341e+01
1.412940e+01
4.093846e+01
3.487191e+01
4.093846e+01
3.487191e+01
1.180814e+02
8.158507e+01
7.243031e+01
4.431114e+01
1.180814e+02
8.158507e+01
7.243031e+01
4.431114e+01
2.738193e+01
3.357622e+01
2.957679e+01
2.872418e+01
2.738193e+01
3.357622e+01
2.957679e+01
2.872418e+01
-1.963999e+01
6.748293e+01
2.685255e+01
-3.065131e+01
-1.963999e+01
6.748293e+01
2.685255e+01
-3.065131e+01
-4.016111e+01
3.676938e+01
-4.016111e+01
3.676938e+01
-9.178830e+01
-9.178830e+01
-9.370699e+00
8.208732e+00
-9.370699e+00
8.208732e+00
-7.496268e+00
-1.624827e+01
-7.496268e+00
-1.624827e+01
2.279610e+01
2.279610e+01
8.812719e+01
8.812719e+01
4.874620e+01
4.874620e+01
-9.019550e+00
-2.036049e+01
1.537790e+00
-9.019550e+00
-2.036049e+01
1.537790e+00
2.372286e+01
1.768316e+01
3.354883e+00
3.850746e+01
2.372286e+01
1.768316e+01
3.354883e+00
3.850746e+01
5.506967e+01
5.506967e+01
4.676496e+00
-2.411109e+01
4.676496e+00
-2.411109e+01
4.207674e+01
4.207674e+01
-6.863335e+00
-6.863335e+00
1.661712e+01
1.661712e+01
6.511641e+01
6.511641e+01
3.901811e+00
3.901811e+00
6.149801e+00
6.149801e+00
1.046600e+02
1.046600e+02
-5.175953e+00
-5.175953e+00
6.185452e+01
4.977128e+01
6.185452e+01
4.977128e+01
5.509229e+00
5.509229e+00
-1.244309e+01
-1.244309e+01
-2.780418e+01
-2.780418e+01
-4.246118e+01
-4.246118e+01
7.841574e+01
6.681289e+01
7.841574e+01
6.681289e+01
4.863307e+00
4.863307e+00
-4.161548e+01
-4.161548e+01
-6.815265e+01
-6.815265e+01
-7.694857e+01
-7.694857e+01
6.606385e+01
4.517277e+01
6.606385e+01
4.517277e+01
1.792401e+01
1.792401e+01
-3.045188e+01
-3.045188e+01
-2.451376e+01
-2.451376e+01
-1.776606e+01
-1.776606e+01
3.353434e+01
2.467264e+01
3.353434e+01
2.467264e+01
8.416294e+00
8.416294e+00
-2.576380e+01
-2.576380e+01
-8.105900e+00
-8.105900e+00
5.603869e+00
5.603869e+00
1.188708e+01
-3.812959e+01
1.188708e+01
-3.812959e+01
1.900986e+00
1.900986e+00
-9.367648e+00
-9.367648e+00
-1.814122e+01
-1.814122e+01
-2.539034e+01
-2.539034e+01
-2.708510e+01
-5.094329e+01
-2.708510e+01
-5.094329e+01
-1.704045e+01
-1.704045e+01
-1.545415e+01
-1.545415e+01
-6.127580e+00
-6.127580e+00
-5.391003e+00
-5.391003e+00
-2.667290e+01
-4.036923e+01
-2.667290e+01
-4.036923e+01
-1.331681e+01
-1.331681e+01
-1.395907e+01
-1.395907e+01
-6.427392e+00
-6.427392e+00
4.085164e+00
4.085164e+00
8.300150e+00
-1.311705e+01
8.300150e+00
-1.311705e+01
1.478785e+01
1.478785e+01
2.106627e+01
2.106627e+01
8.878084e+00
8.878084e+00
4.203350e+00
4.203350e+00
1.476130e+01
1.008965e+01
1.476130e+01
1.008965e+01
8.856537e+00
8.856537e+00
6.458975e+00
6.458975e+00
2.577731e+01
2.577731e+01
5.334189e+01
5.334189e+01
1.525002e+01
-6.227292e-01
1.525002e+01
-6.227292e-01
1.833998e+01
1.833998e+01
-1.498645e+01
-1.498645e+01
-2.270343e+01
-2.270343e+01
-5.022688e+00
-5.022688e+00
4.349570e+00
1.292069e+01
4.349570e+00
1.292069e+01
2.063533e+01
2.063533e+01
-2.680806e+01
-2.680806e+01
-4.118139e+01
-4.118139e+01
-2.275049e+01
-2.275049e+01
-1.670558e+01
-6.892837e+00
-1.670558e+01
-6.892837e+00
-1.325296e+01
-1.325296e+01
-3.159337e+01
-3.159337e+01
-3.059427e+01
-3.059427e+01
-1.884785e+01
-1.884785e+01
2.218358e+01
-2.820280e+01
2.218358e+01
-2.820280e+01
2.082750e+01
2.082750e+01
1.734777e+01
1.734777e+01
-2.631797e+00
-2.631797e+00
-5.681490e+01
-5.681490e+01
6.795033e+01
7.029533e+00
6.795033e+01
7.029533e+00
8.195053e+01
8.195053e+01
5.584106e+01
5.584106e+01
7.225685e+00
7.225685e+00
-6.287637e+01
-6.287637e+01
8.300883e+00
-1.735161e+01
-1.717001e+01
-3.223734e+01
8.300883e+00
-1.735161e+01
-1.717001e+01
-3.223734e+01
-4.754183e+01
-1.911583e+01
-4.754183e+01
-1.911583e+01
-2.421043e+01
-2.120915e+01
-2.421043e+01
-2.120915e+01
-1.219456e+01
-1.219456e+01
-1.779550e+01
3.438054e+01
-1.779550e+01
3.438054e+01
-5.939606e+00
-5.939606e+00
6.430373e+01
1.478727e+01
6.430373e+01
1.478727e+01
2.934922e+01
2.934922e+01
4.935905e+01
-1.623259e+01
4.935905e+01
-1.623259e+01
1.023109e+01
1.023109e+01
-1.548862e+01
5.337623e+00
-1.548862e+01
5.337623e+00
-1.523345e+01
-1.523345e+01
5.234755e+01
5.927589e+01
5.234755e+01
5.927589e+01
8.466751e+00
8.466751e+00
-1.599054e+01
-1.599054e+01
-6.370214e+01
-6.370214e+01
-5.911118e+01
-5.911118e+01
-4.431179e+01
-4.431179e+01
7.810244e+01
1.255892e+02
7.810244e+01
1.255892e+02
3.694334e+01
3.694334e+01
3.418002e+01
3.418002e+01
-1.614775e+01
-1.614775e+01
-6.698710e+01
-6.698710e+01
-3.478397e+01
-3.478397e+01
-1.449373e+01
-1.449373e+01
-7.012043e+01
-7.012043e+01
-1.950427e+01
-1.950427e+01
5.340395e+01
5.340395e+01
4.377979e+01
4.377979e+01
1.390183e+01
1.390183e+01
6.557020e+01
6.557020e+01
3.025104e+01
3.025104e+01
9.544272e+00
1.357415e+01
3.833135e+01
2.650891e+01
9.544272e+00
1.357415e+01
3.833135e+01
2.650891e+01
2.022135e+01
4.162856e+01
3.223344e+01
2.066051e+01
2.022135e+01
4.162856e+01
3.223344e+01
2.066051e+01
-1.981222e+01
8.455993e+00
1.106379e+01
-4.127989e+01
-1.981222e+01
8.455993e+00
1.106379e+01
-4.127989e+01
-3.565632e+01
2.449497e+01
-3.769216e-01
-3.565632e+01
2.449497e+01
-3.769216e-01
2.539963e+01
5.432128e+01
2.539963e+01
5.432128e+01
3.048166e+01
4.198440e+01
3.513833e+01
9.679294e+00
3.048166e+01
4.198440e+01
3.513833e+01
9.679294e+00
-6.052590e+00
9.195057e+00
-6.052590e+00
9.195057e+00
2.361396e+01
1.671019e+01
2.361396e+01
1.671019e+01
3.553411e+00
2.457859e+01
3.041959e+01
3.553411e+00
2.457859e+01
3.041959e+01
9.615725e+00
9.615725e+00
2.975028e+00
-1.598147e+00
2.975028e+00
-1.598147e+00
-9.434983e-03
2.307285e+01
-9.434983e-03
2.307285e+01
-1.129688e+01
-1.129688e+01
-4.170148e+01
-4.170148e+01
-2.653505e+01
-7.480696e+01
-8.329435e+01
-2.653505e+01
-7.480696e+01
-8.329435e+01
1.064402e+01
1.789571e+00
9.267570e+00
-3.314625e+01
1.064402e+01
1.789571e+00
9.267570e+00
-3.314625e+01
-2.606458e+01
-2.058339e+00
-2.606458e+01
-2.058339e+00
-6.805723e+01
-6.805723e+01
2.606497e+01
1.382147e+01
-2.320469e+01
1.335812e+01
2.606497e+01
1.382147e+01
-2.320469e+01
1.335812e+01
-3.054747e+01
-3.054747e+01
-2.475157e+00
-2.475157e+00
3.262459e+01
3.262459e+01
5.212988e+01
5.212988e+01
3.515584e+01
3.515584e+01
4.626080e+01
4.626080e+01
-1.840639e+01
2.144785e+01
-1.840639e+01
2.144785e+01
1.303522e+01
1.694011e+01
1.303522e+01
1.694011e+01
-3.085718e+00
1.526410e+01
-3.085718e+00
1.526410e+01
-2.386905e+01
-1.988271e+01
-2.386905e+01
-1.988271e+01
5.851427e+00
-2.855082e+01
5.851427e+00
-2.855082e+01
-8.115504e+00
-2.127930e+01
-8.115504e+00
-2.127930e+01
2.619253e+00
-1.093489e+01
2.619253e+00
-1.093489e+01
2.574268e+01
2.950911e+00
2.574268e+01
2.950911e+00
2.727662e+01
3.168124e+01
2.727662e+01
3.168124e+01
2.252547e-01
4.440039e+01
2.252547e-01
4.440039e+01
-1.091177e+01
2.070798e+01
-1.091177e+01
2.070798e+01
-2.348515e+00
6.069860e+00
-2.348515e+00
6.069860e+00
-1.046513e+01
-2.398941e+01
-1.046513e+01
-2.398941e+01
-7.148212e+00
-4.367968e+01
-7.148212e+00
-4.367968e+01
3.999602e+01
3.999602e+01
1.789551e+01
1.789551e+01
1.739463e+01
1.739463e+01
-1.814993e+01
-1.814993e+01
-3.056781e+01
-3.056781e+01
-9.772552e+00
-9.772552e+00
-1.395235e+01
-1.395235e+01
-2.403006e+01
-2.403006e+01
-1.232910e+01
-1.232910e+01
1.465822e+01
1.465822e+01
1.485344e+01
1.485344e+01
3.496033e+01
3.496033e+01
2.005650e+01
2.005650e+01
-2.295739e+01
-2.295739e+01
3.059306e+01
3.059306e+01
2.899174e+01
2.899174e+01
5.974684e+00
5.974684e+00
-2.296003e+01
-2.296003e+01
-1.463119e+01
-1.463119e+01
8.990658e+00
8.990658e+00
9.573743e+00
9.573743e+00
-5.764760e-01
-5.764760e-01
-3.695808e+01
-3.695808e+01
-1.323907e+01
-1.323907e+01
2.910831e+01
2.910831e+01
5.454669e+01
5.454669e+01
6.387402e+01
6.387402e+01
4.940429e+01
4.940429e+01
2.918983e+01
2.918983e+01
3.624577e+01
3.624577e+01
7.841121e+00
7.841121e+00
-1.471694e+00
-1.471694e+00
-4.025595e+00
-4.025595e+00
-1.590210e+01
-1.590210e+01
5.620038e+00
5.620038e+00
-8.368211e+00
-8.368211e+00
-2.689356e+01
-2.689356e+01
4.128126e+00
4.128126e+00
2.275909e+01
2.275909e+01
4.367559e+01
4.367559e+01
4.862539e+01
4.862539e+01
3.455871e+01
3.455871e+01
1.716251e+01
1.716251e+01
3.681884e+01
3.681884e+01
-3.231012e+00
-3.231012e+00
1.600801e+01
1.600801e+01
7.259362e+00
7.259362e+00
-2.360301e+01
-2.360301e+01
2.326798e+01
2.326798e+01
-2.699850e+01
-2.699850e+01
-1.777179e+01
-1.777179e+01
7.324320e-01
7.324320e-01
-9.658327e+00
-9.658327e+00
3.139356e+01
3.139356e+01
1.114266e+00
1.114266e+00
-3.996490e+01
-3.996490e+01
-1.285560e+00
-4.362216e+01
-1.285560e+00
-4.362216e+01
4.639969e+00
4.639969e+00
-1.253531e+01
-1.253531e+01
2.996087e+01
2.996087e+01
3.682707e+01
3.682707e+01
-1.517745e+01
-1.517745e+01
-3.686241e+01
-3.686241e+01
-1.859291e+01
-1.859291e+01
1.974416e+00
9.259100e+00
1.974416e+00
9.259100e+00
-4.652885e+00
-4.652885e+00
2.932829e+00
2.932829e+00
2.139797e+01
2.139797e+01
1.311060e+01
1.311060e+01
1.022048e+01
1.022048e+01
4.466294e+00
4.466294e+00
-2.468189e+00
-2.468189e+00
-8.702718e+00
1.432796e+00
-8.702718e+00
1.432796e+00
1.020035e+00
1.020035e+00
-2.050569e+01
-2.050569e+01
-2.913345e+01
-2.913345e+01
-5.277677e+00
-5.277677e+00
1.242045e+01
1.242045e+01
1.181177e+01
1.181177e+01
2.333193e+00
2.333193e+00
-2.048068e+01
2.658318e+00
-2.048068e+01
2.658318e+00
-2.431906e+00
-2.431906e+00
-5.096147e+00
-5.096147e+00
-1.017982e+01
-1.017982e+01
8.926597e+00
8.926597e+00
1.358503e+01
1.358503e+01
-3.356288e+00
-3.356288e+00
-1.951726e+01
-1.951726e+01
-2.311139e+00
-1.272696e+00
-2.311139e+00
-1.272696e+00
1.769823e+01
1.769823e+01
1.633559e+01
1.633559e+01
1.172253e+01
1.172253e+01
6.269517e+00
6.269517e+00
-2.492584e+01
-2.492584e+01
-2.989910e+01
-2.989910e+01
-2.776462e+01
-2.776462e+01
1.242062e+01
-7.417194e+00
1.242062e+01
-7.417194e+00
1.735431e+01
1.735431e+01
1.115353e+01
1.115353e+01
7.888025e+00
7.888025e+00
-1.986353e-01
-1.986353e-01
-3.149992e-01
-3.149992e-01
5.531348e+00
5.531348e+00
1.171705e+01
1.171705e+01
-2.408010e+00
8.846787e+00
5.584559e+00
-3.720363e+00
-2.408010e+00
8.846787e+00
5.584559e+00
-3.720363e+00
-1.341814e+00
5.469991e+00
-1.341814e+00
5.469991e+00
-2.506319e+00
1.674952e+01
-2.506319e+00
1.674952e+01
-6.174041e+01
-4.084655e+01
-6.174041e+01
-4.084655e+01
-3.865312e+01
-2.551572e+01
-3.865312e+01
-2.551572e+01
9.926517e+01
7.921510e+01
9.926517e+01
7.921510e+01
1.222214e+02
7.842152e+01
1.222214e+02
7.842152e+01
2.108446e+01
1.322881e-01
2.108446e+01
1.322881e-01
-6.308138e+00
-6.308138e+00
8.015317e+00
8.015317e+00
-3.462109e+01
-3.462109e+01
-1.172061e+01
-1.172061e+01
4.650138e+01
4.650138e+01
3.668045e+01
3.668045e+01
5.302734e+01
5.302734e+01
9.512045e+00
9.512045e+00
-4.659083e+00
-4.659083e+00
-2.262843e+01
-2.262843e+01
5.303508e+00
5.303508e+00
1.186845e+01
1.186845e+01
-2.257887e+01
-2.257887e+01
-1.751710e+01
-1.751710e+01
-4.378018e+00
-4.378018e+00
7.378028e+00
7.378028e+00
3.408135e+00
3.408135e+00
-1.618354e+01
-1.618354e+01
1.192083e+01
1.192083e+01
2.979501e+01
2.979501e+01
9.180934e+00
9.180934e+00
-3.995674e+00
-3.995674e+00
1.275842e+01
1.275842e+01
1.163627e+01
1.163627e+01
-6.441263e+00
-6.441263e+00
6.336851e+01
1.890907e+01
6.336851e+01
1.890907e+01
6.649416e+01
1.495514e+01
6.649416e+01
1.495514e+01
2.198186e+01
-2.180231e+01
2.198186e+01
-2.180231e+01
1.963379e+01
-7.683604e+00
1.963379e+01
-7.683604e+00
2.557559e+01
2.069431e+01
2.557559e+01
2.069431e+01
-5.166276e+00
-5.166276e+00
-5.034667e+00
-5.034667e+00
-2.497859e+01
-2.497859e+01
-1.527537e+01
-1.527537e+01
1.136427e+00
1.136427e+00
-1.523440e+01
-1.523440e+01
-2.392131e+01
-2.392131e+01
-2.115413e+01
-2.115413e+01
1.968246e+01
1.968246e+01
1.615587e+01
1.615587e+01
-1.942574e+01
-1.942574e+01
-1.931192e+01
-1.931192e+01
-4.659076e+00
-4.659076e+00
1.514272e+01
1.514272e+01
3.389078e+00
3.389078e+00
2.102356e+01
2.102356e+01
4.400111e+00
4.400111e+00
1.721436e+01
1.721436e+01
9.572516e-01
9.572516e-01
-1.630753e+01
-1.630753e+01
5.098480e+01
5.098480e+01
1.431956e+01
1.431956e+01
2.729128e+01
2.729128e+01
4.337659e+00
4.337659e+00
-4.057147e+00
-4.057147e+00
-1.138217e+01
-1.138217e+01
-1.429293e+01
-1.429293e+01
1.248622e+01
1.248622e+01
-3.117700e+01
-3.117700e+01
-2.036904e+01
-2.036904e+01
-6.150180e+01
-6.150180e+01
-4.729122e+01
-4.729122e+01
-9.278061e+00
-9.278061e+00
-4.882747e+01
-4.882747e+01
-1.387271e+01
-1.387271e+01
-2.364966e+01
-2.364966e+01
2.732528e+01
2.732528e+01
2.893242e+01
2.893242e+01
6.642801e+00
6.642801e+00
-1.469259e+01
-1.469259e+01
-8.126453e+00
-8.126453e+00
-2.146806e+01
-2.146806e+01
1.318579e+01
1.318579e+01
2.342042e+01
2.342042e+01
3.202947e+00
3.202947e+00
1.196304e+01
1.196304e+01
2.845677e+01
2.845677e+01
-3.889292e+01
-3.889292e+01
-3.774747e+01
-3.774747e+01
1.442244e+01
1.442244e+01
4.328294e+01
4.328294e+01
5.619169e+01
5.619169e+01
5.924400e+01
5.924400e+01
-5.554683e+01
-5.554683e+01
-5.653369e+01
-5.653369e+01
-8.765891e+00
-8.765891e+00
3.359296e+01
3.359296e+01
5.856902e+01
5.856902e+01
5.484840e+01
5.484840e+01
-1.003502e+01
-1.003502e+01
-1.394473e+01
-1.394473e+01
-1.668298e+01
-1.668298e+01
1.059769e+01
1.059769e+01
4.185659e+01
4.185659e+01
5.516519e+01
5.516519e+01
3.326243e+01
3.326243e+01
2.271989e+01
2.271989e+01
2.069202e+01
2.069202e+01
-3.514797e+00
-3.514797e+00
-9.034477e+00
-9.034477e+00
3.268323e+01
3.268323e+01
-1.223456e+01
-1.223456e+01
3.645650e+01
3.645650e+01
3.124547e+01
3.124547e+01
1.330455e+01
1.330455e+01
2.927770e+00
2.927770e+00
1.578971e+01
1.578971e+01
-2.320791e+01
-2.320791e+01
2.653241e+01
2.653241e+01
5.045039e+01
5.045039e+01
4.442013e+01
4.442013e+01
9.284281e+00
9.284281e+00
1.888688e+00
1.888688e+00
1.912554e+01
1.912554e+01
4.199766e+01
4.199766e+01
5.094033e+01
5.094033e+01
2.392234e+01
2.392234e+01
-4.001422e+01
-4.001422e+01
-3.448016e+01
-3.448016e+01
5.187978e+01
5.187978e+01
7.242768e+01
7.242768e+01
2.786551e+01
2.786551e+01
-8.107013e+00
-8.107013e+00
-4.654018e+01
-4.654018e+01
-2.964482e+01
-2.964482e+01
3.236272e+01
3.236272e+01
5.402833e+01
5.402833e+01
2.630707e+01
2.630707e+01
-1.736860e+01
-1.736860e+01
-1.800494e+01
-1.800494e+01
-3.304046e+01
-3.304046e+01
-1.152389e+00
-1.152389e+00
-1.687099e+01
-1.687099e+01
-9.251322e-01
-9.251322e-01
1.654317e+01
1.654317e+01
-1.994786e+01
-1.994786e+01
-6.347170e+01
-6.347170e+01
-2.705342e+01
-2.705342e+01
-3.635368e+01
-3.635368e+01
-8.511685e+00
-8.511685e+00
2.183337e+01
2.183337e+01
-2.111021e+01
-2.111021e+01
-8.453945e+01
-8.453945e+01
-3.490619e+01
-3.490619e+01
-4.546358e+01
-4.546358e+01
-4.111764e+01
-4.111764e+01
-1.203495e+01
-1.203495e+01
9.077894e+00
9.077894e+00
-1.542064e+01
-1.542064e+01
-3.498473e+01
-3.498473e+01
-7.266157e+01
-7.266157e+01
-9.687339e+01
-9.687339e+01
-4.550925e+01
-4.550925e+01
4.278361e+01
4.278361e+01
8.997971e+01
8.997971e+01
-4.728134e+01
-4.728134e+01
-2.392890e+01
-2.392890e+01
-1.519077e+01
-1.519077e+01
3.291556e+01
3.291556e+01
-3.474268e+01
-3.474268e+01
-1.151178e+02
-1.151178e+02
-3.451421e+01
-3.451421e+01
-5.301039e+00
-5.301039e+00
8.241820e+01
8.241820e+01
1.878378e+02
1.878378e+02
-5.717401e+01
-5.717401e+01
-2.455719e+02
-2.455719e+02
-4.589970e+01
-4.589970e+01
-1.088269e+01
-1.088269e+01
4.597447e+01
4.597447e+01
1.107920e+02
1.107920e+02
-6.913496e+00
-6.913496e+00
-1.033771e+02
-1.033771e+02
-3.856472e+01
-3.856472e+01
-7.618451e+00
-7.618451e+00
-9.847940e+00
-9.847940e+00
5.083579e+00
5.083579e+00
-2.971686e+01
-2.971686e+01
-1.357911e-01
-1.357911e-01
-3.921043e+01
-3.921043e+01
-1.908621e+01
-1.908621e+01
-2.031601e+01
-2.031601e+01
1.437577e+00
1.437577e+00
-7.473873e+00
-7.473873e+00
4.920004e+01
4.920004e+01
-3.836621e+01
-3.836621e+01
9.121433e+00
9.121433e+00
3.019250e+01
3.019250e+01
1.947573e+01
1.947573e+01
1.879952e+01
1.879952e+01
4.044482e+01
4.044482e+01
-7.275106e+00
-7.275106e+00
4.139224e+01
4.139224e+01
8.174867e+01
8.174867e+01
7.195170e+01
7.195170e+01
5.583910e+01
5.583910e+01
7.451644e+01
7.451644e+01
3.705114e+01
3.705114e+01
2.652724e+01
2.652724e+01
3.592414e+01
3.592414e+01
2.487001e+01
2.487001e+01
5.039851e+01
5.039851e+01
7.731226e+00
7.731226e+00
-4.704351e+01
-4.704351e+01
-2.325458e+01
-2.325458e+01
-3.306328e+00
-3.306328e+00
-1.588546e+01
-1.588546e+01
-2.500029e+01
-2.500029e+01
-2.429190e+01
-2.429190e+01
-4.084538e+01
-4.084538e+01
-3.664960e+01
-3.664960e+01
-3.961517e+00
-3.961517e+00
1.071038e+01
1.071038e+01
3.248918e+00
3.248918e+00
1.535137e+01
1.535137e+01
2.139330e+01
2.139330e+01
3.561416e+01
3.561416e+01
4.337193e+01
4.337193e+01
8.514185e+01
8.514185e+01
6.045192e+01
6.045192e+01
4.983923e+01
4.983923e+01
1.845515e+01
1.845515e+01
1.122998e+01
1.122998e+01
1.172872e+01
1.172872e+01
-2.999812e+01
-2.999812e+01
-4.020172e+01
-4.020172e+01
-3.365371e+01
-3.365371e+01
-4.198272e+01
-4.198272e+01
-3.134241e+01
-3.134241e+01
3.988507e-02
3.988507e-02
-1.058581e+00
-1.058581e+00
-2.989543e+01
-2.989543e+01
-3.849335e+01
-3.849335e+01
-2.292444e+01
-2.292444e+01
-7.580604e+00
-7.580604e+00
8.912629e+00
8.912629e+00
3.432302e+01
3.432302e+01
3.435778e+01
3.435778e+01
1.326736e+01
1.326736e+01
2.104767e+00
2.104767e+00
3.087386e+01
3.087386e+01
1.835863e+01
1.835863e+01
3.262548e+01
3.262548e+01
1.419203e+01
1.419203e+01
-3.445483e+00
-3.445483e+00
-3.140339e+01
-3.140339e+01
-2.584720e+01
-2.584720e+01
-1.327775e+01
-1.327775e+01
-2.303268e+01
-2.303268e+01
-1.806429e+01
-1.806429e+01
-8.411064e+00
-8.411064e+00
2.069800e+01
2.069800e+01
-1.325154e+00
-1.325154e+00
-2.875204e+01
-2.875204e+01
-1.178808e+01
-1.178808e+01
-3.291046e+01
-3.291046e+01
-4.354944e+01
-4.354944e+01
-3.705077e+01
-3.705077e+01
1.547035e+01
1.547035e+01
4.465728e+01
4.465728e+01
-7.190519e+00
-7.190519e+00
-2.063894e+01
-2.063894e+01
9.297159e+00
9.297159e+00
2.462700e+00
2.462700e+00
-6.316420e+00
-6.316420e+00
-2.187153e+01
-2.187153e+01
-1.078031e+01
-1.078031e+01
-2.019087e+01
-2.019087e+01
1.060838e+01
1.060838e+01
1.041336e+01
1.041336e+01
-1.756541e+01
-1.756541e+01
-3.614824e+01
-3.614824e+01
-3.618146e+01
-3.618146e+01
-1.820093e+01
-1.820093e+01
-4.234957e+01
-4.234957e+01
-3.659526e+01
-3.659526e+01
-1.895895e+01
-1.895895e+01
-4.176788e+01
-4.176788e+01
-4.045484e+01
-4.045484e+01
3.818691e+00
3.818691e+00
2.898222e+01
2.898222e+01
4.385378e+01
4.385378e+01
1.271980e+01
1.271980e+01
-2.883837e+01
-2.883837e+01
1.789640e+01
1.789640e+01
2.218250e+01
2.218250e+01
1.976750e+01
1.976750e+01
-9.315727e+00
-9.315727e+00
3.633542e+01
3.633542e+01
4.397707e+01
4.397707e+01
3.685330e+01
3.685330e+01
2.461857e+01
2.461857e+01
-9.511533e+00
-9.511533e+00
-3.422328e+01
-3.422328e+01
-7.113257e+01
-7.113257e+01
-5.614396e+01
-5.614396e+01
-6.642606e+01
-6.642606e+01
-4.198603e+01
-4.198603e+01
1.171641e+01
1.171641e+01
-4.188185e+01
-4.188185e+01
-6.318116e+01
-6.318116e+01
3.567330e+01
3.567330e+01
6.658958e+01
6.658958e+01
5.808170e+01
5.808170e+01
3.307431e+01
3.307431e+01
-6.481298e+01
-6.481298e+01
-7.194197e+00
-3.772604e+00
-1.525276e+00
-8.950229e-01
3.320659e+00
5.731824e+00
-9.683523e+00
-5.634564e+00
-2.454798e+00
-2.336875e+00
1.725534e+00
4.800827e+00
-8.456929e+00
-5.565648e+00
-3.395600e+00
-4.137181e+00
5.501567e-01
5.257841e+00
-3.942395e+00
-2.681494e+00
-5.028713e-01
7.258616e-01
1.247318e+00
1.457762e+00
-7.564100e+00
-4.487304e+00
1.325837e-01
1.764663e+00
-4.442616e+00
-1.073888e+01
-8.779894e+00
-6.217736e+00
-1.447185e+00
-1.667618e-01
-7.967836e+00
-1.484094e+01
-8.760569e-01
-1.507469e+00
1.450640e+00
3.471529e+00
-5.689983e+00
-1.328286e+01
3.372584e+00
9.775214e-01
1.768282e+00
2.562451e+00
-8.319523e+00
-1.680984e+01
7.341687e+00
3.966572e+00
1.857849e+00
8.967534e-01
-1.122418e+01
-2.111763e+01
6.253353e+00
2.778187e+00
3.428299e+00
7.473252e+00
-2.672552e+00
-1.273803e+01
7.452453e-01
-2.595872e+00
3.017784e+00
1.341935e+01
6.318476e+00
-2.229194e+00
-3.323719e+00
-1.926710e+00
-5.902035e-01
-1.090256e+00
-4.145657e-01
7.006749e-01
-5.498993e+00
-3.532837e+00
-2.109630e+00
-3.027782e+00
-1.480062e+00
4.428617e-01
-5.936404e+00
-4.328697e+00
-3.452531e+00
-5.113393e+00
-2.993997e+00
5.471989e-02
-1.695115e+00
-1.743582e+00
-7.330041e-01
-5.748653e-01
-1.247470e+00
-1.019170e+00
-3.455198e+00
-2.109812e+00
4.676420e-01
2.077766e+00
-2.382939e+00
-7.221700e+00
-5.178596e+00
-2.981109e+00
3.838418e-01
1.241618e+00
-4.177677e+00
-9.287283e+00
8.778964e-01
2.226888e-01
2.231221e+00
2.849503e+00
-2.779961e+00
-6.363967e+00
2.906788e+00
8.832702e-01
1.440233e+00
1.883202e+00
-4.982765e+00
-9.711220e+00
4.288909e+00
2.430851e+00
1.796357e+00
1.215150e+00
-6.757867e+00
-1.292611e+01
2.495839e+00
1.488591e+00
2.769259e+00
4.520220e+00
5.379683e-02
-3.875671e+00
-2.166841e+00
-2.274687e+00
2.006224e+00
7.116986e+00
6.575736e+00
5.312483e+00
3.434839e+00
1.598720e+00
2.812431e-01
-2.540728e-01
-2.582317e+00
-3.856604e+00
3.235883e+00
9.810766e-01
-6.906782e-01
-1.598987e+00
-3.512713e+00
-3.935078e+00
3.332202e+00
3.827030e-01
-2.034490e+00
-2.972514e+00
-5.282028e+00
-6.121213e+00
7.415617e+00
2.401081e+00
-1.213427e+00
-6.507216e-01
-2.387125e+00
-3.286206e+00
8.251854e+00
2.924466e+00
-2.556842e-01
2.278709e+00
8.491537e-01
-9.675581e-01
2.413321e+00
1.039226e+00
7.885705e-01
3.103740e+00
1.029397e+00
-2.236675e+00
3.317524e+00
2.115610e+00
2.337546e+00
3.190340e+00
1.787827e+00
9.563703e-01
5.516695e+00
2.712821e+00
9.346905e-01
1.190479e+00
-1.686050e-01
-7.577340e-01
1.808544e+00
8.067646e-01
9.198639e-01
1.312184e+00
-8.497789e-01
-2.289184e+00
-5.297640e+00
-2.437429e+00
1.383846e+00
1.799464e+00
3.787742e+00
6.321466e+00
-1.028733e+01
-4.664257e+00
1.902904e-01
3.245810e-01
7.069360e+00
1.291132e+01
-5.862685e-01
2.175028e-01
6.079323e-01
8.734591e-02
-1.597565e+00
-3.175231e+00
2.811347e-01
3.472646e-01
6.837121e-01
-6.391711e-02
-2.315088e+00
-3.548313e+00
2.649439e+00
1.238364e+00
-1.187754e-01
-8.543630e-01
-2.751154e+00
-3.858421e+00
6.735751e+00
2.632879e+00
-1.163160e+00
-1.294445e+00
-3.484253e-01
1.035713e+00
1.005081e+01
1.921479e+00
-2.932526e+00
-2.314233e-01
1.508215e+00
3.822081e+00
3.196090e+00
-2.796338e+00
-4.773230e+00
9.771542e-01
1.332535e+00
-4.693226e-02
-2.826134e-01
-2.174131e+00
-1.902794e+00
1.772380e+00
1.788293e+00
2.918864e-01
3.045189e+00
8.281453e-01
-7.021429e-01
2.256878e-02
-2.008477e-01
-4.622206e-01
9.056710e-01
3.106485e-01
-2.751691e-01
-3.058830e-01
-1.167337e+00
-1.988873e+00
-3.678546e+00
-6.951421e-01
9.923135e-01
1.755564e-01
8.158488e-01
9.769502e-01
-6.901113e+00
-2.176602e+00
-7.441830e-02
-1.214934e+00
1.409578e+00
2.552279e+00
4.757897e+00
5.129154e+00
2.638065e+00
-5.726514e-01
-1.783287e+00
-2.645550e+00
4.011477e+00
5.534180e+00
3.886729e+00
-4.519706e-01
-2.752209e+00
-3.883901e+00
-2.512404e+00
1.526414e+00
3.337326e+00
-1.184596e+00
-2.654377e+00
-1.830142e+00
-3.000092e+00
-6.577695e-01
1.716541e+00
-9.753081e-01
7.664285e-01
5.232002e+00
5.396066e+00
3.383132e+00
2.244421e+00
7.342578e-01
2.661016e+00
6.972160e+00
1.056926e+01
3.305526e+00
-2.611878e+00
-3.808115e-01
1.688220e+00
2.872516e+00
9.088525e+00
2.099346e+00
-4.665580e+00
-1.309242e+00
2.564574e+00
3.306305e+00
-3.265285e+00
-3.271103e+00
-2.866400e+00
-9.045930e-01
1.649357e+00
2.652021e+00
-6.091550e+00
-4.458856e+00
-2.088986e+00
-3.978818e-01
4.667197e-01
3.773936e-01
4.020935e+00
3.412195e+00
-1.339353e+00
-3.590585e+00
-1.735287e+00
-1.771564e+00
8.153423e+00
6.416828e+00
-2.721150e+00
-7.718959e+00
-5.059561e+00
-4.803736e+00
1.701125e+01
1.310156e+01
4.277883e+00
-5.426516e-01
-1.386287e+00
-2.323372e+00
1.524691e+01
1.376709e+01
6.789141e+00
-2.553916e-01
-3.214010e+00
-4.626229e+00
-2.434028e-01
4.433254e+00
6.352685e+00
-5.158896e-01
-3.832352e+00
-3.037467e+00
-5.192616e+00
-9.734667e-01
4.295685e+00
1.212424e+00
1.197715e+00
5.316269e+00
6.540509e+00
8.504560e+00
9.039826e+00
4.097911e+00
4.327171e+00
8.069559e+00
2.115028e+01
1.402666e+01
3.684976e+00
8.415509e-01
3.157683e+00
5.099173e+00
2.274547e+01
1.082533e+01
-3.862284e+00
-2.010042e+00
4.998158e+00
7.386651e+00
-4.028550e+00
-3.561875e+00
-3.571318e+00
-6.773169e-01
5.009208e+00
7.325614e+00
-1.161348e+01
-8.820610e+00
-3.522769e+00
9.068242e-01
3.860105e+00
4.888760e+00
6.065356e+00
3.140820e+00
-4.005859e+00
-5.500542e+00
-3.069348e-01
2.159214e+00
1.461333e+01
9.811849e+00
-5.907546e+00
-1.317351e+01
-5.632553e+00
-1.743550e+00
SCALARS S12 float 1
LOOKUP_TABLE default
-1.156070e+01
1.314858e+01
9.565542e+00
-1.759766e+01
-1.156070e+01
1.314858e+01
9.565542e+00
-1.759766e+01
-1.055296e+01
5.700878e+00
6.627407e+00
-5.311419e+00
-1.055296e+01
5.700878e+00
6.627407e+00
-5.311419e+00
2.004351e+01
1.506230e+01
-5.039405e-01
2.004351e+01
1.506230e+01
-5.039405e-01
2.808807e+00
-7.774789e+00
1.028412e+01
2.031874e+01
2.808807e+00
-7.774789e+00
1.028412e+01
2.031874e+01
6.799730e-01
-6.213464e+00
6.799730e-01
-6.213464e+00
1.413499e+01
2.753001e+01
1.413499e+01
2.753001e+01
2.234309e+01
1.522277e+01
9.090920e+00
8.067471e+00
2.234309e+01
1.522277e+01
9.090920e+00
8.067471e+00
7.793280e+00
1.703796e+01
2.134488e+01
8.436814e+00
7.793280e+00
1.703796e+01
2.134488e+01
8.436814e+00
-1.973686e+01
1.424050e+01
8.830911e+00
-2.108345e+01
-1.973686e+01
1.424050e+01
8.830911e+00
-2.108345e+01
-1.338550e+01
-1.120235e+01
-1.338550e+01
-1.120235e+01
-2.955305e+00
-2.955305e+00
3.713792e+00
1.836095e-01
3.713792e+00
1.836095e-01
7.826620e+00
2.223665e+01
7.826620e+00
2.223665e+01
1.808815e+01
1.808815e+01
-1.418095e+01
-1.418095e+01
2.889809e+01
2.889809e+01
6.758800e+00
1.032607e+01
9.779358e+00
6.758800e+00
1.032607e+01
9.779358e+00
2.077654e+00
9.630781e+00
-4.630778e+00
-2.330648e+01
2.077654e+00
9.630781e+00
-4.630778e+00
-2.330648e+01
6.697182e+00
6.697182e+00
-2.183059e+00
3.227880e+00
-2.183059e+00
3.227880e+00
6.898429e+00
6.898429e+00
9.036836e+00
9.036836e+00
2.033376e+01
2.033376e+01
-7.157648e+00
-7.157648e+00
-1.212657e+01
-1.212657e+01
-6.365876e+00
-6.365876e+00
-1.840528e+01
-1.840528e+01
1.083414e+00
1.083414e+00
-3.019030e-01
9.738836e+00
-3.019030e-01
9.738836e+00
-5.046145e+00
-5.046145e+00
-5.505790e+00
-5.505790e+00
-2.341604e+00
-2.341604e+00
-3.789909e+00
-3.789909e+00
-4.538789e+00
1.239989e+00
-4.538789e+00
1.239989e+00
-1.473686e+01
-1.473686e+01
-2.441362e+01
-2.441362e+01
-1.420819e+01
-1.420819e+01
-3.027500e+00
-3.027500e+00
-9.948257e+00
-5.079713e+00
-9.948257e+00
-5.079713e+00
-1.546327e+01
-1.546327e+01
-1.542593e+01
-1.542593e+01
-6.212054e+00
-6.212054e+00
-7.565225e-01
-7.565225e-01
-2.050165e+01
-5.451248e+00
-2.050165e+01
-5.451248e+00
-2.061732e+01
-2.061732e+01
-1.121591e+01
-1.121591e+01
-4.337250e+00
-4.337250e+00
-6.466172e+00
-6.466172e+00
-1.366869e+01
-9.611261e+00
-1.366869e+01
-9.611261e+00
-3.697693e+00
-3.697693e+00
-8.755624e+00
-8.755624e+00
-6.355186e+00
-6.355186e+00
1.973433e+00
1.973433e+00
4.961224e+00
1.237652e+00
4.961224e+00
1.237652e+00
1.355967e+01
1.355967e+01
-5.719203e+00
-5.719203e+00
-4.473370e+00
-4.473370e+00
1.702775e+01
1.702775e+01
1.102741e+01
1.087947e+01
1.102741e+01
1.087947e+01
5.896986e+00
5.896986e+00
-1.010674e+01
-1.010674e+01
-5.844558e+00
-5.844558e+00
8.836098e+00
8.836098e+00
9.092521e+00
4.600301e+00
9.092521e+00
4.600301e+00
7.729238e-01
7.729238e-01
-3.188094e+00
-3.188094e+00
3.488647e+00
3.488647e+00
2.426694e+00
2.426694e+00
-4.540898e+00
-2.400384e+00
-4.540898e+00
-2.400384e+00
-3.537086e+00
-3.537086e+00
3.967367e+00
3.967367e+00
1.646123e+01
1.646123e+01
1.934857e+01
1.934857e+01
-1.685115e+01
-5.044011e-01
-1.685115e+01
-5.044011e-01
-1.329028e+01
-1.329028e+01
-8.126211e-01
-8.126211e-01
2.134848e+00
2.134848e+00
1.834600e+00
1.834600e+00
-5.069212e+00
-3.089137e+00
-5.069212e+00
-3.089137e+00
-9.457416e+00
-9.457416e+00
-5.216920e+00
-5.216920e+00
-9.547611e+00
-9.547611e+00
-1.828536e+01
-1.828536e+01
1.391448e+01
1.356867e-01
1.391448e+01
1.356867e-01
-2.710723e+00
-2.710723e+00
-9.275142e+00
-9.275142e+00
1.212439e+00
1.212439e+00
1.933407e+00
1.933407e+00
1.380959e+01
-8.185682e+00
1.380959e+01
-8.185682e+00
1.827879e+00
1.827879e+00
-1.271957e+01
-1.271957e+01
-3.304962e+00
-3.304962e+00
2.329987e+00
2.329987e+00
6.636409e+00
-2.492940e+01
6.636409e+00
-2.492940e+01
5.639321e+00
5.639321e+00
-1.351424e+01
-1.351424e+01
-1.371401e+01
-1.371401e+01
-1.010992e+01
-1.010992e+01
7.687780e-01
9.912612e+00
-8.122221e-01
-1.365327e+01
7.687780e-01
9.912612e+00
-8.122221e-01
-1.365327e+01
1.023902e+01
5.237554e+00
1.023902e+01
5.237554e+00
-4.715946e+00
-1.072032e+01
-4.715946e+00
-1.072032e+01
5.705131e+00
5.705131e+00
7.335522e+00
7.041244e+00
7.335522e+00
7.041244e+00
-5.160025e-01
-5.160025e-01
1.170995e+01
1.185259e+01
1.170995e+01
1.185259e+01
-3.195364e+00
-3.195364e+00
7.232914e+00
5.268450e+00
7.232914e+00
5.268450e+00
-7.695492e+00
-7.695492e+00
4.510068e+00
-6.523569e-01
4.510068e+00
-6.523569e-01
-1.835417e+01
-1.835417e+01
-6.008540e+00
2.409665e+01
-6.008540e+00
2.409665e+01
-9.961335e+00
-9.961335e+00
5.339197e+00
5.339197e+00
7.388108e+00
7.388108e+00
9.308892e+00
9.308892e+00
1.200732e+01
1.200732e+01
-9.962379e+00
2.236641e+01
-9.962379e+00
2.236641e+01
-9.413658e+00
-9.413658e+00
2.787390e+00
2.787390e+00
-1.160444e-01
-1.160444e-01
1.290168e+00
1.290168e+00
6.563835e+00
6.563835e+00
-4.863958e+00
-4.863958e+00
-1.778757e+01
-1.778757e+01
-8.723099e+00
-8.723099e+00
5.668003e+00
5.668003e+00
-4.802689e+00
-4.802689e+00
-7.499158e+00
-7.499158e+00
1.573072e+01
1.573072e+01
2.168562e+01
2.168562e+01
-9.468433e-01
7.915858e+00
8.813833e+00
1.852060e+01
-9.468433e-01
7.915858e+00
8.813833e+00
1.852060e+01
-1.558833e+01
3.917376e+00
-7.488801e+00
-1.154945e+01
-1.558833e+01
3.917376e+00
-7.488801e+00
-1.154945e+01
-3.514317e+00
4.246556e+00
9.539610e+00
2.111366e+01
-3.514317e+00
4.246556e+00
9.539610e+00
2.111366e+01
2.721469e+01
7.302445e+00
1.089379e+01
2.721469e+01
7.302445e+00
1.089379e+01
-1.918379e+01
-1.293031e+01
-1.918379e+01
-1.293031e+01
3.453800e+00
1.400748e+01
-5.439514e+00
-1.380652e+01
3.453800e+00
1.400748e+01
-5.439514e+00
-1.380652e+01
-4.936675e-01
-1.096762e+01
-4.936675e-01
-1.096762e+01
5.356095e+00
-2.004054e+00
5.356095e+00
-2.004054e+00
3.618788e+00
1.304521e+01
2.833256e+00
3.618788e+00
1.304521e+01
2.833256e+00
6.619659e+00
6.619659e+00
1.630170e+01
3.933076e+00
1.630170e+01
3.933076e+00
8.340615e-01
4.976135e+00
8.340615e-01
4.976135e+00
-2.461090e+00
-2.461090e+00
-2.471028e+01
-2.471028e+01
-7.378879e+00
-2.366648e+01
-2.107594e+01
-7.378879e+00
-2.366648e+01
-2.107594e+01
1.314047e+00
-2.569653e+00
2.480919e+00
5.308637e-01
1.314047e+00
-2.569653e+00
2.480919e+00
5.308637e-01
-1.164355e+01
-1.062568e+01
-1.164355e+01
-1.062568e+01
-3.021779e+01
-3.021779e+01
1.172353e+01
-1.003619e+01
-1.515520e+01
4.885478e-02
1.172353e+01
-1.003619e+01
-1.515520e+01
4.885478e-02
-1.016413e+01
-1.016413e+01
5.088990e+00
5.088990e+00
-2.739575e+00
-2.739575e+00
-5.780161e-01
-5.780161e-01
2.579065e+00
2.579065e+00
3.140882e+01
3.140882e+01
2.403336e+00
1.157810e+01
2.403336e+00
1.157810e+01
-1.522257e+00
7.719673e+00
-1.522257e+00
7.719673e+00
-1.158156e+01
-4.325462e+00
-1.158156e+01
-4.325462e+00
1.134548e+01
5.803755e+00
1.134548e+01
5.803755e+00
7.751919e+00
2.709950e+00
7.751919e+00
2.709950e+00
-1.108390e+01
-8.252648e+00
-1.108390e+01
-8.252648e+00
-2.171338e+00
-7.698710e+00
-2.171338e+00
-7.698710e+00
4.975744e+00
-6.487181e+00
4.975744e+00
-6.487181e+00
-1.558148e+00
4.669616e+00
-1.558148e+00
4.669616e+00
-1.459439e+01
-2.582674e+00
-1.459439e+01
-2.582674e+00
-1.797518e+01
-1.532730e+01
-1.797518e+01
-1.532730e+01
-3.728205e+00
3.144343e-01
-3.728205e+00
3.144343e-01
3.660996e+00
2.137618e+00
3.660996e+00
2.137618e+00
3.364426e-01
-9.106036e+00
3.364426e-01
-9.106036e+00
1.302144e+00
1.302144e+00
-9.479263e+00
-9.479263e+00
1.902886e-01
1.902886e-01
1.098831e+01
1.098831e+01
-4.068508e+00
-4.068508e+00
9.869988e-01
9.869988e-01
2.619927e+00
2.619927e+00
-1.451845e+01
-1.451845e+01
3.054335e+00
3.054335e+00
5.503424e+00
5.503424e+00
-1.778948e+01
-1.778948e+01
-1.628076e+01
-1.628076e+01
-3.844170e+00
-3.844170e+00
7.550078e-03
7.550078e-03
3.769551e+00
3.769551e+00
-1.686006e+01
-1.686006e+01
-9.091920e+00
-9.091920e+00
2.355840e+00
2.355840e+00
-1.140798e+01
-1.140798e+01
4.738497e+00
4.738497e+00
1.361436e+01
1.361436e+01
-2.744424e+00
-2.744424e+00
3.589769e+00
3.589769e+00
6.499542e-01
6.499542e-01
-1.026173e+01
-1.026173e+01
-1.271649e+00
-1.271649e+00
2.156739e+00
2.156739e+00
-4.075100e+00
-4.075100e+00
8.768175e+00
8.768175e+00
-8.286585e+00
-8.286585e+00
-2.438997e+00
-2.438997e+00
1.874503e-01
1.874503e-01
-5.536231e+00
-5.536231e+00
1.364059e+01
1.364059e+01
4.457937e+00
4.457937e+00
-1.544815e+01
-1.544815e+01
3.070439e+00
3.070439e+00
7.069238e+00
7.069238e+00
-5.264237e+00
-5.264237e+00
7.683652e+00
7.683652e+00
-2.455128e+00
-2.455128e+00
-2.665841e+01
-2.665841e+01
1.588768e+01
1.588768e+01
-1.375275e+00
-1.375275e+00
8.467722e+00
8.467722e+00
6.049169e+00
6.049169e+00
2.834091e+00
2.834091e+00
2.386180e+01
2.386180e+01
-2.055230e+00
-2.055230e+00
-3.210343e+01
-3.210343e+01
1.025028e+00
1.025028e+00
1.312838e+01
1.312838e+01
-1.545458e+01
-1.545458e+01
-9.116981e+00
-9.116981e+00
-1.265130e+01
-1.265130e+01
-3.345080e+01
-3.345080e+01
-4.129018e+00
-1.117648e+01
-4.129018e+00
-1.117648e+01
-3.905345e-01
-3.905345e-01
-1.154427e+01
-1.154427e+01
-8.632410e+00
-8.632410e+00
4.799308e-01
4.799308e-01
3.097321e+00
3.097321e+00
6.944028e-01
6.944028e-01
-4.916358e+00
-4.916358e+00
-1.159191e-01
1.131525e+00
-1.159191e-01
1.131525e+00
-2.398496e+00
-2.398496e+00
8.324138e-01
8.324138e-01
2.883484e-01
2.883484e-01
7.091959e-01
7.091959e-01
2.638416e+00
2.638416e+00
-9.990225e-04
-9.990225e-04
-1.163756e+00
-1.163756e+00
-5.569219e+00
-5.483374e+00
-5.569219e+00
-5.483374e+00
-3.470592e+00
-3.470592e+00
-3.210893e+00
-3.210893e+00
-5.019299e+00
-5.019299e+00
-8.879179e-03
-8.879179e-03
6.644964e-01
6.644964e-01
5.251637e+00
5.251637e+00
1.561632e+01
1.561632e+01
-6.461145e+00
-3.527591e+00
-6.461145e+00
-3.527591e+00
-5.244477e+00
-5.244477e+00
-8.948769e+00
-8.948769e+00
-8.994430e+00
-8.994430e+00
4.652266e-01
4.652266e-01
-2.642040e+00
-2.642040e+00
5.486892e+00
5.486892e+00
2.160640e+01
2.160640e+01
2.059551e+00
-3.536123e+00
2.059551e+00
-3.536123e+00
-2.593596e+00
-2.593596e+00
-2.257486e+00
-2.257486e+00
2.849064e+00
2.849064e+00
3.813431e+00
3.813431e+00
-1.873739e+00
-1.873739e+00
-1.575977e+00
-1.575977e+00
3.696594e+00
3.696594e+00
3.580756e-01
-9.291227e+00
3.580756e-01
-9.291227e+00
4.760395e+00
4.760395e+00
6.217016e+00
6.217016e+00
5.893451e+00
5.893451e+00
9.448972e+00
9.448972e+00
6.826563e+00
6.826563e+00
-2.744538e+00
-2.744538e+00
-5.849649e+00
-5.849649e+00
3.152735e+00
-1.424705e+00
-2.780860e-01
-1.524135e+00
3.152735e+00
-1.424705e+00
-2.780860e-01
-1.524135e+00
-6.298704e-01
-5.292328e+00
-6.298704e-01
-5.292328e+00
-2.125634e+00
-2.510924e+00
-2.125634e+00
-2.510924e+00
8.689718e+00
3.202343e+00
8.689718e+00
3.202343e+00
-6.496771e-01
4.058283e+00
-6.496771e-01
4.058283e+00
5.235731e+00
4.417547e+00
5.235731e+00
4.417547e+00
1.403051e+01
-1.304984e+00
1.403051e+01
-1.304984e+00
-4.910801e+00
-2.234199e+00
-4.910801e+00
-2.234199e+00
-5.367420e+00
-5.367420e+00
8.096987e+00
8.096987e+00
1.914289e+01
1.914289e+01
-4.099917e+00
-4.099917e+00
-8.584275e+00
-8.584275e+00
-9.005384e+00
-9.005384e+00
-8.814844e+00
-8.814844e+00
1.342374e-01
1.342374e-01
1.679166e+01
1.679166e+01
8.410287e+00
8.410287e+00
7.812455e-01
7.812455e-01
1.441461e+01
1.441461e+01
5.458751e+00
5.458751e+00
-3.894018e+00
-3.894018e+00
2.863340e+00
2.863340e+00
-5.124991e+00
-5.124991e+00
-8.546854e-01
-8.546854e-01
1.116389e+01
1.116389e+01
3.600843e-01
3.600843e-01
4.515569e-01
4.515569e-01
5.036328e+00
5.036328e+00
4.535210e+00
4.535210e+00
-1.851425e+00
-1.851425e+00
-7.258047e+00
-7.258047e+00
2.724948e-01
2.724948e-01
-3.901871e+00
-1.267752e+00
-3.901871e+00
-1.267752e+00
-1.517911e+00
5.732271e+00
-1.517911e+00
5.732271e+00
-1.290466e+01
-7.280629e+00
-1.290466e+01
-7.280629e+00
-1.156986e+01
-2.196637e+01
-1.156986e+01
-2.196637e+01
-5.266286e+00
-1.477841e+01
-5.266286e+00
-1.477841e+01
-1.123648e+00
-1.123648e+00
3.949707e+00
3.949707e+00
-1.133957e+00
-1.133957e+00
-1.282515e+01
-1.282515e+01
-4.320423e+00
-4.320423e+00
-5.405002e+00
-5.405002e+00
3.725388e+00
3.725388e+00
-1.121141e+00
-1.121141e+00
-7.282084e+00
-7.282084e+00
5.014402e+00
5.014402e+00
3.894537e+00
3.894537e+00
1.659329e+01
1.659329e+01
3.773312e+00
3.773312e+00
-1.467529e+01
-1.467529e+01
-4.667132e+00
-4.667132e+00
-1.887931e+00
-1.887931e+00
9.486260e+00
9.486260e+00
-2.550463e-01
-2.550463e-01
-7.812070e+00
-7.812070e+00
7.841371e+00
7.841371e+00
-7.287703e+00
-7.287703e+00
-8.241384e+00
-8.241384e+00
-1.346432e+01
-1.346432e+01
4.223934e+00
4.223934e+00
2.073646e+01
2.073646e+01
9.112030e+00
9.112030e+00
7.568688e+00
7.568688e+00
-7.282756e+00
-7.282756e+00
6.321448e-01
6.321448e-01
7.558117e+00
7.558117e+00
1.906518e+01
1.906518e+01
2.569690e+01
2.569690e+01
3.951981e+00
3.951981e+00
-4.415069e+00
-4.415069e+00
-1.897211e+00
-1.897211e+00
2.378218e+00
2.378218e+00
5.395879e+00
5.395879e+00
2.612149e+00
2.612149e+00
2.549539e+00
2.549539e+00
-6.104785e+00
-6.104785e+00
-6.318168e+00
-6.318168e+00
4.600347e+00
4.600347e+00
6.588085e+00
6.588085e+00
1.255000e+01
1.255000e+01
6.279415e+00
6.279415e+00
-9.432644e-01
-9.432644e-01
-1.414336e+00
-1.414336e+00
-1.303857e+01
-1.303857e+01
-2.073108e+00
-2.073108e+00
9.047419e+00
9.047419e+00
1.539504e+00
1.539504e+00
-7.468335e-01
-7.468335e-01
-6.299161e+00
-6.299161e+00
-8.876559e+00
-8.876559e+00
-1.660160e+00
-1.660160e+00
-1.332817e+00
-1.332817e+00
-5.009674e+00
-5.009674e+00
-1.855067e+00
-1.855067e+00
-5.560076e+00
-5.560076e+00
-2.807120e+00
-2.807120e+00
-1.484679e-01
-1.484679e-01
-4.639004e-02
-4.639004e-02
-4.327007e+00
-4.327007e+00
-8.458294e+00
-8.458294e+00
-1.174299e+01
-1.174299e+01
7.347180e-01
7.347180e-01
7.515159e-02
7.515159e-02
-7.626795e-03
-7.626795e-03
-9.385679e-01
-9.385679e-01
-3.943086e+00
-3.943086e+00
-1.061304e+01
-1.061304e+01
3.944356e+00
3.944356e+00
1.598492e-01
1.598492e-01
-7.196858e+00
-7.196858e+00
1.061468e+00
1.061468e+00
6.265486e+00
6.265486e+00
-3.644857e+00
-3.644857e+00
-6.068223e+00
-6.068223e+00
-3.473592e+00
-3.473592e+00
-2.526072e+00
-2.526072e+00
1.524233e+00
1.524233e+00
-5.165370e+00
-5.165370e+00
-9.888314e+00
-9.888314e+00
-6.195668e+00
-6.195668e+00
-5.562513e+00
-5.562513e+00
9.710266e+00
9.710266e+00
1.153778e+01
1.153778e+01
-2.985282e+00
-2.985282e+00
-1.495883e+01
-1.495883e+01
-3.479792e+00
-3.479792e+00
-6.491194e+00
-6.491194e+00
9.717206e+00
9.717206e+00
6.803927e+00
6.803927e+00
4.415103e+00
4.415103e+00
-2.407471e+00
-2.407471e+00
1.610019e+00
1.610019e+00
-3.280339e-01
-3.280339e-01
-2.312721e+00
-2.312721e+00
-8.329856e+00
-8.329856e+00
-2.816296e+00
-2.816296e+00
1.872816e+00
1.872816e+00
8.617327e+00
8.617327e+00
9.930065e+00
9.930065e+00
-6.444862e+00
-6.444862e+00
-4.211113e+00
-4.211113e+00
-3.115897e+00
-3.115897e+00
-9.105753e+00
-9.105753e+00
5.832260e+00
5.832260e+00
1.183189e+01
1.183189e+01
1.759944e+01
1.759944e+01
-5.089314e+00
-5.089314e+00
-3.551833e+00
-3.551833e+00
-8.169802e-01
-8.169802e-01
1.883725e+01
1.883725e+01
6.509015e+00
6.509015e+00
1.453420e+01
1.453420e+01
1.459599e+01
1.459599e+01
-1.112670e+01
-1.112670e+01
-1.263017e+01
-1.263017e+01
2.441106e+01
2.441106e+01
3.107492e+01
3.107492e+01
-4.044384e+00
-4.044384e+00
3.412691e+01
3.412691e+01
6.202319e+01
6.202319e+01
9.305456e+00
9.305456e+00
2.712542e+01
2.712542e+01
2.751665e+01
2.751665e+01
4.082602e+01
4.082602e+01
1.655185e+02
1.655185e+02
2.063928e+02
2.063928e+02
5.112435e+01
5.112435e+01
1.289385e+01
1.289385e+01
1.564388e+01
1.564388e+01
3.223760e+01
3.223760e+01
4.360468e+01
4.360468e+01
-6.122943e+01
-6.122943e+01
-9.207584e+01
-9.207584e+01
-2.218089e+01
-2.218089e+01
-2.192722e+01
-2.192722e+01
-4.241859e+01
-4.241859e+01
-1.374226e+02
-1.374226e+02
-2.440593e+02
-2.440593e+02
-1.380782e+02
-1.380782e+02
-2.707787e+01
-2.707787e+01
-5.045279e+01
-5.045279e+01
-4.049886e+01
-4.049886e+01
-3.690117e+01
-3.690117e+01
-4.509602e+01
-4.509602e+01
-1.752543e+01
-1.752543e+01
-7.602622e+00
-7.602622e+00
-1.249321e+01
-1.249321e+01
-1.714833e+01
-1.714833e+01
-5.597290e+00
-5.597290e+00
-9.961156e-01
-9.961156e-01
3.579988e+00
3.579988e+00
1.089727e+01
1.089727e+01
-5.630974e+00
-5.630974e+00
-1.073307e+01
-1.073307e+01
2.743642e+00
2.743642e+00
-5.115092e+00
-5.115092e+00
-1.608419e+00
-1.608419e+00
1.240430e+01
1.240430e+01
-8.632563e+00
-8.632563e+00
1.177433e+00
1.177433e+00
2.241836e+00
2.241836e+00
-3.175484e+00
-3.175484e+00
1.575443e+00
1.575443e+00
-2.903135e+00
-2.903135e+00
5.283491e+00
5.283491e+00
8.612817e+00
8.612817e+00
-5.279817e+00
-5.279817e+00
-6.598499e-01
-6.598499e-01
1.348466e+01
1.348466e+01
2.126873e+01
2.126873e+01
1.114251e+01
1.114251e+01
5.318617e+00
5.318617e+00
1.490818e+01
1.490818e+01
1.171042e+01
1.171042e+01
2.807550e+00
2.807550e+00
2.717048e+00
2.717048e+00
6.164611e+00
6.164611e+00
5.203558e+00
5.203558e+00
3.400741e-01
3.400741e-01
3.613431e+00
3.613431e+00
6.344315e+00
6.344315e+00
-3.841909e-01
-3.841909e-01
-1.013532e+01
-1.013532e+01
-1.684861e+01
-1.684861e+01
-9.201488e+00
-9.201488e+00
-9.545690e+00
-9.545690e+00
9.486166e-01
9.486166e-01
1.008413e+01
1.008413e+01
8.174641e+00
8.174641e+00
-9.340060e-01
-9.340060e-01
-9.274549e-01
-9.274549e-01
1.165750e+01
1.165750e+01
1.500570e+01
1.500570e+01
6.706274e+00
6.706274e+00
4.818227e+00
4.818227e+00
-4.216826e+00
-4.216826e+00
-1.309392e+01
-1.309392e+01
-4.879445e+00
-4.879445e+00
-8.059471e+00
-8.059471e+00
-1.276954e+01
-1.276954e+01
-4.653592e+00
-4.653592e+00
1.152389e+01
1.152389e+01
1.381189e+01
1.381189e+01
6.295098e+00
6.295098e+00
3.102482e-01
3.102482e-01
-7.815062e+00
-7.815062e+00
-8.969860e+00
-8.969860e+00
-3.915902e+00
-3.915902e+00
-4.191734e+00
-4.191734e+00
-5.049892e+00
-5.049892e+00
5.516320e+00
5.516320e+00
8.854242e+00
8.854242e+00
1.391637e+00
1.391637e+00
3.773363e+00
3.773363e+00
1.292794e+01
1.292794e+01
8.719174e+00
8.719174e+00
-1.063789e+00
-1.063789e+00
-8.621561e+00
-8.621561e+00
-1.510027e+01
-1.510027e+01
-1.513123e+01
-1.513123e+01
-1.806269e+01
-1.806269e+01
-1.655591e+01
-1.655591e+01
2.697503e+00
2.697503e+00
1.496447e+01
1.496447e+01
4.390386e+00
4.390386e+00
1.249156e+00
1.249156e+00
1.242864e+01
1.242864e+01
1.898447e+01
1.898447e+01
1.122805e-01
1.122805e-01
-3.725538e+00
-3.725538e+00
-9.155107e+00
-9.155107e+00
-1.057162e+01
-1.057162e+01
-1.728511e+00
-1.728511e+00
1.286383e+01
1.286383e+01
1.107320e+01
1.107320e+01
9.763766e+00
9.763766e+00
1.394150e+01
1.394150e+01
5.813095e+00
5.813095e+00
-1.648808e-01
-1.648808e-01
-2.025499e+00
-2.025499e+00
-5.780608e+00
-5.780608e+00
-2.061637e+01
-2.061637e+01
-2.619970e+01
-2.619970e+01
-1.406694e+01
-1.406694e+01
1.049327e+01
1.049327e+01
2.918712e+01
2.918712e+01
1.657604e+01
1.657604e+01
-1.691206e+00
-1.691206e+00
3.774914e-01
3.774914e-01
1.047969e+01
1.047969e+01
3.380014e-01
3.380014e-01
-5.212670e+00
-5.212670e+00
-1.048602e+01
-1.048602e+01
-1.046468e+01
-1.046468e+01
-8.342379e+00
-8.342379e+00
-1.678201e-01
-1.678201e-01
8.161539e-01
8.161539e-01
4.176166e+00
4.176166e+00
-2.254220e+00
-2.254220e+00
-9.380235e+00
-9.380235e+00
-6.085071e+00
-6.085071e+00
-6.470609e+00
-6.470609e+00
-1.027197e+01
-1.027197e+01
-1.327289e+01
-1.327289e+01
-1.777534e+01
-1.777534e+01
-2.418950e+01
-2.418950e+01
-3.777433e+00
-3.777433e+00
2.759556e+01
2.759556e+01
2.251837e+01
2.251837e+01
4.859691e+00
4.859691e+00
1.154141e+00
1.154141e+00
-7.303382e+00
-7.303382e+00
1.028957e+00
4.110888e-01
-4.639838e-01
-7.833354e-01
-2.028840e+00
-3.212197e+00
-2.581858e-01
-6.098285e-01
-7.188306e-01
-3.842231e-01
-9.818089e-01
-1.671362e+00
-1.202622e+00
-1.222666e+00
-6.659746e-01
3.891000e-01
1.017695e+00
1.167950e+00
-1.678775e-01
-2.072162e-02
2.274291e-01
6.554182e-01
1.506666e+00
2.030919e+00
1.064103e+00
1.045514e+00
6.479468e-01
2.106724e-01
3.779380e-01
6.035003e-01
2.231118e+00
1.600883e+00
3.938976e-01
-6.432760e-01
-1.219246e+00
-1.334794e+00
2.137018e+00
1.408244e+00
8.852311e-03
-1.119299e+00
-1.996750e+00
-2.416667e+00
6.788213e-01
3.602205e-01
-3.058974e-01
-7.786186e-01
-1.244224e+00
-1.584626e+00
-6.355802e-01
-6.660205e-01
-2.642466e-01
4.765357e-02
-3.538612e-03
6.558335e-02
-9.912253e-01
-8.589468e-01
-4.003544e-01
7.559667e-02
2.208007e-01
2.163676e-01
-7.694931e-01
-5.980167e-01
-5.966837e-01
-4.231231e-01
-1.974736e-01
-3.155281e-01
1.150362e+00
5.512931e-01
-4.348108e-01
-7.748701e-01
-1.534511e+00
-2.341129e+00
5.818381e-01
1.781468e-01
-5.605260e-01
-8.513872e-01
-1.078846e+00
-1.350424e+00
-1.416851e-01
-5.266787e-01
-8.345147e-01
-4.380949e-01
5.072468e-01
1.133327e+00
-6.981723e-01
-8.346775e-01
-5.868067e-01
2.705030e-01
1.581483e+00
2.419529e+00
7.921061e-01
9.023202e-01
7.793087e-01
6.388950e-01
8.534754e-01
9.752438e-01
3.084323e+00
2.653188e+00
1.496166e+00
3.372791e-01
-5.986744e-01
-1.101627e+00
3.090543e+00
2.202777e+00
7.938011e-01
-2.256711e-01
-1.417170e+00
-2.110408e+00
9.463134e-01
6.275653e-01
1.620596e-01
-2.246788e-01
-9.789578e-01
-1.493256e+00
-1.847250e+00
-1.272154e+00
-1.643191e-01
3.054227e-01
1.594739e-01
7.652253e-02
-2.314870e+00
-1.792893e+00
-5.818311e-01
2.421680e-01
3.641008e-01
3.511187e-01
-1.738927e+00
-1.501163e+00
-8.556170e-01
-2.384650e-01
-9.332850e-02
-1.575608e-01
-1.908867e+00
-1.372208e+00
-4.973735e-01
-4.543394e-02
-6.510985e-01
-1.370527e+00
1.268391e+00
5.525943e-01
-7.339761e-01
-1.209375e+00
-9.886372e-01
-8.632754e-01
3.082548e+00
1.430025e+00
-1.352054e+00
-2.278040e+00
-6.043191e-01
8.658322e-01
7.701872e-02
-6.273691e-01
-1.339793e+00
-9.689806e-01
7.250244e-01
2.040181e+00
-5.275182e-01
-3.250165e-01
3.840661e-01
1.117919e+00
1.141571e+00
9.379507e-01
2.204315e+00
2.000854e+00
1.876228e+00
1.886059e+00
5.139023e-01
-7.892499e-01
2.871074e+00
2.314285e+00
1.668425e+00
1.171628e+00
-3.261856e-01
-1.416273e+00
7.959679e-01
8.086537e-01
8.390967e-01
4.488056e-01
-5.176980e-01
-1.076153e+00
-2.464578e+00
-1.556168e+00
7.068673e-02
7.795022e-01
2.885781e-01
-1.927164e-01
-3.789664e+00
-2.550803e+00
-2.754415e-01
7.427283e-01
4.364070e-01
1.484178e-01
-2.902128e+00
-1.986183e+00
-3.126444e-01
2.618916e-01
-1.019225e-02
-9.921771e-02
-7.100555e+00
-4.098719e+00
1.850466e-01
1.429651e+00
3.310650e-01
-7.301958e-01
-1.851832e+00
-1.526382e+00
-8.490316e-01
-5.349805e-01
-5.005451e-01
-4.282608e-01
-1.871284e+00
-2.036961e+00
-2.576582e+00
-2.964772e+00
-1.408589e+00
1.618397e-01
-3.106397e+00
-2.405460e+00
-1.877998e+00
-1.973719e+00
-7.184268e-01
4.591099e-01
1.658695e+00
4.874998e-01
-2.732158e-01
5.309791e-01
5.103081e-01
9.592137e-02
3.148494e+00
1.578231e+00
3.747517e-01
1.303970e+00
5.289420e-01
-8.085218e-01
3.258997e+00
2.372074e+00
8.575697e-01
7.250007e-02
-9.584652e-01
-1.831942e+00
1.752265e+00
7.827103e-01
-4.236284e-01
-1.199404e+00
-1.971240e+00
-2.204085e+00
-2.668466e+00
-2.477990e+00
-1.258589e+00
-3.929341e-01
-1.003743e+00
-1.451283e+00
-5.517292e+00
-3.442644e+00
-3.014567e-01
5.849309e-01
-2.911493e-01
-9.870770e-01
-4.804854e+00
-2.617616e+00
1.618620e-01
4.404000e-01
-5.149237e-01
-1.156545e+00
-5.706362e+00
-3.591561e+00
6.341316e-01
2.224592e+00
5.615529e-01
-5.810566e-01
3.161075e+00
1.199070e+00
-5.713506e-01
-4.467651e-01
-7.542438e-01
-9.947240e-01
9.718185e-02
-4.560570e-02
-7.300138e-01
-2.389305e+00
-2.579659e+00
-1.652341e+00
-9.091379e+00
-4.176226e+00
3.023970e-01
-1.362012e+00
-2.039412e+00
-1.488931e+00
2.230644e-01
-1.128047e+00
-1.995494e+00
-3.971090e-01
1.493686e-01
-4.188732e-01
3.768410e+00
8.268743e-01
-2.047028e+00
-2.065019e-01
7.860626e-01
5.734251e-03
8.538842e+00
5.183047e+00
2.207167e-01
-1.341640e+00
-1.365430e+00
-1.433398e+00
7.172407e+00
3.405405e+00
-1.001188e+00
-2.248129e+00
-2.718066e+00
-2.580653e+00
-2.554166e+00
-1.786816e+00
-7.842065e-01
-8.524786e-01
-1.633946e+00
-2.111882e+00
-3.421650e+00
-1.697845e+00
6.706695e-01
6.003409e-01
-8.947511e-01
-1.674806e+00
-3.725753e+00
-1.739036e+00
6.508628e-01
4.103389e-01
-9.430415e-01
-1.652716e+00
-2.301116e+00
-2.421597e+00
3.090606e-01
2.265419e+00
1.989619e-01
-9.727150e-01
1.114074e+01
5.589971e+00
-5.103689e-01
-9.237670e-01
-1.308789e+00
-1.829990e+00
9.182775e+00
6.673452e+00
1.992083e+00
-2.139856e+00
-3.547576e+00
-2.995400e+00
-1.058746e+01
-3.147637e+00
3.082247e+00
-6.001360e-01
-2.848220e+00
-2.623859e+00
-4.446406e+00
-4.640254e+00
-3.587094e+00
-6.874565e-01
2.322492e-01
-5.006751e-01
1.710937e+00
-1.206497e+00
-3.689539e+00
-5.666615e-01
1.520148e+00
9.184723e-01
1.225777e+01
7.253205e+00
4.843932e-01
-1.152981e+00
-6.287098e-01
-2.313097e-01
1.121841e+01
5.967787e+00
-1.069421e-01
-1.529100e+00
-1.815357e+00
-1.503558e+00
-1.641636e+00
1.482990e-01
1.154530e+00
7.672357e-02
-1.005735e+00
-1.794092e+00
2.504705e-01
1.114830e+00
2.156677e+00
1.107537e+00
-8.417906e-01
-1.564491e+00
-9.376944e-01
1.891037e-01
1.467263e+00
5.174677e-01
-8.874367e-01
-1.191184e+00
SCALARS S23 float 1
LOOKUP_TABLE default
2.626127e+01
1.205101e+01
7.897838e-01
2.203696e+01
2.626127e+01
1.205101e+01
7.897838e-01
2.203696e+01
6.134279e+00
3.062780e+00
-1.072665e+01
-8.725848e+00
6.134279e+00
3.062780e+00
-1.072665e+01
-8.725848e+00
-1.498624e+01
-2.731450e+01
-1.305709e+01
-1.498624e+01
-2.731450e+01
-1.305709e+01
-8.754613e+00
-1.006552e+01
-2.180551e+01
-2.924738e+00
-8.754613e+00
-1.006552e+01
-2.180551e+01
-2.924738e+00
-3.500411e+01
-1.902033e+01
-3.500411e+01
-1.902033e+01
-8.955847e+00
3.523816e+00
-8.955847e+00
3.523816e+00
2.059113e+00
-7.647471e-01
2.715167e+00
-2.014266e+00
2.059113e+00
-7.647471e-01
2.715167e+00
-2.014266e+00
-1.447695e+00
8.110176e+00
5.584983e+00
6.252231e-01
-1.447695e+00
8.110176e+00
5.584983e+00
6.252231e-01
-9.750561e+00
5.164729e+00
4.952087e+00
-1.499572e+01
-9.750561e+00
5.164729e+00
4.952087e+00
-1.499572e+01
1.519565e+00
-2.304035e+01
1.519565e+00
-2.304035e+01
1.416246e+01
1.416246e+01
3.291693e+01
3.137208e+01
3.291693e+01
3.137208e+01
3.050460e+01
3.642633e+01
3.050460e+01
3.642633e+01
5.258699e+00
5.258699e+00
-4.956470e+00
-4.956470e+00
1.202272e+00
1.202272e+00
-1.805381e+00
-3.029424e-01
2.807676e+00
-1.805381e+00
-3.029424e-01
2.807676e+00
-3.736244e-01
-8.143572e-01
-3.896153e+00
-4.728713e+00
-3.736244e-01
-8.143572e-01
-3.896153e+00
-4.728713e+00
4.906623e+00
4.906623e+00
-8.276841e+00
-5.344801e+00
-8.276841e+00
-5.344801e+00
2.847685e+00
2.847685e+00
-1.607997e+00
-1.607997e+00
7.500135e+00
7.500135e+00
-4.553768e+00
-4.553768e+00
-1.974702e+01
-1.974702e+01
1.363152e+01
1.363152e+01
-4.088301e+00
-4.088301e+00
1.817331e+01
1.817331e+01
2.494758e+00
5.351046e+00
2.494758e+00
5.351046e+00
4.208811e-01
4.208811e-01
-1.070375e+00
-1.070375e+00
-9.654163e-01
-9.654163e-01
-6.598083e-02
-6.598083e-02
-3.127320e+00
5.582108e+00
-3.127320e+00
5.582108e+00
-4.306384e+00
-4.306384e+00
-7.303609e-01
-7.303609e-01
7.953965e-02
7.953965e-02
6.919786e-01
6.919786e-01
-3.937398e+00
8.695598e-01
-3.937398e+00
8.695598e-01
-3.443268e+00
-3.443268e+00
4.852213e-01
4.852213e-01
1.222036e+00
1.222036e+00
1.516030e+00
1.516030e+00
-1.626209e+00
2.593986e+00
-1.626209e+00
2.593986e+00
-2.218374e+00
-2.218374e+00
-3.826088e-01
-3.826088e-01
2.746018e-01
2.746018e-01
2.427321e-01
2.427321e-01
-1.410447e+00
5.982918e+00
-1.410447e+00
5.982918e+00
-2.120820e+00
-2.120820e+00
-3.918652e-01
-3.918652e-01
1.090062e-02
1.090062e-02
-6.715996e-02
-6.715996e-02
1.287534e+00
4.426897e+00
1.287534e+00
4.426897e+00
1.362923e+00
1.362923e+00
1.084221e+00
1.084221e+00
6.007873e-01
6.007873e-01
3.924519e-01
3.924519e-01
2.984712e+00
2.868537e+00
2.984712e+00
2.868537e+00
2.857962e+00
2.857962e+00
9.462237e-01
9.462237e-01
5.841954e-01
5.841954e-01
4.196318e-02
4.196318e-02
9.744552e-02
1.620765e+00
9.744552e-02
1.620765e+00
7.539101e-01
7.539101e-01
1.002987e+00
1.002987e+00
2.077641e-01
2.077641e-01
5.931172e-03
5.931172e-03
-1.216647e+00
2.161260e-01
-1.216647e+00
2.161260e-01
-6.343004e-01
-6.343004e-01
3.693688e-01
3.693688e-01
-3.683335e-01
-3.683335e-01
-2.882557e-01
-2.882557e-01
-5.748165e-01
1.522023e-01
-5.748165e-01
1.522023e-01
4.291499e-01
4.291499e-01
8.952697e-01
8.952697e-01
-4.471035e-01
-4.471035e-01
-5.651754e-01
-5.651754e-01
-6.946144e-01
-8.303488e-03
-6.946144e-01
-8.303488e-03
1.507562e+00
1.507562e+00
2.355293e+00
2.355293e+00
2.054856e-01
2.054856e-01
1.481743e-01
1.481743e-01
1.837403e-01
-1.250673e-01
1.837403e-01
-1.250673e-01
1.370591e+00
1.370591e+00
1.408867e+00
1.408867e+00
-8.774418e-02
-8.774418e-02
-5.182225e-01
-5.182225e-01
-2.397165e-01
-6.962609e-01
-2.397165e-01
-6.962609e-01
-1.109953e-01
-1.109953e-01
-7.907668e-02
-7.907668e-02
-2.136386e-01
-2.136386e-01
1.928697e-02
1.928697e-02
-1.107717e+00
-1.754868e+00
-1.107717e+00
-1.754868e+00
-1.298827e+00
-1.298827e+00
-7.434419e-01
-7.434419e-01
6.136185e-01
6.136185e-01
2.078727e+00
2.078727e+00
5.340564e+00
-9.745933e-01
-6.784889e+00
6.147508e-01
5.340564e+00
-9.745933e-01
-6.784889e+00
6.147508e-01
1.866868e+00
2.048270e-01
1.866868e+00
2.048270e-01
-3.453646e+00
5.097724e+00
-3.453646e+00
5.097724e+00
1.388818e-01
1.388818e-01
2.566731e+00
7.188130e+00
2.566731e+00
7.188130e+00
-4.288692e-01
-4.288692e-01
4.970411e+00
5.625043e+00
4.970411e+00
5.625043e+00
-5.581570e-01
-5.581570e-01
1.936547e+00
3.863659e+00
1.936547e+00
3.863659e+00
-7.536328e-01
-7.536328e-01
-1.399224e+00
2.462397e-01
-1.399224e+00
2.462397e-01
-1.481324e+00
-1.481324e+00
5.331660e+00
3.345550e-01
5.331660e+00
3.345550e-01
1.950015e+00
1.950015e+00
2.627367e+00
2.627367e+00
7.424513e+00
7.424513e+00
5.486358e+00
5.486358e+00
3.823918e+00
3.823918e+00
1.154307e+01
4.878214e+00
1.154307e+01
4.878214e+00
8.898276e+00
8.898276e+00
7.780413e+00
7.780413e+00
4.736930e+00
4.736930e+00
-2.466250e-01
-2.466250e-01
1.834586e+00
1.834586e+00
2.713578e+00
2.713578e+00
-4.816168e+00
-4.816168e+00
-7.209987e-02
-7.209987e-02
9.001523e+00
9.001523e+00
1.084121e+01
1.084121e+01
1.400472e+01
1.400472e+01
3.222570e+00
3.222570e+00
-8.552901e+00
-8.552901e+00
7.518626e+00
5.400550e+00
5.793138e-01
1.703059e+00
7.518626e+00
5.400550e+00
5.793138e-01
1.703059e+00
-5.610420e-01
-1.187569e+00
-5.006373e-01
7.021109e-01
-5.610420e-01
-1.187569e+00
-5.006373e-01
7.021109e-01
9.246246e+00
1.293954e+01
9.043520e+00
4.532234e+00
9.246246e+00
1.293954e+01
9.043520e+00
4.532234e+00
1.033446e+00
4.729055e+00
3.705162e+00
1.033446e+00
4.729055e+00
3.705162e+00
3.582934e+00
5.872125e+00
3.582934e+00
5.872125e+00
1.490764e+01
1.197061e+01
5.996373e+00
4.927421e+00
1.490764e+01
1.197061e+01
5.996373e+00
4.927421e+00
2.439373e+00
-3.397094e+00
2.439373e+00
-3.397094e+00
4.410190e+00
3.582474e+00
4.410190e+00
3.582474e+00
-1.192793e+00
-1.379826e+00
-9.372251e-01
-1.192793e+00
-1.379826e+00
-9.372251e-01
2.928669e-01
2.928669e-01
1.202588e+00
2.849770e+00
1.202588e+00
2.849770e+00
-3.114638e+00
-2.195170e+00
-3.114638e+00
-2.195170e+00
-5.750279e+00
-5.750279e+00
1.345312e-01
1.345312e-01
-1.481565e+00
1.097329e+01
-2.199549e+00
-1.481565e+00
1.097329e+01
-2.199549e+00
6.219158e+00
-2.899432e-01
-1.319518e+00
1.315775e+01
6.219158e+00
-2.899432e-01
-1.319518e+00
1.315775e+01
1.352304e+01
4.521750e+00
1.352304e+01
4.521750e+00
8.070318e+00
8.070318e+00
6.412145e+00
7.400529e+00
-1.077232e+00
8.977701e-01
6.412145e+00
7.400529e+00
-1.077232e+00
8.977701e-01
-9.381799e+00
-9.381799e+00
6.578553e+00
6.578553e+00
1.050158e+01
1.050158e+01
6.232771e-01
6.232771e-01
2.520248e+00
2.520248e+00
-2.693708e+00
-2.693708e+00
-2.395180e+00
-5.874537e-01
-2.395180e+00
-5.874537e-01
-3.399603e+00
-1.536521e+00
-3.399603e+00
-1.536521e+00
-1.650312e+00
2.115252e-01
-1.650312e+00
2.115252e-01
-1.555903e+00
1.806552e+00
-1.555903e+00
1.806552e+00
1.786048e-01
8.491056e-01
1.786048e-01
8.491056e-01
1.228138e+00
-5.781789e-01
1.228138e+00
-5.781789e-01
6.707688e-01
-1.296192e+00
6.707688e-01
-1.296192e+00
-3.118190e-02
-1.510816e-01
-3.118190e-02
-1.510816e-01
-8.489536e-01
-9.866058e-01
-8.489536e-01
-9.866058e-01
-7.841301e-02
-1.600616e+00
-7.841301e-02
-1.600616e+00
8.655472e-01
1.318519e+00
8.655472e-01
1.318519e+00
7.264412e-01
8.982136e-01
7.264412e-01
8.982136e-01
1.983064e-01
-1.867541e-01
1.983064e-01
-1.867541e-01
2.259790e-02
4.682519e-01
2.259790e-02
4.682519e-01
-7.782552e-01
-7.782552e-01
4.830275e-02
4.830275e-02
2.041554e-01
2.041554e-01
1.917655e-02
1.917655e-02
-1.010665e+00
-1.010665e+00
-2.110910e-01
-2.110910e-01
4.833784e-01
4.833784e-01
4.186155e-02
4.186155e-02
-1.357031e+00
-1.357031e+00
-1.611227e+00
-1.611227e+00
7.250300e-01
7.250300e-01
5.344528e-01
5.344528e-01
3.754409e-02
3.754409e-02
7.851373e-01
7.851373e-01
-2.846259e-01
-2.846259e-01
1.429898e+00
1.429898e+00
-3.099859e-01
-3.099859e-01
-1.723936e+00
-1.723936e+00
-1.349328e+00
-1.349328e+00
8.904929e-01
8.904929e-01
2.286865e+00
2.286865e+00
6.578359e-01
6.578359e-01
-1.276025e-01
-1.276025e-01
-2.640861e-02
-2.640861e-02
-4.321119e-01
-4.321119e-01
5.175963e-02
5.175963e-02
3.208746e-01
3.208746e-01
-4.939043e-02
-4.939043e-02
-3.120100e-01
-3.120100e-01
2.896386e-01
2.896386e-01
7.395235e-02
7.395235e-02
1.702716e-01
1.702716e-01
4.668023e-01
4.668023e-01
4.179160e-01
4.179160e-01
3.679556e-01
3.679556e-01
3.907109e-01
3.907109e-01
2.086406e-01
2.086406e-01
-1.781898e-01
-1.781898e-01
-1.010917e-01
-1.010917e-01
2.226606e-01
2.226606e-01
2.488612e-01
2.488612e-01
1.865372e-01
1.865372e-01
-4.046509e-01
-4.046509e-01
-6.267878e-02
-6.267878e-02
3.227717e-01
3.227717e-01
1.516204e-01
1.516204e-01
-7.740527e-02
-7.740527e-02
-1.154516e-01
-1.154516e-01
-1.083346e-01
-1.083346e-01
2.231419e-02
2.231419e-02
3.696081e-02
3.696081e-02
-3.304161e-01
-3.304161e-01
-5.518032e-01
-5.518032e-01
-4.741185e-01
-4.741185e-01
3.219908e-01
3.219908e-01
1.141114e+00
1.141114e+00
3.413285e-01
-7.922736e+00
3.413285e-01
-7.922736e+00
9.445567e+00
9.445567e+00
9.812005e+00
9.812005e+00
1.276437e+01
1.276437e+01
5.219110e+00
5.219110e+00
-7.427948e+00
-7.427948e+00
-5.512645e+00
-5.512645e+00
-2.772548e+00
-2.772548e+00
-3.889801e+00
-8.466819e+00
-3.889801e+00
-8.466819e+00
-1.671206e+00
-1.671206e+00
-9.634596e+00
-9.634596e+00
-3.290239e+00
-3.290239e+00
4.501018e+00
4.501018e+00
-7.274790e+00
-7.274790e+00
-9.664718e+00
-9.664718e+00
-3.407903e+00
-3.407903e+00
-7.840468e-01
-1.960887e+00
-7.840468e-01
-1.960887e+00
-1.789741e+00
-1.789741e+00
-7.693939e+00
-7.693939e+00
-5.397776e+00
-5.397776e+00
3.486555e+00
3.486555e+00
3.048896e+00
3.048896e+00
-5.283028e-01
-5.283028e-01
-1.515369e+00
-1.515369e+00
5.222054e+00
1.053596e+01
5.222054e+00
1.053596e+01
2.471759e+00
2.471759e+00
2.111130e+00
2.111130e+00
-1.889030e+00
-1.889030e+00
-3.898678e+00
-3.898678e+00
1.681106e+00
1.681106e+00
-1.984786e+00
-1.984786e+00
-1.380113e+01
-1.380113e+01
9.011939e-01
1.118279e+01
9.011939e-01
1.118279e+01
-6.798026e+00
-6.798026e+00
-5.009412e+00
-5.009412e+00
-1.946834e+00
-1.946834e+00
-3.450421e+00
-3.450421e+00
-3.853218e+00
-3.853218e+00
-7.891384e+00
-7.891384e+00
-1.610832e+01
-1.610832e+01
-2.272969e+00
1.252672e+00
-2.272969e+00
1.252672e+00
-8.773150e+00
-8.773150e+00
-3.039478e+00
-3.039478e+00
5.860676e+00
5.860676e+00
1.947484e+00
1.947484e+00
-1.205671e+01
-1.205671e+01
-1.271543e+01
-1.271543e+01
-5.738540e+00
-5.738540e+00
4.769045e+00
8.157736e-01
-1.788786e+00
5.678973e+00
4.769045e+00
8.157736e-01
-1.788786e+00
5.678973e+00
-3.035041e+00
-5.427716e-01
-3.035041e+00
-5.427716e-01
-2.000823e+00
-5.051167e+00
-2.000823e+00
-5.051167e+00
-3.576658e+00
-5.397070e+00
-3.576658e+00
-5.397070e+00
-2.187570e+00
-3.597288e+00
-2.187570e+00
-3.597288e+00
2.025014e+00
-4.195883e-01
2.025014e+00
-4.195883e-01
1.982111e+00
-2.891007e+00
1.982111e+00
-2.891007e+00
5.112849e-01
7.986353e-01
5.112849e-01
7.986353e-01
4.772569e-01
4.772569e-01
-4.551158e-01
-4.551158e-01
-1.667178e+00
-1.667178e+00
-1.329919e+00
-1.329919e+00
-1.160683e+00
-1.160683e+00
-8.625961e-01
-8.625961e-01
-3.481440e+00
-3.481440e+00
-5.996838e-01
-5.996838e-01
1.503420e+00
1.503420e+00
3.587275e+00
3.587275e+00
8.110843e-02
8.110843e-02
2.813593e-01
2.813593e-01
1.223999e-01
1.223999e-01
8.822012e-01
8.822012e-01
-5.071085e-01
-5.071085e-01
-2.011666e+00
-2.011666e+00
5.704834e-01
5.704834e-01
1.018178e+00
1.018178e+00
8.903027e-01
8.903027e-01
6.564586e-01
6.564586e-01
1.341983e+00
1.341983e+00
-9.015993e+00
-9.015993e+00
1.346176e+00
1.346176e+00
9.635362e-01
9.635362e-01
-1.917831e+01
-1.917831e+01
3.871623e-01
8.580137e+00
3.871623e-01
8.580137e+00
2.059015e+00
-5.231150e+00
2.059015e+00
-5.231150e+00
1.890004e+00
-6.075747e+00
1.890004e+00
-6.075747e+00
-6.069012e+00
5.932503e+00
-6.069012e+00
5.932503e+00
-5.381181e+00
6.822701e+00
-5.381181e+00
6.822701e+00
3.766144e+00
3.766144e+00
-7.326052e+00
-7.326052e+00
-4.717075e+00
-4.717075e+00
1.210753e+01
1.210753e+01
8.186073e+00
8.186073e+00
1.025937e+00
1.025937e+00
1.150867e+00
1.150867e+00
4.275017e+00
4.275017e+00
1.958242e+00
1.958242e+00
-7.808680e-02
-7.808680e-02
-2.592970e+00
-2.592970e+00
-5.228638e+00
-5.228638e+00
-3.094175e+00
-3.094175e+00
-8.458967e+00
-8.458967e+00
-4.147194e+00
-4.147194e+00
-2.163129e+00
-2.163129e+00
-9.352973e-01
-9.352973e-01
6.468588e+00
6.468588e+00
2.242223e+00
2.242223e+00
-2.982737e+00
-2.982737e+00
3.187375e+00
3.187375e+00
6.189857e+00
6.189857e+00
1.086859e+01
1.086859e+01
4.971941e+00
4.971941e+00
-1.236814e+01
-1.236814e+01
-1.275467e+01
-1.275467e+01
-8.679954e+00
-8.679954e+00
-8.143698e+00
-8.143698e+00
-5.829688e-02
-5.829688e-02
-6.278377e+00
-6.278377e+00
-2.912273e+01
-2.912273e+01
-1.933404e+01
-1.933404e+01
-1.638501e+01
-1.638501e+01
1.462756e+00
1.462756e+00
8.077020e+00
8.077020e+00
-5.709459e+00
-5.709459e+00
-4.686472e+00
-4.686472e+00
-9.522042e-01
-9.522042e-01
5.300991e+00
5.300991e+00
7.392864e+00
7.392864e+00
1.708801e+00
1.708801e+00
-3.112606e+00
-3.112606e+00
-7.189578e+00
-7.189578e+00
-3.950749e+00
-3.950749e+00
3.380563e-01
3.380563e-01
8.859336e+00
8.859336e+00
1.158090e+01
1.158090e+01
-6.305352e-01
-6.305352e-01
-5.957327e+00
-5.957327e+00
-6.333964e+00
-6.333964e+00
-6.585089e+00
-6.585089e+00
4.923429e+00
4.923429e+00
1.022031e+01
1.022031e+01
3.410856e+00
3.410856e+00
3.561964e+00
3.561964e+00
5.724792e+00
5.724792e+00
-5.913847e+00
-5.913847e+00
-7.944750e+00
-7.944750e+00
-4.932989e-01
-4.932989e-01
-2.086120e+00
-2.086120e+00
3.876098e+00
3.876098e+00
6.405577e+00
6.405577e+00
-5.174423e-01
-5.174423e-01
-7.996398e-01
-7.996398e-01
4.985297e+00
4.985297e+00
-7.006028e+00
-7.006028e+00
-2.830549e+00
-2.830549e+00
-9.538724e+00
-9.538724e+00
-3.772334e+00
-3.772334e+00
4.649156e+00
4.649156e+00
8.393599e+00
8.393599e+00
-1.093693e+01
-1.093693e+01
-7.384151e+00
-7.384151e+00
-7.772692e+00
-7.772692e+00
-6.347320e-02
-6.347320e-02
-4.783426e+00
-4.783426e+00
-4.183892e+00
-4.183892e+00
-7.099019e+00
-7.099019e+00
-3.883659e+00
-3.883659e+00
6.013251e+00
6.013251e+00
5.603907e+00
5.603907e+00
-1.401467e+01
-1.401467e+01
-8.617339e+00
-8.617339e+00
-4.894346e-01
-4.894346e-01
1.228705e+01
1.228705e+01
1.170297e+01
1.170297e+01
-7.576398e+00
-7.576398e+00
-1.325684e+01
-1.325684e+01
-1.679383e+01
-1.679383e+01
-8.458960e-01
-8.458960e-01
2.592207e+01
2.592207e+01
1.638734e+01
1.638734e+01
-1.536641e+01
-1.536641e+01
-6.894630e+00
-6.894630e+00
-5.992773e-01
-5.992773e-01
-1.139965e+00
-1.139965e+00
1.265932e+01
1.265932e+01
1.567288e+01
1.567288e+01
-8.979552e-03
-8.979552e-03
-1.016061e+00
-1.016061e+00
-1.274926e+00
-1.274926e+00
-5.078759e+00
-5.078759e+00
-8.647722e+00
-8.647722e+00
1.431529e+01
1.431529e+01
9.554949e+00
9.554949e+00
1.856268e+00
1.856268e+00
1.204696e+01
1.204696e+01
-3.928328e+00
-3.928328e+00
-7.616886e+00
-7.616886e+00
5.773320e+00
5.773320e+00
1.612904e+01
1.612904e+01
1.907416e+01
1.907416e+01
2.168416e+01
2.168416e+01
-5.635781e+00
-5.635781e+00
5.456788e+00
5.456788e+00
7.204066e+00
7.204066e+00
6.511438e+00
6.511438e+00
2.141066e+01
2.141066e+01
2.925024e+01
2.925024e+01
-1.323932e+00
-1.323932e+00
5.145097e+00
5.145097e+00
-1.846907e+00
-1.846907e+00
-1.013755e+01
-1.013755e+01
1.408837e+01
1.408837e+01
5.816013e+01
5.816013e+01
4.421625e+00
4.421625e+00
-8.820861e+00
-8.820861e+00
-4.108268e+00
-4.108268e+00
5.897224e+01
5.897224e+01
8.459182e+01
8.459182e+01
5.299979e+01
5.299979e+01
-1.167344e+01
-1.167344e+01
-9.788823e+00
-9.788823e+00
-1.433695e+01
-1.433695e+01
2.898999e+01
2.898999e+01
9.354366e+00
9.354366e+00
-5.015053e+01
-5.015053e+01
-1.780709e+00
-1.780709e+00
-7.599866e+00
-7.599866e+00
-2.105604e+01
-2.105604e+01
-3.960674e+01
-3.960674e+01
-8.757675e+01
-8.757675e+01
-1.137983e+02
-1.137983e+02
1.592632e+01
1.592632e+01
8.760647e-01
8.760647e-01
5.832950e+00
5.832950e+00
-5.138637e+00
-5.138637e+00
-3.096195e+01
-3.096195e+01
-3.241665e+01
-3.241665e+01
1.014837e+01
1.014837e+01
5.271006e+00
5.271006e+00
7.856971e+00
7.856971e+00
-4.930719e+00
-4.930719e+00
-1.399774e+01
-1.399774e+01
-4.089787e+00
-4.089787e+00
1.183004e+01
1.183004e+01
-2.702506e+00
-2.702506e+00
-7.505628e+00
-7.505628e+00
-1.049408e+01
-1.049408e+01
-8.301152e+00
-8.301152e+00
-1.154164e+01
-1.154164e+01
1.360598e+01
1.360598e+01
-1.626432e+00
-1.626432e+00
-2.174225e+01
-2.174225e+01
-1.188336e+01
-1.188336e+01
3.480459e+00
3.480459e+00
-1.224388e+01
-1.224388e+01
-1.005013e+01
-1.005013e+01
-2.462018e+00
-2.462018e+00
-2.548734e+00
-2.548734e+00
-8.653733e+00
-8.653733e+00
-8.870173e+00
-8.870173e+00
-2.804007e+00
-2.804007e+00
-5.071461e+00
-5.071461e+00
-2.945288e+00
-2.945288e+00
4.863427e+00
4.863427e+00
-2.459869e+00
-2.459869e+00
-9.240689e+00
-9.240689e+00
-7.045884e+00
-7.045884e+00
-9.594964e+00
-9.594964e+00
-5.374041e+00
-5.374041e+00
-1.258785e+00
-1.258785e+00
1.578048e+00
1.578048e+00
1.859288e+00
1.859288e+00
6.624654e-02
6.624654e-02
1.279406e+01
1.279406e+01
-2.360364e-01
-2.360364e-01
-2.192074e+01
-2.192074e+01
-1.127712e+01
-1.127712e+01
-1.768464e+01
-1.768464e+01
-7.185486e+00
-7.185486e+00
-2.361515e+00
-2.361515e+00
-6.931849e+00
-6.931849e+00
-8.182889e+00
-8.182889e+00
-6.689949e+00
-6.689949e+00
-1.633280e+01
-1.633280e+01
-1.770220e+01
-1.770220e+01
-4.442248e+00
-4.442248e+00
9.509237e-01
9.509237e-01
-8.995578e-01
-8.995578e-01
-4.222790e+00
-4.222790e+00
-5.010563e+00
-5.010563e+00
5.038893e+00
5.038893e+00
3.000048e+00
3.000048e+00
-8.071590e+00
-8.071590e+00
2.030707e+00
2.030707e+00
1.590741e+01
1.590741e+01
1.033983e+01
1.033983e+01
-3.354431e+00
-3.354431e+00
-7.434484e+00
-7.434484e+00
-5.345925e+00
-5.345925e+00
-9.409143e+00
-9.409143e+00
-8.816903e+00
-8.816903e+00
-2.759535e+00
-2.759535e+00
2.513986e+00
2.513986e+00
-2.976700e+00
-2.976700e+00
-2.965826e+00
-2.965826e+00
-6.762719e+00
-6.762719e+00
-3.066849e+00
-3.066849e+00
1.000490e+01
1.000490e+01
8.983101e+00
8.983101e+00
4.943172e+00
4.943172e+00
-3.043444e+00
-3.043444e+00
-6.875007e+00
-6.875007e+00
6.094469e+00
6.094469e+00
1.373677e+01
1.373677e+01
5.600139e+00
5.600139e+00
1.878690e+00
1.878690e+00
8.544651e+00
8.544651e+00
6.637806e+00
6.637806e+00
5.495017e+00
5.495017e+00
1.068701e+01
1.068701e+01
-6.337401e+00
-6.337401e+00
3.869273e+00
3.869273e+00
-4.786365e+00
-4.786365e+00
-8.996324e+00
-8.996324e+00
2.803122e+00
2.803122e+00
1.345183e+00
1.345183e+00
-1.938005e+00
-1.938005e+00
-8.885284e-02
-8.885284e-02
8.928447e+00
8.928447e+00
1.345241e+01
1.345241e+01
6.499634e+00
6.499634e+00
3.001240e+00
3.001240e+00
1.030739e+01
1.030739e+01
2.782512e+00
2.782512e+00
9.594290e+00
9.594290e+00
1.220132e+01
1.220132e+01
-2.993888e+00
-2.993888e+00
-6.816538e+00
-6.816538e+00
-5.034831e-01
-5.034831e-01
2.337748e+00
2.337748e+00
-7.247297e+00
-7.247297e+00
-3.939464e+00
-3.939464e+00
-5.205133e+00
-5.205133e+00
7.925412e+00
7.925412e+00
2.719832e-01
2.719832e-01
-7.840889e+00
-7.840889e+00
2.724627e+00
2.724627e+00
8.653507e+00
8.653507e+00
2.130131e+00
2.130131e+00
8.172203e-01
8.172203e-01
-1.062150e+01
-1.062150e+01
-5.650469e+00
-5.650469e+00
-6.342530e+00
-6.342530e+00
8.928125e+00
8.928125e+00
2.032277e+01
2.032277e+01
1.772777e+01
1.772777e+01
4.653219e+01
4.653219e+01
2.145742e+01
2.145742e+01
-2.818764e+01
-2.818764e+01
-4.512712e+01
-4.512712e+01
-1.171975e+01
-1.171975e+01
-5.279871e-01
-5.279871e-01
-2.450092e+01
-2.450092e+01
-3.071238e+01
-3.071238e+01
3.791841e+00
2.710271e+00
1.671033e+00
1.016544e+00
5.109962e-02
-2.175237e-01
2.717070e+00
2.318345e+00
1.857435e+00
1.132087e+00
-2.976966e-02
-5.284622e-01
1.898288e+00
1.354479e+00
1.002980e+00
1.165835e+00
5.874950e-01
3.860838e-02
1.230080e+00
2.203820e-02
-4.477374e-01
7.796624e-01
1.040897e+00
8.129986e-01
-1.514956e+00
-1.639081e+00
-1.451762e+00
-6.432984e-01
-1.957301e-01
-2.451816e-01
-3.500262e+00
-3.215445e+00
-3.126551e+00
-2.879170e+00
-1.870868e+00
-1.305868e+00
-3.197804e+00
-3.728405e+00
-4.525746e+00
-4.125894e+00
-2.422445e+00
-1.385590e+00
-3.512154e+00
-3.590260e+00
-4.087530e+00
-3.452135e+00
-1.691035e+00
-9.844937e-01
-2.181896e+00
-2.272634e+00
-2.513660e+00
-1.935055e+00
-9.235970e-01
-6.410336e-01
1.863926e-01
-2.313496e-01
-7.946040e-01
-5.661674e-01
-3.688263e-01
-5.454340e-01
4.431527e-01
4.676656e-01
1.073692e-01
8.883181e-02
1.825097e-02
-4.186018e-01
3.711229e+00
3.192483e+00
2.249333e+00
1.699363e+00
6.080848e-01
-3.576255e-01
2.377392e+00
2.251742e+00
1.705469e+00
1.366620e+00
6.299535e-01
-1.884876e-01
1.002062e-01
1.780640e-01
2.970907e-01
9.407708e-01
1.023170e+00
5.030582e-01
-9.116677e-01
-1.132880e+00
-7.449871e-01
6.455247e-01
1.117609e+00
8.082868e-01
-6.689113e-01
-1.220846e+00
-1.307107e+00
-5.416043e-01
-2.697072e-01
-2.976380e-01
-1.317938e+00
-1.904131e+00
-2.444118e+00
-2.394267e+00
-1.845195e+00
-1.299769e+00
-2.275968e+00
-2.953894e+00
-3.549520e+00
-3.318396e+00
-2.194662e+00
-1.219752e+00
-2.606086e+00
-3.117472e+00
-3.437981e+00
-2.680812e+00
-1.291736e+00
-4.689508e-01
-1.959142e+00
-1.943416e+00
-1.952265e+00
-1.221365e+00
-2.460411e-01
-2.619107e-02
-1.358020e-01
-4.887851e-02
-1.328036e-01
8.497165e-02
1.462585e-01
-1.810784e-01
7.081997e-01
7.844635e-01
6.654276e-01
6.259017e-01
2.801743e-01
-2.213269e-01
1.152903e+00
1.996941e+00
2.211598e+00
1.792884e+00
6.581337e-01
-6.872844e-01
2.517293e-01
4.842992e-01
3.854790e-01
1.063091e+00
1.096167e+00
1.202408e-01
-2.758696e+00
-2.026499e+00
-1.484261e+00
3.341940e-01
1.756428e+00
1.170247e+00
-3.559888e+00
-2.103597e+00
-9.550982e-01
4.864022e-01
1.624807e+00
1.013918e+00
6.727700e-01
-2.627932e-01
-4.042917e-01
2.564278e-01
1.232393e-01
1.233959e-01
1.720033e+00
-1.362768e-02
-4.631176e-01
-5.622852e-01
-1.400486e+00
-8.553495e-01
-8.641679e-01
-1.127626e+00
-8.589977e-01
-1.277738e+00
-1.498810e+00
-7.690554e-01
-1.218774e-01
-1.067368e+00
-1.465595e+00
-1.127107e+00
-5.205979e-01
2.946851e-01
1.863727e-01
-2.711082e-01
-5.146161e-01
-7.815915e-02
3.099428e-01
4.755610e-01
-5.179918e-01
4.337596e-01
1.032430e+00
7.732187e-01
5.393067e-01
2.115250e-01
-8.145163e-02
8.460455e-01
1.380932e+00
1.004306e+00
6.386590e-01
2.570270e-01
-2.906159e-01
2.802982e-03
2.179723e-01
-2.194033e-01
-8.051858e-01
-1.031842e+00
-2.134386e+00
-1.599210e+00
-1.043168e+00
-2.610275e-01
4.653976e-01
4.305474e-01
-3.563810e+00
-1.634651e+00
-9.252768e-01
3.118473e-01
2.242976e+00
1.717195e+00
-3.289918e+00
-7.637432e-01
2.152548e-02
1.043428e+00
2.592766e+00
1.379295e+00
-5.854527e-01
-9.502741e-01
3.506599e-01
1.787427e+00
1.372656e+00
1.186874e+00
3.518269e+00
1.217543e+00
1.992774e+00
2.211217e+00
-2.505539e-01
1.451893e-01
2.036572e+00
1.763813e+00
2.153163e+00
1.065484e+00
-5.275556e-01
-3.708068e-01
-1.175318e+00
-1.695066e-01
7.149794e-01
6.161650e-02
1.571609e-02
5.018529e-01
6.537843e-02
5.165279e-01
9.801321e-01
2.928829e-01
-1.074727e-01
1.918757e-01
6.500706e-01
1.346688e+00
1.472205e+00
5.040023e-01
-6.384848e-02
-2.345971e-01
-4.773257e-01
6.699090e-01
9.813015e-01
4.225916e-01
3.629327e-01
2.614153e-02
-5.912451e+00
-3.860430e+00
-1.500506e+00
-2.111697e+00
-1.728740e+00
-4.266891e-01
-4.728591e+00
-2.701139e+00
-1.171402e+00
-1.422106e+00
2.108917e-01
1.596878e+00
3.716532e-02
2.613204e+00
1.804388e+00
1.702669e-01
2.499139e+00
3.077278e+00
-1.580041e+00
1.178510e+00
1.297565e+00
1.451923e+00
3.320557e+00
2.395338e+00
-1.876416e+00
-2.043837e+00
6.325181e-01
3.565431e+00
2.756718e+00
1.858868e+00
6.628292e-01
4.194669e-01
4.440510e+00
5.513686e+00
1.218319e+00
1.141829e-01
1.254190e+00
2.337740e+00
4.504629e+00
3.613091e+00
1.947956e-01
-1.248624e+00
-2.651689e+00
-9.366923e-02
1.818049e+00
6.168959e-01
-3.535738e-01
-7.691925e-01
-4.689783e+00
-1.885637e+00
5.438871e-01
-4.361320e-01
-8.252785e-01
-6.090270e-01
-2.183445e-01
1.834088e-01
4.636145e-02
-5.875361e-01
-7.303263e-01
-7.780197e-01
-5.695357e-01
-2.093549e-01
-6.081704e-01
-5.678924e-01
-1.902721e-01
-6.119259e-01
-1.256848e+01
-7.407279e+00
-1.841394e+00
-2.581000e+00
-1.695911e+00
3.334648e-01
-6.722665e+00
-3.420398e+00
-1.039013e+00
-1.797130e+00
3.936447e-01
2.421656e+00
3.382435e+00
5.441064e+00
2.899604e+00
-3.304790e-01
2.566338e+00
4.093150e+00
-6.466062e-01
1.965111e+00
1.684120e+00
1.278408e+00
3.510877e+00
3.256348e+00
-1.413520e+00
-1.910100e+00
9.175844e-01
4.508774e+00
3.358287e+00
1.940875e+00
-3.135201e+00
-1.030592e+00
5.730921e+00
7.389730e+00
1.956297e+00
-4.790422e-01
-1.938968e+00
1.071986e+00
5.558228e+00
5.050634e+00
4.139606e-01
-2.239831e+00
-1.496478e+00
6.616237e-01
2.063379e+00
7.658343e-01
-8.873384e-01
-1.999313e+00
-7.401188e+00
-3.732348e+00
-5.108528e-01
-1.106673e+00
-1.247241e+00
-1.239335e+00
-2.314817e+00
-1.592632e+00
-1.315824e+00
-1.372750e+00
-9.156855e-01
-8.470723e-01
-1.320570e+00
-1.167698e+00
-1.640566e+00
-1.135327e+00
-3.711894e-01
-7.380288e-01
SCALARS S13 float 1
LOOKUP_TABLE default
1.093113e+01
8.444046e+00
-8.652159e+00
-1.773087e+00
1.093113e+01
8.444046e+00
-8.652159e+00
-1.773087e+00
9.165777e+00
-4.837385e+00
-8.530885e+00
-5.634940e+00
9.165777e+00
-4.837385e+00
-8.530885e+00
-5.634940e+00
-1.112893e+01
-1.005246e+01
2.197273e+00
-1.112893e+01
-1.005246e+01
2.197273e+00
-1.267695e+01
-1.384945e+01
-1.079374e+00
-1.725849e+01
-1.267695e+01
-1.384945e+01
-1.079374e+00
-1.725849e+01
-1.554228e+01
-2.640328e+01
-1.554228e+01
-2.640328e+01
-1.168186e+01
-2.660391e+01
-1.168186e+01
-2.660391e+01
-5.286901e+01
-3.166708e+01
-2.006723e+01
-2.805432e+01
-5.286901e+01
-3.166708e+01
-2.006723e+01
-2.805432e+01
2.351393e+00
-2.628989e+00
-1.819284e+01
-1.441288e+00
2.351393e+00
-2.628989e+00
-1.819284e+01
-1.441288e+00
-1.873760e+01
-1.767876e+01
-2.353624e+00
4.060972e+00
-1.873760e+01
-1.767876e+01
-2.353624e+00
4.060972e+00
1.444466e+01
-8.133004e+00
1.444466e+01
-8.133004e+00
1.418929e+01
1.418929e+01
-8.294322e+00
-6.393844e+00
-8.294322e+00
-6.393844e+00
-4.268585e+01
-2.390176e+01
-4.268585e+01
-2.390176e+01
-7.391827e+00
-7.391827e+00
-2.133756e+01
-2.133756e+01
-1.444884e+01
-1.444884e+01
-7.140946e+00
2.017862e+00
-2.990387e-02
-7.140946e+00
2.017862e+00
-2.990387e-02
-8.871444e-01
-2.476708e+00
-2.641941e+01
-2.276155e+01
-8.871444e-01
-2.476708e+00
-2.641941e+01
-2.276155e+01
-1.128828e+01
-1.128828e+01
3.259532e+00
-1.581630e+01
3.259532e+00
-1.581630e+01
2.023036e+00
2.023036e+00
-2.903377e+01
-2.903377e+01
-3.218706e+01
-3.218706e+01
-5.490128e+01
-5.490128e+01
-3.122158e+01
-3.122158e+01
-7.145683e+00
-7.145683e+00
-6.345465e+01
-6.345465e+01
-2.590798e+01
-2.590798e+01
-2.291151e+01
-2.861347e+01
-2.291151e+01
-2.861347e+01
-1.205225e+00
-1.205225e+00
1.785058e+01
1.785058e+01
1.918498e+01
1.918498e+01
1.380003e+01
1.380003e+01
-3.430990e+01
-3.127095e+00
-3.430990e+01
-3.127095e+00
-1.004005e+01
-1.004005e+01
2.013238e+01
2.013238e+01
2.351328e+01
2.351328e+01
2.215127e+01
2.215127e+01
-2.258398e+01
3.520102e+00
-2.258398e+01
3.520102e+00
-1.347023e+01
-1.347023e+01
6.692781e+00
6.692781e+00
8.311941e+00
8.311941e+00
6.995990e+00
6.995990e+00
-7.576251e+00
1.243670e+01
-7.576251e+00
1.243670e+01
-3.753638e+00
-3.753638e+00
8.419972e+00
8.419972e+00
8.572918e+00
8.572918e+00
8.249760e+00
8.249760e+00
-2.974956e+00
2.679927e+01
-2.974956e+00
2.679927e+01
-3.731920e+00
-3.731920e+00
7.202902e+00
7.202902e+00
1.226157e+01
1.226157e+01
1.738719e+01
1.738719e+01
1.026981e+01
2.390675e+01
1.026981e+01
2.390675e+01
-3.919376e-01
-3.919376e-01
-3.252986e+00
-3.252986e+00
1.561229e+00
1.561229e+00
7.384860e+00
7.384860e+00
1.976403e+01
2.170493e+01
1.976403e+01
2.170493e+01
7.653689e+00
7.653689e+00
-5.190897e+00
-5.190897e+00
-1.375093e+01
-1.375093e+01
-1.700318e+01
-1.700318e+01
2.614323e+00
1.059428e+01
2.614323e+00
1.059428e+01
-4.260034e+00
-4.260034e+00
-9.636981e+00
-9.636981e+00
-2.330009e+01
-2.330009e+01
-3.438631e+01
-3.438631e+01
-7.954862e+00
-2.124904e+00
-7.954862e+00
-2.124904e+00
-7.636743e+00
-7.636743e+00
-1.819760e+00
-1.819760e+00
-1.385447e+01
-1.385447e+01
-2.997586e+01
-2.997586e+01
-6.262528e+00
-3.213446e+00
-6.262528e+00
-3.213446e+00
-8.558897e+00
-8.558897e+00
1.743765e+00
1.743765e+00
6.933626e+00
6.933626e+00
1.951645e-01
1.951645e-01
-5.362669e+00
-2.130935e+00
-5.362669e+00
-2.130935e+00
-1.405402e+01
-1.405402e+01
-9.683443e+00
-9.683443e+00
6.921931e+00
6.921931e+00
1.206959e+01
1.206959e+01
8.025843e+00
7.303131e+00
8.025843e+00
7.303131e+00
-2.829790e+00
-2.829790e+00
2.622278e+00
2.622278e+00
3.883556e+00
3.883556e+00
-2.830502e+00
-2.830502e+00
5.174717e+00
1.809195e+01
5.174717e+00
1.809195e+01
-1.118914e+01
-1.118914e+01
1.403450e+00
1.403450e+00
1.260874e+01
1.260874e+01
1.363865e+01
1.363865e+01
-6.039589e+00
2.023480e+01
-6.039589e+00
2.023480e+01
-2.662310e+01
-2.662310e+01
-1.499810e+01
-1.499810e+01
1.620289e+01
1.620289e+01
3.685258e+01
3.685258e+01
4.239507e+00
1.583962e+01
1.955306e+01
1.423455e+01
4.239507e+00
1.583962e+01
1.955306e+01
1.423455e+01
1.829814e+01
5.974753e+00
1.829814e+01
5.974753e+00
9.125486e+00
6.860013e+00
9.125486e+00
6.860013e+00
1.167808e+00
1.167808e+00
2.466440e-01
-6.884794e+00
2.466440e-01
-6.884794e+00
6.278183e+00
6.278183e+00
-1.799304e+01
-1.281683e+01
-1.799304e+01
-1.281683e+01
-6.768953e+00
-6.768953e+00
-9.789151e+00
-3.497492e+00
-9.789151e+00
-3.497492e+00
-1.003328e+00
-1.003328e+00
1.238381e+01
6.865191e+00
1.238381e+01
6.865191e+00
1.744297e+01
1.744297e+01
7.179186e+00
-4.339460e+01
7.179186e+00
-4.339460e+01
8.800429e+00
8.800429e+00
1.310139e+01
1.310139e+01
2.866849e+01
2.866849e+01
2.212387e+01
2.212387e+01
1.996480e+01
1.996480e+01
-2.146015e+01
-6.125511e+01
-2.146015e+01
-6.125511e+01
-5.604783e+00
-5.604783e+00
-7.806095e+00
-7.806095e+00
1.961765e+00
1.961765e+00
1.210013e+01
1.210013e+01
1.207455e+01
1.207455e+01
8.985974e-01
8.985974e-01
2.136532e+00
2.136532e+00
-3.389045e+00
-3.389045e+00
-4.515508e+00
-4.515508e+00
-3.680398e+00
-3.680398e+00
-1.764900e+01
-1.764900e+01
-4.107352e+01
-4.107352e+01
-3.753227e+01
-3.753227e+01
1.979119e+00
7.729354e+00
4.641503e+00
-4.113852e+00
1.979119e+00
7.729354e+00
4.641503e+00
-4.113852e+00
3.307110e+01
1.474584e+01
1.950596e+01
8.186237e+00
3.307110e+01
1.474584e+01
1.950596e+01
8.186237e+00
-1.223153e+01
-1.936744e+00
-1.160776e+01
-1.966322e+01
-1.223153e+01
-1.936744e+00
-1.160776e+01
-1.966322e+01
-1.814586e+01
-1.034415e+00
-1.070877e+01
-1.814586e+01
-1.034415e+00
-1.070877e+01
8.508688e-01
1.421442e+01
8.508688e-01
1.421442e+01
2.233837e+01
5.621324e+00
6.589527e+00
2.790070e+00
2.233837e+01
5.621324e+00
6.589527e+00
2.790070e+00
-1.556261e+01
-1.159387e+00
-1.556261e+01
-1.159387e+00
1.599023e+00
5.008091e+00
1.599023e+00
5.008091e+00
1.125434e+01
2.099466e+00
1.193762e+01
1.125434e+01
2.099466e+00
1.193762e+01
2.624365e+00
2.624365e+00
-4.007085e+00
-3.385312e+01
-4.007085e+00
-3.385312e+01
1.300006e+01
1.377424e+00
1.300006e+01
1.377424e+00
1.528851e+01
1.528851e+01
-1.624022e+01
-1.624022e+01
-1.740293e+01
-4.048410e+01
-2.822337e+00
-1.740293e+01
-4.048410e+01
-2.822337e+00
3.766712e+00
3.658621e+01
5.311118e+01
-4.919197e+00
3.766712e+00
3.658621e+01
5.311118e+01
-4.919197e+00
4.547193e+00
2.742587e+01
4.547193e+00
2.742587e+01
-2.675022e+01
-2.675022e+01
-1.539012e+01
-3.288698e-01
-1.328076e+01
-2.165350e+01
-1.539012e+01
-3.288698e-01
-1.328076e+01
-2.165350e+01
1.863936e+01
1.863936e+01
-4.869817e+00
-4.869817e+00
-1.875570e+00
-1.875570e+00
1.543829e+01
1.543829e+01
1.954597e+01
1.954597e+01
-8.586763e+00
-8.586763e+00
1.672648e+01
1.427406e-01
1.672648e+01
1.427406e-01
2.581335e+00
-6.284873e+00
2.581335e+00
-6.284873e+00
5.357449e+00
-1.953993e+00
5.357449e+00
-1.953993e+00
1.250909e+01
-2.691781e+00
1.250909e+01
-2.691781e+00
-1.415052e+00
-4.981013e+00
-1.415052e+00
-4.981013e+00
-1.416407e+01
-6.821684e+00
-1.416407e+01
-6.821684e+00
-6.335420e+00
1.080678e+00
-6.335420e+00
1.080678e+00
5.780573e+00
4.029071e+00
5.780573e+00
4.029071e+00
1.833932e+01
1.648682e+01
1.833932e+01
1.648682e+01
1.409083e+01
1.984168e+01
1.409083e+01
1.984168e+01
-5.896447e+00
-8.127282e+00
-5.896447e+00
-8.127282e+00
-2.857955e+00
-1.283886e+00
-2.857955e+00
-1.283886e+00
4.985333e+00
-8.813572e-01
4.985333e+00
-8.813572e-01
2.167233e-01
-2.248114e+01
2.167233e-01
-2.248114e+01
9.359636e+00
9.359636e+00
9.047181e+00
9.047181e+00
-2.610601e+00
-2.610601e+00
-1.639822e+01
-1.639822e+01
-1.261828e+01
-1.261828e+01
4.590278e+00
4.590278e+00
1.414476e+01
1.414476e+01
2.262437e+00
2.262437e+00
3.297926e+00
3.297926e+00
5.525577e+00
5.525577e+00
-1.032795e+01
-1.032795e+01
-2.175992e+00
-2.175992e+00
-5.528045e+00
-5.528045e+00
-2.444427e+01
-2.444427e+01
1.008655e+01
1.008655e+01
1.185213e+01
1.185213e+01
-2.566193e+00
-2.566193e+00
-8.370994e+00
-8.370994e+00
-6.131362e-01
-6.131362e-01
1.087784e+01
1.087784e+01
1.682973e+01
1.682973e+01
8.884635e+00
8.884635e+00
3.397812e+00
3.397812e+00
1.967608e+00
1.967608e+00
7.041673e+00
7.041673e+00
1.303719e+01
1.303719e+01
4.127539e+00
4.127539e+00
-5.107185e+00
-5.107185e+00
1.465671e+01
1.465671e+01
5.520899e+00
5.520899e+00
-6.298151e+00
-6.298151e+00
-3.406067e+00
-3.406067e+00
7.511704e+00
7.511704e+00
1.345129e+01
1.345129e+01
7.483360e+00
7.483360e+00
2.604114e+00
2.604114e+00
8.431682e+00
8.431682e+00
1.433894e+01
1.433894e+01
1.988828e+01
1.988828e+01
1.688384e+01
1.688384e+01
2.989556e+00
2.989556e+00
-4.349575e+00
-4.349575e+00
1.793962e+01
1.793962e+01
-1.008800e+00
-1.008800e+00
-8.023798e+00
-8.023798e+00
-8.067451e+00
-8.067451e+00
-2.734976e+00
-2.734976e+00
8.809966e+00
8.809966e+00
-9.332001e-01
-9.332001e-01
-9.530516e+00
-9.530516e+00
7.669102e+00
7.669102e+00
2.398609e+01
2.398609e+01
2.351851e+01
2.351851e+01
1.414687e+01
1.414687e+01
-5.823097e-01
-5.823097e-01
-8.805381e+00
-8.805381e+00
-1.460104e-02
-5.883293e-01
-1.460104e-02
-5.883293e-01
-5.609731e-01
-5.609731e-01
-5.137827e-01
-5.137827e-01
-1.050374e+00
-1.050374e+00
-5.646206e-01
-5.646206e-01
-7.125660e-02
-7.125660e-02
1.804509e-03
1.804509e-03
6.923316e-01
6.923316e-01
1.067408e+00
2.099578e+00
1.067408e+00
2.099578e+00
2.373552e-01
2.373552e-01
1.018822e+00
1.018822e+00
3.297724e-01
3.297724e-01
-4.309553e-01
-4.309553e-01
4.253059e-01
4.253059e-01
6.998324e-01
6.998324e-01
3.665774e-01
3.665774e-01
-6.343116e-01
-8.146958e-01
-6.343116e-01
-8.146958e-01
2.363396e-02
2.363396e-02
6.987018e-01
6.987018e-01
8.064912e-01
8.064912e-01
-2.877010e-01
-2.877010e-01
-1.054459e-01
-1.054459e-01
-8.955602e-01
-8.955602e-01
-2.666646e+00
-2.666646e+00
-1.716977e+00
-1.273941e+00
-1.716977e+00
-1.273941e+00
-5.585829e-01
-5.585829e-01
7.292240e-02
7.292240e-02
5.852709e-01
5.852709e-01
3.463643e-01
3.463643e-01
1.757392e-01
1.757392e-01
-7.394759e-01
-7.394759e-01
-1.688885e+00
-1.688885e+00
-3.266342e-01
-2.781516e+00
-3.266342e-01
-2.781516e+00
3.602296e-01
3.602296e-01
6.852709e-01
6.852709e-01
3.650553e-01
3.650553e-01
8.745639e-02
8.745639e-02
7.282765e-01
7.282765e-01
8.374132e-01
8.374132e-01
8.737260e-01
8.737260e-01
-1.857743e-01
-4.098953e+00
-1.857743e-01
-4.098953e+00
5.369672e-01
5.369672e-01
6.925257e-01
6.925257e-01
1.703034e-01
1.703034e-01
-6.460879e-01
-6.460879e-01
-7.175967e-01
-7.175967e-01
-1.222891e-01
-1.222891e-01
4.910682e-01
4.910682e-01
9.296469e-01
6.297817e+00
-2.798182e+00
-5.075706e+00
9.296469e-01
6.297817e+00
-2.798182e+00
-5.075706e+00
1.282841e+00
-3.251652e+00
1.282841e+00
-3.251652e+00
9.492514e+00
6.110212e+00
9.492514e+00
6.110212e+00
7.819070e+00
4.942722e+00
7.819070e+00
4.942722e+00
3.770109e+00
7.676191e+00
3.770109e+00
7.676191e+00
-1.075672e+01
-5.930852e+00
-1.075672e+01
-5.930852e+00
-1.590295e+01
-1.507085e+01
-1.590295e+01
-1.507085e+01
8.324324e+00
-5.483626e-02
8.324324e+00
-5.483626e-02
-1.268261e-01
-1.268261e-01
5.506503e+00
5.506503e+00
1.073445e+01
1.073445e+01
3.844148e+00
3.844148e+00
8.126749e+00
8.126749e+00
1.967184e+01
1.967184e+01
1.140752e+01
1.140752e+01
1.391554e+01
1.391554e+01
1.043928e+01
1.043928e+01
2.990203e+00
2.990203e+00
4.035001e+00
4.035001e+00
4.458341e+00
4.458341e+00
5.849749e-01
5.849749e-01
-5.668348e+00
-5.668348e+00
4.129109e-01
4.129109e-01
-6.031438e-01
-6.031438e-01
-8.401182e+00
-8.401182e+00
1.237619e+00
1.237619e+00
2.850484e+00
2.850484e+00
-5.960210e+00
-5.960210e+00
-6.250849e+00
-6.250849e+00
-1.998535e+00
-1.998535e+00
-4.130469e+00
-4.130469e+00
-1.373706e+01
-1.373706e+01
-8.079358e+00
-8.079358e+00
7.258008e-01
2.078453e-01
7.258008e-01
2.078453e-01
3.362892e-01
2.072959e-01
3.362892e-01
2.072959e-01
-2.823806e+00
-2.113837e+00
-2.823806e+00
-2.113837e+00
-2.306199e+00
-3.202265e+00
-2.306199e+00
-3.202265e+00
-1.244877e+00
-1.877335e+00
-1.244877e+00
-1.877335e+00
5.101997e-01
5.101997e-01
-4.288684e-02
-4.288684e-02
-5.476490e-01
-5.476490e-01
-7.582012e-01
-7.582012e-01
-4.652491e-01
-4.652491e-01
-1.310072e-01
-1.310072e-01
1.035304e-01
1.035304e-01
3.083841e-01
3.083841e-01
-2.643598e-02
-2.643598e-02
4.403233e-01
4.403233e-01
-4.712832e-01
-4.712832e-01
-1.128894e+00
-1.128894e+00
-7.462373e-01
-7.462373e-01
-4.291155e-01
-4.291155e-01
-4.782129e-02
-4.782129e-02
2.279185e-01
2.279185e-01
-5.860369e-01
-5.860369e-01
4.279950e-01
4.279950e-01
3.985593e-01
3.985593e-01
-1.085391e+00
-1.085391e+00
8.740678e-01
8.740678e-01
1.523047e+00
1.523047e+00
2.274411e+00
2.274411e+00
4.127526e-02
4.127526e-02
-2.780520e+00
-2.780520e+00
-2.550130e+00
-2.550130e+00
-1.836372e+00
-1.836372e+00
1.674362e-01
1.674362e-01
-8.635522e-02
-8.635522e-02
-1.671071e+00
-1.671071e+00
-5.324849e+00
-5.324849e+00
-5.385850e+00
-5.385850e+00
-1.703981e+00
-1.703981e+00
5.115228e-01
5.115228e-01
3.556670e-02
3.556670e-02
4.364844e+00
4.364844e+00
4.511705e+00
4.511705e+00
2.797908e+00
2.797908e+00
2.532893e+00
2.532893e+00
-1.568496e+00
-1.568496e+00
-2.387386e+00
-2.387386e+00
5.881482e+00
5.881482e+00
5.730615e+00
5.730615e+00
8.754456e+00
8.754456e+00
5.743174e+00
5.743174e+00
6.453398e-01
6.453398e-01
1.993132e-01
1.993132e-01
-1.956847e+00
-1.956847e+00
2.394078e+00
2.394078e+00
7.564430e+00
7.564430e+00
4.834942e+00
4.834942e+00
8.029861e-01
8.029861e-01
-2.799341e+00
-2.799341e+00
-1.207518e+00
-1.207518e+00
4.054622e+00
4.054622e+00
2.786273e+00
2.786273e+00
1.825246e+00
1.825246e+00
2.762581e+00
2.762581e+00
-1.313046e+00
-1.313046e+00
-7.187896e-01
-7.187896e-01
4.384002e+00
4.384002e+00
2.616746e+00
2.616746e+00
-4.383661e-02
-4.383661e-02
-4.615129e-01
-4.615129e-01
-1.932266e-01
-1.932266e-01
-1.966804e-01
-1.966804e-01
7.367394e-01
7.367394e-01
1.322268e+00
1.322268e+00
-2.609249e-01
-2.609249e-01
1.007859e+00
1.007859e+00
2.969244e+00
2.969244e+00
3.778298e+00
3.778298e+00
2.410119e+00
2.410119e+00
-3.070154e-01
-3.070154e-01
5.174328e-01
5.174328e-01
2.738738e+00
2.738738e+00
2.064337e+00
2.064337e+00
7.402844e-01
7.402844e-01
-6.035665e-01
-6.035665e-01
-2.601024e+00
-2.601024e+00
-2.969012e+00
-2.969012e+00
-4.129926e+00
-4.129926e+00
-7.393944e+00
-7.393944e+00
1.410771e+00
1.410771e+00
-3.165726e+00
-3.165726e+00
-7.534237e+00
-7.534237e+00
-9.824945e+00
-9.824945e+00
-1.250247e+01
-1.250247e+01
-1.380496e+01
-1.380496e+01
-3.659583e+00
-3.659583e+00
-9.578784e+00
-9.578784e+00
-1.124955e+01
-1.124955e+01
-1.081641e+01
-1.081641e+01
2.128034e+00
2.128034e+00
6.947473e+00
6.947473e+00
-1.419529e+01
-1.419529e+01
-2.243351e+01
-2.243351e+01
-1.756257e+01
-1.756257e+01
-2.209791e+00
-2.209791e+00
2.485315e+00
2.485315e+00
6.067734e+00
6.067734e+00
-2.398774e+01
-2.398774e+01
-2.255308e+01
-2.255308e+01
-2.306931e+01
-2.306931e+01
-9.990451e+00
-9.990451e+00
1.555008e+01
1.555008e+01
2.638343e+01
2.638343e+01
-3.137198e+01
-3.137198e+01
-2.954715e+01
-2.954715e+01
-1.691776e+01
-1.691776e+01
-8.296524e+00
-8.296524e+00
1.445732e+01
1.445732e+01
3.145500e+01
3.145500e+01
-3.808555e+01
-3.808555e+01
-1.928964e+01
-1.928964e+01
4.366842e+00
4.366842e+00
4.106797e+00
4.106797e+00
8.934119e+00
8.934119e+00
2.086881e+01
2.086881e+01
-2.624527e+01
-2.624527e+01
-2.447323e+01
-2.447323e+01
-1.370079e+01
-1.370079e+01
3.191408e+01
3.191408e+01
8.235553e+00
8.235553e+00
2.537319e+00
2.537319e+00
-2.151183e+01
-2.151183e+01
-1.704289e+01
-1.704289e+01
-3.381260e+01
-3.381260e+01
3.319229e+01
3.319229e+01
-2.698711e+01
-2.698711e+01
-2.885434e+01
-2.885434e+01
-3.011896e+01
-3.011896e+01
1.829843e+01
1.829843e+01
-1.695316e+01
-1.695316e+01
-2.295448e+01
-2.295448e+01
-5.818248e+01
-5.818248e+01
-3.358530e+01
-3.358530e+01
-1.999760e+01
-1.999760e+01
-2.585578e+01
-2.585578e+01
-5.238087e+01
-5.238087e+01
-6.443995e+01
-6.443995e+01
-8.731945e+01
-8.731945e+01
-6.195626e+01
-6.195626e+01
-3.630199e+01
-3.630199e+01
-5.931645e+01
-5.931645e+01
-5.795551e+01
-5.795551e+01
-4.586179e+01
-4.586179e+01
-3.439783e+01
-3.439783e+01
1.767260e-01
1.767260e-01
-5.646334e+01
-5.646334e+01
-5.564748e+01
-5.564748e+01
-3.080485e+01
-3.080485e+01
-7.088844e+00
-7.088844e+00
4.331915e-02
4.331915e-02
3.135856e+01
3.135856e+01
-3.751249e+01
-3.751249e+01
-4.166136e+01
-4.166136e+01
-1.724447e+01
-1.724447e+01
-4.612177e+00
-4.612177e+00
-1.743282e+01
-1.743282e+01
-7.847573e+00
-7.847573e+00
-1.909210e+01
-1.909210e+01
-1.894004e+01
-1.894004e+01
3.592848e+00
3.592848e+00
-6.854630e+00
-6.854630e+00
-7.711015e+00
-7.711015e+00
1.847111e+00
1.847111e+00
-1.735046e+00
-1.735046e+00
5.402524e+00
5.402524e+00
8.255800e+00
8.255800e+00
-2.703766e+00
-2.703766e+00
-4.390155e-01
-4.390155e-01
3.056568e+00
3.056568e+00
-5.147712e-01
-5.147712e-01
-1.939725e+00
-1.939725e+00
-5.982542e+00
-5.982542e+00
-1.654799e+01
-1.654799e+01
-1.628534e+01
-1.628534e+01
5.019170e+00
5.019170e+00
2.186867e+01
2.186867e+01
2.631275e+01
2.631275e+01
1.412955e+01
1.412955e+01
-7.754654e+00
-7.754654e+00
-4.446408e+00
-4.446408e+00
1.598133e+01
1.598133e+01
1.572485e+01
1.572485e+01
2.450579e+00
2.450579e+00
-1.347171e+00
-1.347171e+00
-2.927208e+00
-2.927208e+00
-3.761018e+00
-3.761018e+00
3.903084e+00
3.903084e+00
8.255797e+00
8.255797e+00
2.733645e+00
2.733645e+00
-2.457541e+00
-2.457541e+00
-2.348793e+00
-2.348793e+00
-1.917939e+00
-1.917939e+00
-4.240238e+00
-4.240238e+00
-9.759859e+00
-9.759859e+00
-1.583459e+01
-1.583459e+01
-7.497940e+00
-7.497940e+00
2.011325e+01
2.011325e+01
2.904681e+01
2.904681e+01
1.317779e+01
1.317779e+01
6.263286e+00
6.263286e+00
-6.316476e-01
-6.316476e-01
-4.192920e+00
-4.192920e+00
1.037357e+01
1.037357e+01
1.659444e+01
1.659444e+01
7.958710e+00
7.958710e+00
3.196494e+00
3.196494e+00
-3.099883e+00
-3.099883e+00
-1.543394e+00
-1.543394e+00
-1.979271e+00
-1.979271e+00
-3.335184e+00
-3.335184e+00
5.494743e-01
5.494743e-01
3.085269e-01
3.085269e-01
-1.136438e+00
-1.136438e+00
-4.173149e-02
-4.173149e-02
-3.390930e+00
-3.390930e+00
-1.129766e+01
-1.129766e+01
-1.102218e+01
-1.102218e+01
6.447293e+00
6.447293e+00
2.249734e+01
2.249734e+01
2.482576e+01
2.482576e+01
1.591028e+01
1.591028e+01
1.273404e+01
1.273404e+01
8.414899e+00
8.414899e+00
1.253080e+01
1.253080e+01
2.067984e+01
2.067984e+01
2.034500e+01
2.034500e+01
9.039848e+00
9.039848e+00
-6.050434e+00
-6.050434e+00
4.638206e-01
4.638206e-01
-6.078121e-01
-6.078121e-01
-5.939556e+00
-5.939556e+00
-7.747780e+00
-7.747780e+00
-1.082018e+00
-1.082018e+00
3.750524e+00
3.750524e+00
3.094296e+00
3.094296e+00
-3.007088e-01
-3.007088e-01
-6.516373e+00
-6.516373e+00
-1.070808e+01
-1.070808e+01
-1.193589e+00
-1.193589e+00
1.793814e+01
1.793814e+01
2.271761e+01
2.271761e+01
3.289457e+01
3.289457e+01
2.415434e+01
2.415434e+01
-5.369729e+00
-5.369729e+00
-3.493407e+00
-3.493407e+00
2.477471e+01
2.477471e+01
3.275716e+01
3.275716e+01
1.937397e+01
1.937397e+01
-3.499284e+00
-3.499284e+00
-2.450966e+01
-2.450966e+01
4.468338e-01
4.468338e-01
-5.371669e-01
-5.371669e-01
-4.701373e+00
-4.701373e+00
-5.778725e+00
-5.778725e+00
-7.241167e-01
-7.241167e-01
4.517166e+00
4.517166e+00
3.427470e+00
3.427470e+00
-5.009802e+00
-5.009802e+00
-1.270085e+01
-1.270085e+01
-6.680069e+00
-6.680069e+00
6.655745e+00
6.655745e+00
2.163520e+01
2.163520e+01
2.952128e+01
2.952128e+01
3.923396e+01
3.923396e+01
3.906499e+01
3.906499e+01
4.251891e+01
4.251891e+01
4.800024e+01
4.800024e+01
1.467453e+01
1.467453e+01
2.156719e+01
2.156719e+01
3.406494e+01
3.406494e+01
8.981134e-01
8.981134e-01
-2.832299e+01
-2.832299e+01
2.113302e+00
1.107449e+00
5.720485e-01
9.656527e-01
1.359834e-02
-8.616071e-01
1.205852e+00
8.469530e-01
9.546494e-01
1.356202e+00
1.127238e-01
-1.065712e+00
-2.221296e+00
-9.113957e-01
1.070901e+00
1.701006e+00
4.292744e-02
-1.572859e+00
-5.460113e+00
-3.345912e+00
-6.364236e-02
1.400516e+00
-1.916939e-01
-2.079994e+00
-5.975533e+00
-4.329077e+00
-1.128425e+00
1.099725e+00
-1.960809e-01
-2.165842e+00
-4.772813e+00
-3.495009e+00
-7.934425e-01
1.142381e+00
-7.066545e-02
-1.795772e+00
-1.748405e+00
-1.431698e+00
-7.896223e-02
1.144452e+00
-8.073067e-02
-1.493298e+00
6.456972e-01
-1.035292e-01
1.044960e-01
1.056476e+00
-1.902948e-01
-1.431794e+00
-8.558117e-02
-1.228807e-01
4.083793e-01
9.167771e-01
1.151102e-01
-6.263951e-01
-7.386846e-01
-1.569242e-01
4.518777e-01
3.879557e-01
2.393028e-01
1.816133e-01
-2.917925e-01
-2.618830e-02
1.920420e-01
-2.510989e-03
2.269432e-02
1.950788e-01
-2.042277e-01
-2.994095e-02
3.634429e-01
5.263197e-01
-6.458465e-01
-1.761793e+00
-9.260328e-01
-4.479343e-01
1.866130e-01
4.447579e-01
-1.053847e+00
-2.654148e+00
-3.846810e+00
-2.276012e+00
-5.566811e-01
-4.469022e-03
-1.668860e+00
-3.736930e+00
-7.867705e+00
-4.831008e+00
-1.451174e+00
-3.613044e-01
-1.849151e+00
-4.083732e+00
-8.877459e+00
-5.670956e+00
-1.880569e+00
-3.458139e-01
-1.733851e+00
-4.072760e+00
-6.243698e+00
-4.328043e+00
-1.794264e+00
-2.847398e-01
-1.459528e+00
-3.525718e+00
-3.386134e+00
-2.624254e+00
-1.268625e+00
7.026412e-02
-9.825055e-01
-2.780415e+00
-1.506464e+00
-1.495338e+00
-5.897641e-01
5.840265e-01
-4.901177e-01
-1.843604e+00
-2.070363e-01
-4.021209e-01
1.952991e-01
7.776613e-01
-1.030503e-01
-7.736195e-01
-6.416005e-03
1.895233e-01
5.171347e-01
3.306947e-01
-1.785819e-01
-3.697466e-01
-2.615266e-01
1.510272e-01
3.948005e-01
-9.473489e-02
-4.400726e-01
-4.646554e-01
-8.456686e-01
-4.427553e-01
-2.306052e-01
-5.718949e-01
-1.415726e+00
-2.109030e+00
-1.942268e+00
-1.810574e+00
-1.530853e+00
-1.261440e+00
-2.142304e+00
-3.144554e+00
-4.958019e+00
-4.680409e+00
-3.871979e+00
-2.409915e+00
-2.678942e+00
-3.879213e+00
-8.401196e+00
-6.095179e+00
-4.105396e+00
-2.746146e+00
-2.276979e+00
-3.483296e+00
-8.724768e+00
-5.207452e+00
-2.920870e+00
-2.407156e+00
-1.910644e+00
-3.158579e+00
-5.961317e+00
-4.212709e+00
-2.704497e+00
-1.741709e+00
-1.590456e+00
-2.642386e+00
-4.619395e+00
-3.937899e+00
-2.318034e+00
-6.489129e-01
-9.853925e-01
-2.052624e+00
-4.000549e+00
-3.072919e+00
-1.298700e+00
3.781023e-01
7.685234e-02
-1.054611e+00
-1.313365e+00
-1.072308e+00
-2.449025e-01
9.325756e-01
6.379753e-01
-2.477540e-01
6.787944e-01
5.297625e-01
5.904282e-01
6.590647e-01
7.637463e-02
-3.652542e-01
8.236906e-01
9.156537e-01
8.441419e-01
2.144556e-01
-4.232940e-01
-5.948320e-01
5.148409e+00
2.021157e+00
-9.152870e-01
-1.221121e+00
-1.878929e+00
-2.040094e+00
4.261065e+00
5.849634e-01
-2.140412e+00
-1.641450e+00
-2.127467e+00
-2.161719e+00
2.092512e+00
-1.447812e+00
-3.379658e+00
-1.350031e+00
-9.303614e-01
-9.318414e-01
3.087702e+00
-1.165633e-01
-2.817204e+00
-2.124221e-01
1.441049e+00
9.933618e-01
4.199496e+00
1.353069e+00
-1.810509e+00
4.141220e-01
2.248210e+00
1.540515e+00
2.749837e+00
7.702697e-01
-4.746947e-01
1.031050e+00
1.449077e+00
1.095962e+00
4.497482e+00
1.533494e+00
1.649842e-01
1.240510e+00
5.690839e-01
4.176091e-01
4.562421e+00
1.353348e+00
-7.975326e-01
8.350720e-01
9.518088e-01
4.941336e-01
5.578071e-01
-4.909952e-01
-1.055179e+00
8.501078e-01
1.629364e+00
9.879512e-01
-6.124071e-02
-2.112976e-01
-2.433313e-01
6.876730e-01
1.081374e+00
6.620930e-01
1.356565e+00
8.447706e-01
1.296630e-01
3.115496e-01
4.380187e-01
1.792886e-01
-4.059993e+00
-7.676869e-01
1.786620e+00
-3.634831e-01
-8.287606e-01
1.180660e-01
-7.077044e+00
-2.817651e+00
1.906550e+00
5.663501e-01
-2.067332e-01
8.251922e-01
-7.582164e+00
-3.417757e+00
1.524808e+00
2.182636e+00
2.745259e+00
3.428212e+00
6.504062e-01
3.754365e-01
-5.544365e-01
2.687310e+00
6.680013e+00
6.776066e+00
3.956654e+00
1.325524e+00
-1.355739e+00
3.048234e+00
7.468500e+00
7.434660e+00
1.568630e+00
8.112131e-01
1.855939e+00
4.173054e+00
4.892090e+00
5.096154e+00
4.051955e+00
2.450495e+00
3.378751e+00
3.905371e+00
2.354591e+00
2.806906e+00
4.569793e+00
2.096836e+00
1.236752e+00
2.164706e+00
1.463723e+00
1.447659e+00
1.712261e+00
6.402937e-02
-5.107070e-01
1.283606e+00
1.303489e+00
6.025545e-01
-1.829518e-01
-9.876005e-01
-1.109508e+00
3.780152e-01
7.663739e-01
3.499507e-01
-1.159751e+00
-1.120428e+00
-1.190250e+00
-5.373395e-01
2.760149e-01
3.273136e-01
-1.758638e+01
-5.295868e+00
4.787766e+00
4.844997e-01
5.741765e-01
2.760238e+00
-2.350284e+01
-8.683556e+00
5.613643e+00
2.359407e+00
1.777276e+00
3.927298e+00
-2.379307e+01
-9.660078e+00
4.249237e+00
3.955448e+00
5.374006e+00
6.862681e+00
-1.140169e+01
-4.890255e+00
-8.465517e-01
2.430297e+00
9.430579e+00
1.068629e+01
-6.155835e+00
-3.457161e+00
-2.299487e+00
2.245265e+00
9.890914e+00
1.145081e+01
-6.570463e+00
-3.182454e+00
2.047361e+00
4.512450e+00
6.553506e+00
7.971278e+00
-5.105981e+00
-2.224987e+00
4.249753e+00
5.035820e+00
3.484510e+00
4.740878e+00
-4.327727e+00
-1.771714e+00
2.755193e+00
3.303896e+00
1.967474e+00
2.053243e+00
1.067013e-02
-3.532062e-01
6.169206e-01
2.093602e+00
9.454116e-01
-3.454575e-01
3.883141e-01
-1.029052e+00
-1.133889e+00
4.253800e-01
1.192166e-01
-4.336866e-01
-3.153992e+00
-2.427333e+00
-1.549101e+00
-1.081908e+00
-2.677560e-01
2.307753e-01
SCALARS MISES_STRESS float 1
LOOKUP_TABLE default
6.282959e+01
4.653564e+01
2.428314e+01
6.513935e+01
6.282959e+01
4.653564e+01
2.428314e+01
6.513935e+01
6.081173e+01
5.827592e+01
5.870130e+01
4.464613e+01
6.081173e+01
5.827592e+01
5.870130e+01
4.464613e+01
5.086967e+01
5.829781e+01
2.606742e+01
5.086967e+01
5.829781e+01
2.606742e+01
3.417295e+01
3.697349e+01
5.067502e+01
5.858128e+01
3.417295e+01
3.697349e+01
5.067502e+01
5.858128e+01
7.520016e+01
6.732625e+01
7.520016e+01
6.732625e+01
4.710852e+01
7.178310e+01
4.710852e+01
7.178310e+01
1.279379e+02
8.848007e+01
6.788539e+01
7.579570e+01
1.279379e+02
8.848007e+01
6.788539e+01
7.579570e+01
3.103515e+01
3.769176e+01
5.046891e+01
4.015068e+01
3.103515e+01
3.769176e+01
5.046891e+01
4.015068e+01
5.238317e+01
4.852189e+01
2.968678e+01
4.709863e+01
5.238317e+01
4.852189e+01
2.968678e+01
4.709863e+01
3.685203e+01
6.151887e+01
3.685203e+01
6.151887e+01
5.919420e+01
5.919420e+01
6.164111e+01
6.539836e+01
6.164111e+01
6.539836e+01
9.331415e+01
9.420985e+01
9.331415e+01
9.420985e+01
5.715340e+01
5.715340e+01
7.012979e+01
7.012979e+01
7.928824e+01
7.928824e+01
2.893113e+01
1.956186e+01
2.244314e+01
2.893113e+01
1.956186e+01
2.244314e+01
1.376777e+01
1.881749e+01
5.036994e+01
6.595404e+01
1.376777e+01
1.881749e+01
5.036994e+01
6.595404e+01
5.604434e+01
5.604434e+01
3.150180e+01
4.988453e+01
3.150180e+01
4.988453e+01
2.648128e+01
2.648128e+01
6.520241e+01
6.520241e+01
6.881478e+01
6.881478e+01
1.078594e+02
1.078594e+02
7.286718e+01
7.286718e+01
3.470985e+01
3.470985e+01
1.334579e+02
1.334579e+02
5.743440e+01
5.743440e+01
7.282696e+01
8.716977e+01
7.282696e+01
8.716977e+01
1.078059e+01
1.078059e+01
3.707452e+01
3.707452e+01
3.803435e+01
3.803435e+01
3.324689e+01
3.324689e+01
8.873985e+01
7.829051e+01
8.873985e+01
7.829051e+01
3.293987e+01
3.293987e+01
6.234460e+01
6.234460e+01
6.390288e+01
6.390288e+01
6.061610e+01
6.061610e+01
6.492103e+01
6.095970e+01
6.492103e+01
6.095970e+01
3.633818e+01
3.633818e+01
4.142712e+01
4.142712e+01
3.351905e+01
3.351905e+01
2.515716e+01
2.515716e+01
4.188829e+01
3.137607e+01
4.188829e+01
3.137607e+01
3.675972e+01
3.675972e+01
2.762285e+01
2.762285e+01
2.643425e+01
2.643425e+01
2.698886e+01
2.698886e+01
2.578676e+01
6.053076e+01
2.578676e+01
6.053076e+01
1.437498e+01
1.437498e+01
2.022053e+01
2.022053e+01
4.018993e+01
4.018993e+01
5.432827e+01
5.432827e+01
3.166478e+01
7.094693e+01
3.166478e+01
7.094693e+01
2.381969e+01
2.381969e+01
1.829592e+01
1.829592e+01
2.092137e+01
2.092137e+01
3.725942e+01
3.725942e+01
4.332565e+01
5.729129e+01
4.332565e+01
5.729129e+01
1.936829e+01
1.936829e+01
2.071483e+01
2.071483e+01
2.776788e+01
2.776788e+01
3.956133e+01
3.956133e+01
1.822669e+01
2.301727e+01
1.822669e+01
2.301727e+01
1.416100e+01
1.416100e+01
2.257076e+01
2.257076e+01
4.646759e+01
4.646759e+01
6.556184e+01
6.556184e+01
1.917305e+01
7.348307e+00
1.917305e+01
7.348307e+00
1.879823e+01
1.879823e+01
1.367026e+01
1.367026e+01
3.966693e+01
3.966693e+01
6.490565e+01
6.490565e+01
3.175887e+01
1.006231e+01
3.175887e+01
1.006231e+01
2.778068e+01
2.778068e+01
7.656849e+00
7.656849e+00
1.554454e+01
1.554454e+01
3.495440e+00
3.495440e+00
1.351755e+01
8.370027e+00
1.351755e+01
8.370027e+00
3.013715e+01
3.013715e+01
3.264285e+01
3.264285e+01
3.673351e+01
3.673351e+01
4.381721e+01
4.381721e+01
2.786288e+01
1.534252e+01
2.786288e+01
1.534252e+01
1.452912e+01
1.452912e+01
3.528567e+01
3.528567e+01
3.566018e+01
3.566018e+01
3.833201e+01
3.833201e+01
3.979776e+01
3.566464e+01
3.979776e+01
3.566464e+01
3.040507e+01
3.040507e+01
2.344183e+01
2.344183e+01
2.601512e+01
2.601512e+01
4.068394e+01
4.068394e+01
6.603532e+01
6.687425e+01
6.603532e+01
6.687425e+01
7.593364e+01
7.593364e+01
5.394675e+01
5.394675e+01
3.710605e+01
3.710605e+01
6.988428e+01
6.988428e+01
1.436074e+01
4.051314e+01
3.761168e+01
3.567474e+01
1.436074e+01
4.051314e+01
3.761168e+01
3.567474e+01
4.736237e+01
1.991811e+01
4.736237e+01
1.991811e+01
1.938463e+01
2.899689e+01
1.938463e+01
2.899689e+01
1.412453e+01
1.412453e+01
1.993527e+01
2.913846e+01
1.993527e+01
2.913846e+01
1.174928e+01
1.174928e+01
5.480835e+01
4.710180e+01
5.480835e+01
4.710180e+01
1.438799e+01
1.438799e+01
3.257648e+01
3.530828e+01
3.257648e+01
3.530828e+01
1.508634e+01
1.508634e+01
2.352144e+01
2.063700e+01
2.352144e+01
2.063700e+01
4.455885e+01
4.455885e+01
7.481957e+01
1.128601e+02
7.481957e+01
1.128601e+02
5.429942e+01
5.429942e+01
2.794562e+01
2.794562e+01
6.411888e+01
6.411888e+01
7.280824e+01
7.280824e+01
6.229490e+01
6.229490e+01
8.349227e+01
1.434238e+02
8.349227e+01
1.434238e+02
5.300217e+01
5.300217e+01
2.940201e+01
2.940201e+01
2.626387e+01
2.626387e+01
5.767909e+01
5.767909e+01
4.910495e+01
4.910495e+01
2.334733e+01
2.334733e+01
4.207345e+01
4.207345e+01
2.427528e+01
2.427528e+01
3.225042e+01
3.225042e+01
3.873002e+01
3.873002e+01
5.369989e+01
5.369989e+01
8.572967e+01
8.572967e+01
8.159188e+01
8.159188e+01
2.318208e+01
3.166065e+01
4.615885e+01
5.529056e+01
2.318208e+01
3.166065e+01
4.615885e+01
5.529056e+01
6.576397e+01
4.956953e+01
4.972448e+01
2.804909e+01
6.576397e+01
4.956953e+01
4.972448e+01
2.804909e+01
3.094651e+01
2.458432e+01
3.574537e+01
5.380417e+01
3.094651e+01
2.458432e+01
3.574537e+01
5.380417e+01
6.016239e+01
1.709916e+01
2.847942e+01
6.016239e+01
1.709916e+01
2.847942e+01
3.392270e+01
4.485001e+01
3.392270e+01
4.485001e+01
5.702306e+01
5.069415e+01
3.695277e+01
3.237734e+01
5.702306e+01
5.069415e+01
3.695277e+01
3.237734e+01
2.812566e+01
2.385094e+01
2.812566e+01
2.385094e+01
3.494575e+01
2.930077e+01
3.494575e+01
2.930077e+01
3.290987e+01
5.690485e+01
4.112012e+01
3.290987e+01
5.690485e+01
4.112012e+01
1.886645e+01
1.886645e+01
3.027490e+01
5.998547e+01
3.027490e+01
5.998547e+01
2.572884e+01
1.953727e+01
2.572884e+01
1.953727e+01
3.323000e+01
3.323000e+01
6.542350e+01
6.542350e+01
4.778538e+01
1.036188e+02
6.053198e+01
4.778538e+01
1.036188e+02
6.053198e+01
2.261378e+01
6.606383e+01
9.457432e+01
4.281861e+01
2.261378e+01
6.606383e+01
9.457432e+01
4.281861e+01
4.811566e+01
5.352339e+01
4.811566e+01
5.352339e+01
9.113912e+01
9.113912e+01
4.590756e+01
3.590333e+01
3.773789e+01
4.087235e+01
4.590756e+01
3.590333e+01
3.773789e+01
4.087235e+01
4.194755e+01
4.194755e+01
1.691448e+01
1.691448e+01
2.289555e+01
2.289555e+01
4.816947e+01
4.816947e+01
4.056489e+01
4.056489e+01
8.480879e+01
8.480879e+01
4.362731e+01
2.869929e+01
4.362731e+01
2.869929e+01
2.135710e+01
2.326910e+01
2.135710e+01
2.326910e+01
2.321889e+01
8.435335e+00
2.321889e+01
8.435335e+00
4.238124e+01
2.354896e+01
4.238124e+01
2.354896e+01
1.807417e+01
1.774341e+01
1.807417e+01
1.774341e+01
3.128925e+01
2.327395e+01
3.128925e+01
2.327395e+01
1.169249e+01
2.039029e+01
1.169249e+01
2.039029e+01
2.061814e+01
1.541999e+01
2.061814e+01
1.541999e+01
3.704377e+01
3.732285e+01
3.704377e+01
3.732285e+01
3.770475e+01
4.033136e+01
3.770475e+01
4.033136e+01
3.285586e+01
3.213116e+01
3.285586e+01
3.213116e+01
8.401578e+00
7.388451e+00
8.401578e+00
7.388451e+00
1.248507e+01
1.059181e+01
1.248507e+01
1.059181e+01
4.480834e+00
5.042976e+01
4.480834e+00
5.042976e+01
3.032077e+01
3.032077e+01
2.807782e+01
2.807782e+01
9.303949e+00
9.303949e+00
3.625814e+01
3.625814e+01
3.366101e+01
3.366101e+01
1.688598e+01
1.688598e+01
2.882667e+01
2.882667e+01
3.032824e+01
3.032824e+01
1.239908e+01
1.239908e+01
1.430716e+01
1.430716e+01
4.283037e+01
4.283037e+01
4.759359e+01
4.759359e+01
1.742533e+01
1.742533e+01
4.466035e+01
4.466035e+01
2.673777e+01
2.673777e+01
3.696193e+01
3.696193e+01
1.858224e+01
1.858224e+01
1.680694e+01
1.680694e+01
2.870219e+01
2.870219e+01
2.083092e+01
2.083092e+01
3.783458e+01
3.783458e+01
2.773969e+01
2.773969e+01
3.406865e+01
3.406865e+01
1.776145e+01
1.776145e+01
3.357907e+01
3.357907e+01
6.520497e+01
6.520497e+01
5.937935e+01
5.937935e+01
4.924953e+01
4.924953e+01
3.516421e+01
3.516421e+01
2.450761e+01
2.450761e+01
1.554098e+01
1.554098e+01
8.163869e+00
8.163869e+00
1.622409e+01
1.622409e+01
3.336987e+01
3.336987e+01
1.586269e+01
1.586269e+01
3.196701e+01
3.196701e+01
3.203688e+01
3.203688e+01
3.102765e+01
3.102765e+01
4.010652e+01
4.010652e+01
5.234080e+01
5.234080e+01
4.172152e+01
4.172152e+01
5.912691e+01
5.912691e+01
4.665229e+01
4.665229e+01
2.583035e+01
2.583035e+01
2.335019e+01
2.335019e+01
2.352022e+01
2.352022e+01
1.379567e+01
1.379567e+01
4.510481e+01
4.510481e+01
1.427673e+01
1.427673e+01
6.064792e+01
6.064792e+01
2.509714e+01
2.509714e+01
4.773344e+01
4.773344e+01
4.957961e+01
4.957961e+01
3.339393e+01
3.339393e+01
2.241723e+01
2.241723e+01
6.065132e+01
6.065132e+01
7.272557e+00
3.276504e+01
7.272557e+00
3.276504e+01
1.664714e+01
1.664714e+01
2.634694e+01
2.634694e+01
2.826982e+01
2.826982e+01
1.800610e+01
1.800610e+01
1.615261e+01
1.615261e+01
3.102615e+01
3.102615e+01
3.117803e+01
3.117803e+01
7.210557e+00
1.558318e+01
7.210557e+00
1.558318e+01
5.227077e+00
5.227077e+00
1.685648e+01
1.685648e+01
1.030957e+01
1.030957e+01
1.584764e+01
1.584764e+01
1.694019e+01
1.694019e+01
1.717171e+01
1.717171e+01
1.226068e+01
1.226068e+01
1.075763e+01
1.379918e+01
1.075763e+01
1.379918e+01
6.987664e+00
6.987664e+00
1.886513e+01
1.886513e+01
2.151441e+01
2.151441e+01
7.038484e+00
7.038484e+00
1.739919e+01
1.739919e+01
1.346104e+01
1.346104e+01
2.803459e+01
2.803459e+01
1.472127e+01
2.031815e+01
1.472127e+01
2.031815e+01
1.299732e+01
1.299732e+01
1.634990e+01
1.634990e+01
1.840869e+01
1.840869e+01
7.160543e+00
7.160543e+00
1.142810e+01
1.142810e+01
1.245729e+01
1.245729e+01
4.905663e+01
4.905663e+01
6.759079e+00
2.239365e+01
6.759079e+00
2.239365e+01
2.059113e+01
2.059113e+01
1.916173e+01
1.916173e+01
8.673353e+00
8.673353e+00
9.600042e+00
9.600042e+00
7.808367e+00
7.808367e+00
2.373747e+01
2.373747e+01
4.018133e+01
4.018133e+01
1.778551e+01
2.065561e+01
1.778551e+01
2.065561e+01
2.127542e+01
2.127542e+01
1.490648e+01
1.490648e+01
1.441863e+01
1.441863e+01
1.714192e+01
1.714192e+01
2.408510e+01
2.408510e+01
2.351860e+01
2.351860e+01
1.872123e+01
1.872123e+01
1.036141e+01
1.444796e+01
9.343050e+00
1.380102e+01
1.036141e+01
1.444796e+01
9.343050e+00
1.380102e+01
7.692533e+00
1.785754e+01
7.692533e+00
1.785754e+01
3.060009e+01
3.103213e+01
3.060009e+01
3.103213e+01
5.478951e+01
3.314197e+01
5.478951e+01
3.314197e+01
2.438458e+01
3.490133e+01
2.438458e+01
3.490133e+01
6.630911e+01
3.527031e+01
6.630911e+01
3.527031e+01
1.131668e+02
5.762649e+01
1.131668e+02
5.762649e+01
2.209962e+01
1.395309e+01
2.209962e+01
1.395309e+01
9.593848e+00
9.593848e+00
2.846532e+01
2.846532e+01
5.806506e+01
5.806506e+01
1.293991e+01
1.293991e+01
5.709606e+01
5.709606e+01
8.808563e+01
8.808563e+01
4.546041e+01
4.546041e+01
2.451882e+01
2.451882e+01
3.766129e+01
3.766129e+01
2.473154e+01
2.473154e+01
1.202738e+01
1.202738e+01
2.782946e+01
2.782946e+01
1.118374e+01
1.118374e+01
1.615184e+01
1.615184e+01
5.751411e+00
5.751411e+00
1.957881e+01
1.957881e+01
1.785245e+01
1.785245e+01
2.249692e+01
2.249692e+01
1.102191e+01
1.102191e+01
2.320210e+01
2.320210e+01
1.707165e+01
1.707165e+01
1.817620e+01
1.817620e+01
2.732441e+01
2.732441e+01
2.800933e+01
2.800933e+01
3.643857e+01
3.643857e+01
3.901060e+01
2.348284e+01
3.901060e+01
2.348284e+01
5.391886e+01
2.500454e+01
5.391886e+01
2.500454e+01
3.873873e+01
1.856393e+01
3.873873e+01
1.856393e+01
2.696159e+01
4.339535e+01
2.696159e+01
4.339535e+01
2.682527e+01
2.991428e+01
2.682527e+01
2.991428e+01
7.788464e+00
7.788464e+00
1.616508e+01
1.616508e+01
2.624987e+01
2.624987e+01
3.555695e+01
3.555695e+01
1.642166e+01
1.642166e+01
1.367380e+01
1.367380e+01
2.154497e+01
2.154497e+01
1.969236e+01
1.969236e+01
1.413495e+01
1.413495e+01
1.334540e+01
1.334540e+01
1.057241e+01
1.057241e+01
3.330808e+01
3.330808e+01
9.446341e+00
9.446341e+00
3.080904e+01
3.080904e+01
1.100154e+01
1.100154e+01
1.789201e+01
1.789201e+01
2.135274e+01
2.135274e+01
1.983349e+01
1.983349e+01
1.805849e+01
1.805849e+01
1.472679e+01
1.472679e+01
2.951084e+01
2.951084e+01
2.995815e+01
2.995815e+01
3.505030e+01
3.505030e+01
1.144363e+01
1.144363e+01
4.228190e+01
4.228190e+01
2.770030e+01
2.770030e+01
2.189613e+01
2.189613e+01
2.188819e+01
2.188819e+01
2.185011e+01
2.185011e+01
2.129438e+01
2.129438e+01
6.509022e+01
6.509022e+01
6.552844e+01
6.552844e+01
4.128865e+01
4.128865e+01
3.053189e+01
3.053189e+01
2.063634e+01
2.063634e+01
2.450057e+01
2.450057e+01
1.824522e+01
1.824522e+01
2.181319e+01
2.181319e+01
1.353666e+01
1.353666e+01
2.550220e+01
2.550220e+01
1.206742e+01
1.206742e+01
1.876343e+01
1.876343e+01
2.089486e+01
2.089486e+01
3.233546e+01
3.233546e+01
1.674565e+01
1.674565e+01
2.021057e+01
2.021057e+01
3.248813e+01
3.248813e+01
3.454387e+01
3.454387e+01
2.727751e+01
2.727751e+01
2.445740e+01
2.445740e+01
1.946650e+01
1.946650e+01
4.733412e+01
4.733412e+01
5.370231e+01
5.370231e+01
3.671294e+01
3.671294e+01
5.022391e+01
5.022391e+01
1.679022e+01
1.679022e+01
2.095622e+01
2.095622e+01
4.231100e+01
4.231100e+01
4.973180e+01
4.973180e+01
1.530914e+01
1.530914e+01
3.015107e+01
3.015107e+01
1.817293e+01
1.817293e+01
1.755489e+01
1.755489e+01
3.248405e+01
3.248405e+01
5.124490e+01
5.124490e+01
2.228471e+01
2.228471e+01
2.366499e+01
2.366499e+01
2.445255e+01
2.445255e+01
1.241867e+01
1.241867e+01
2.160997e+01
2.160997e+01
4.238641e+01
4.238641e+01
2.505907e+01
2.505907e+01
3.077112e+01
3.077112e+01
3.881323e+01
3.881323e+01
1.542248e+01
1.542248e+01
1.793328e+01
1.793328e+01
2.320608e+01
2.320608e+01
3.001620e+01
3.001620e+01
1.842559e+01
1.842559e+01
3.893780e+01
3.893780e+01
2.778089e+01
2.778089e+01
2.893253e+01
2.893253e+01
2.803668e+01
2.803668e+01
2.053761e+01
2.053761e+01
4.716797e+01
4.716797e+01
5.704344e+01
5.704344e+01
4.057324e+01
4.057324e+01
4.537292e+01
4.537292e+01
5.460895e+01
5.460895e+01
4.243540e+01
4.243540e+01
8.284224e+01
8.284224e+01
6.216792e+01
6.216792e+01
4.294832e+01
4.294832e+01
3.535405e+01
3.535405e+01
3.405760e+01
3.405760e+01
4.780102e+01
4.780102e+01
6.307897e+01
6.307897e+01
5.110235e+01
5.110235e+01
2.682100e+01
2.682100e+01
3.496995e+01
3.496995e+01
3.987331e+01
3.987331e+01
5.570279e+01
5.570279e+01
5.595539e+01
5.595539e+01
4.938654e+01
4.938654e+01
3.693778e+01
3.693778e+01
7.404045e+01
7.404045e+01
8.412272e+01
8.412272e+01
6.061316e+01
6.061316e+01
6.995922e+01
6.995922e+01
5.120302e+01
5.120302e+01
3.761981e+01
3.761981e+01
8.312538e+01
8.312538e+01
1.039026e+02
1.039026e+02
7.781505e+01
7.781505e+01
5.816444e+01
5.816444e+01
7.411516e+01
7.411516e+01
3.556148e+01
3.556148e+01
4.510999e+01
4.510999e+01
7.853127e+01
7.853127e+01
8.159972e+01
8.159972e+01
1.100830e+02
1.100830e+02
1.152933e+02
1.152933e+02
1.043910e+02
1.043910e+02
1.399745e+02
1.399745e+02
1.634284e+02
1.634284e+02
7.044577e+01
7.044577e+01
7.184944e+01
7.184944e+01
1.105791e+02
1.105791e+02
3.303151e+02
3.303151e+02
4.004850e+02
4.004850e+02
2.153001e+02
2.153001e+02
7.533534e+01
7.533534e+01
4.677657e+01
4.677657e+01
1.100847e+02
1.100847e+02
2.830356e+02
2.830356e+02
1.545670e+02
1.545670e+02
3.949407e+02
3.949407e+02
7.141365e+01
7.141365e+01
6.023934e+01
6.023934e+01
1.449791e+02
1.449791e+02
3.114546e+02
3.114546e+02
4.747879e+02
4.747879e+02
3.424287e+02
3.424287e+02
9.208441e+01
9.208441e+01
1.371465e+02
1.371465e+02
1.388385e+02
1.388385e+02
1.581956e+02
1.581956e+02
1.451892e+02
1.451892e+02
6.449245e+01
6.449245e+01
1.057202e+02
1.057202e+02
1.062509e+02
1.062509e+02
9.226146e+01
9.226146e+01
5.771890e+01
5.771890e+01
4.655790e+01
4.655790e+01
5.860539e+01
5.860539e+01
7.478945e+01
7.478945e+01
7.558119e+01
7.558119e+01
4.668167e+01
4.668167e+01
3.159805e+01
3.159805e+01
4.484167e+01
4.484167e+01
7.920029e+01
7.920029e+01
5.133811e+01
5.133811e+01
4.572663e+01
4.572663e+01
5.890940e+01
5.890940e+01
4.340240e+01
4.340240e+01
5.750271e+01
5.750271e+01
5.220529e+01
5.220529e+01
4.059272e+01
4.059272e+01
4.585929e+01
4.585929e+01
4.670721e+01
4.670721e+01
3.606780e+01
3.606780e+01
4.213659e+01
4.213659e+01
2.805869e+01
2.805869e+01
4.510533e+01
4.510533e+01
2.725583e+01
2.725583e+01
1.910393e+01
1.910393e+01
4.404271e+01
4.404271e+01
4.944923e+01
4.944923e+01
2.625289e+01
2.625289e+01
5.054424e+01
5.054424e+01
6.008441e+01
6.008441e+01
2.701244e+01
2.701244e+01
1.460816e+01
1.460816e+01
1.395708e+01
1.395708e+01
3.097882e+01
3.097882e+01
3.584719e+01
3.584719e+01
3.293675e+01
3.293675e+01
6.492144e+01
6.492144e+01
6.214480e+01
6.214480e+01
6.209032e+01
6.209032e+01
5.316846e+01
5.316846e+01
3.348870e+01
3.348870e+01
2.356932e+01
2.356932e+01
1.808828e+01
1.808828e+01
2.080645e+01
2.080645e+01
4.276888e+01
4.276888e+01
4.814339e+01
4.814339e+01
3.753456e+01
3.753456e+01
4.003580e+01
4.003580e+01
1.554192e+01
1.554192e+01
5.244142e+01
5.244142e+01
6.852169e+01
6.852169e+01
4.575991e+01
4.575991e+01
3.712478e+01
3.712478e+01
2.154012e+01
2.154012e+01
2.240314e+01
2.240314e+01
4.512950e+01
4.512950e+01
4.578778e+01
4.578778e+01
2.837222e+01
2.837222e+01
2.961407e+01
2.961407e+01
4.131477e+01
4.131477e+01
3.301274e+01
3.301274e+01
3.124884e+01
3.124884e+01
1.660407e+01
1.660407e+01
1.227576e+01
1.227576e+01
3.305103e+01
3.305103e+01
2.895919e+01
2.895919e+01
2.496407e+01
2.496407e+01
3.424638e+01
3.424638e+01
3.855103e+01
3.855103e+01
2.940230e+01
2.940230e+01
3.331003e+01
3.331003e+01
7.321898e+01
7.321898e+01
8.732698e+01
8.732698e+01
5.430411e+01
5.430411e+01
4.801140e+01
4.801140e+01
3.359744e+01
3.359744e+01
5.968053e+01
5.968053e+01
4.445236e+01
4.445236e+01
5.225371e+01
5.225371e+01
3.152416e+01
3.152416e+01
4.444349e+01
4.444349e+01
2.599285e+01
2.599285e+01
2.398788e+01
2.398788e+01
2.124177e+01
2.124177e+01
3.409244e+01
3.409244e+01
1.207940e+01
1.207940e+01
2.923702e+01
2.923702e+01
2.151638e+01
2.151638e+01
2.090923e+01
2.090923e+01
3.192597e+01
3.192597e+01
3.815056e+01
3.815056e+01
3.310193e+01
3.310193e+01
4.494678e+01
4.494678e+01
5.804714e+01
5.804714e+01
7.501513e+01
7.501513e+01
8.522446e+01
8.522446e+01
4.448098e+01
4.448098e+01
2.278413e+01
2.278413e+01
8.099913e+01
8.099913e+01
6.760125e+01
6.760125e+01
6.292832e+01
6.292832e+01
4.066940e+01
4.066940e+01
6.816465e+01
6.816465e+01
2.264763e+01
2.264763e+01
3.179114e+01
3.179114e+01
2.043257e+01
2.043257e+01
2.593714e+01
2.593714e+01
2.468313e+01
2.468313e+01
3.118866e+01
3.118866e+01
2.833249e+01
2.833249e+01
2.492076e+01
2.492076e+01
3.096562e+01
3.096562e+01
4.007555e+01
4.007555e+01
5.421525e+01
5.421525e+01
6.463696e+01
6.463696e+01
8.068216e+01
8.068216e+01
8.525087e+01
8.525087e+01
1.393752e+02
1.393752e+02
1.234167e+02
1.234167e+02
1.369445e+02
1.369445e+02
1.465409e+02
1.465409e+02
9.525879e+01
9.525879e+01
1.054656e+02
1.054656e+02
9.235068e+01
9.235068e+01
1.055667e+02
1.055667e+02
8.831091e+00
5.575128e+00
3.395185e+00
3.778483e+00
5.409145e+00
8.052917e+00
7.807065e+00
5.436767e+00
4.280120e+00
4.811858e+00
6.164565e+00
8.673454e+00
1.075534e+01
6.664171e+00
3.915973e+00
5.714291e+00
7.749002e+00
1.028152e+01
1.771593e+01
1.080069e+01
2.767083e+00
3.646362e+00
6.431445e+00
1.022752e+01
2.102359e+01
1.349718e+01
3.732379e+00
2.429626e+00
2.872415e+00
7.929524e+00
1.808575e+01
1.209454e+01
5.689571e+00
5.748389e+00
4.268057e+00
6.213573e+00
1.235800e+01
9.321887e+00
7.886494e+00
7.804811e+00
5.716166e+00
6.458566e+00
8.735301e+00
7.356719e+00
7.134300e+00
6.509220e+00
3.932192e+00
5.152776e+00
4.108503e+00
4.217746e+00
4.538745e+00
3.891298e+00
2.459953e+00
3.487006e+00
3.952761e+00
3.219751e+00
2.640666e+00
1.235670e+00
2.272060e+00
3.510663e+00
4.294510e+00
3.900130e+00
2.541238e+00
1.132195e+00
2.086779e+00
3.825850e+00
7.285877e+00
5.981125e+00
4.154501e+00
3.832492e+00
4.457270e+00
6.706384e+00
5.375162e+00
4.616737e+00
3.751448e+00
4.206471e+00
5.927997e+00
8.534322e+00
8.241200e+00
5.640371e+00
3.504593e+00
4.098459e+00
7.619897e+00
1.155263e+01
1.595497e+01
1.002913e+01
3.393238e+00
1.844357e+00
6.714776e+00
1.193814e+01
1.812693e+01
1.141223e+01
4.599758e+00
2.340516e+00
4.098057e+00
9.612565e+00
1.483166e+01
1.049861e+01
5.869028e+00
4.646934e+00
4.614879e+00
7.767559e+00
1.102756e+01
9.110496e+00
6.985749e+00
6.084879e+00
5.242595e+00
7.042001e+00
8.009156e+00
7.237928e+00
6.178069e+00
4.861347e+00
3.168368e+00
4.841208e+00
5.521917e+00
4.313071e+00
3.613430e+00
2.859069e+00
8.116196e-01
2.201728e+00
4.604104e+00
3.990169e+00
3.131665e+00
2.049527e+00
1.190925e+00
2.314952e+00
5.582128e+00
5.257449e+00
4.164945e+00
2.438434e+00
1.605859e+00
2.876413e+00
9.818956e+00
6.466742e+00
4.128359e+00
3.809478e+00
4.178348e+00
6.175720e+00
9.619522e+00
5.446771e+00
3.585341e+00
4.339595e+00
6.375826e+00
8.455212e+00
1.262958e+01
9.307390e+00
7.835937e+00
6.090138e+00
7.793564e+00
1.107859e+01
1.723224e+01
1.156119e+01
7.705622e+00
5.453338e+00
6.076842e+00
1.058752e+01
1.761502e+01
1.001658e+01
5.322630e+00
5.133445e+00
4.286363e+00
8.107597e+00
1.330401e+01
8.869124e+00
5.774248e+00
4.979929e+00
4.621931e+00
6.432117e+00
9.746374e+00
8.186068e+00
5.496519e+00
4.080750e+00
4.014501e+00
5.256015e+00
8.246272e+00
6.665432e+00
4.394918e+00
2.662296e+00
1.895607e+00
3.434856e+00
5.765642e+00
4.112476e+00
1.535334e+00
2.665624e+00
2.651386e+00
3.368744e+00
6.854726e+00
4.946209e+00
3.683840e+00
3.969931e+00
3.201213e+00
3.129850e+00
7.247950e+00
6.101671e+00
5.035432e+00
3.948512e+00
2.970225e+00
2.619703e+00
1.550805e+01
8.008248e+00
2.019350e+00
3.636558e+00
4.202562e+00
5.350483e+00
9.103803e+00
4.241857e+00
4.392554e+00
3.449900e+00
5.160085e+00
6.671991e+00
8.772046e+00
6.232329e+00
7.739819e+00
5.736689e+00
6.325624e+00
6.948423e+00
1.396548e+01
6.837426e+00
5.941934e+00
4.828185e+00
5.778223e+00
4.866446e+00
1.446804e+01
5.946436e+00
3.565197e+00
3.604116e+00
4.871775e+00
6.015725e+00
1.119613e+01
4.599942e+00
3.635147e+00
5.086697e+00
4.453229e+00
4.582781e+00
1.073812e+01
6.236801e+00
4.204618e+00
3.464568e+00
3.877546e+00
4.414420e+00
9.498874e+00
4.274542e+00
3.218690e+00
2.682649e+00
4.027632e+00
4.383451e+00
6.837592e+00
5.463598e+00
3.351448e+00
2.435337e+00
4.624794e+00
5.295050e+00
1.028350e+01
6.876275e+00
3.083896e+00
3.411458e+00
4.780652e+00
5.489652e+00
9.779201e+00
5.955862e+00
2.342973e+00
2.928786e+00
4.092246e+00
4.286549e+00
1.608087e+01
9.793172e+00
4.550065e+00
5.454754e+00
3.483753e+00
1.653214e+00
1.581634e+01
7.889763e+00
5.647508e+00
2.813109e+00
1.509559e+00
4.112848e+00
1.436821e+01
7.939138e+00
6.924064e+00
5.613855e+00
7.985219e+00
8.947604e+00
1.655289e+01
7.982298e+00
5.179176e+00
5.956458e+00
1.358828e+01
1.289678e+01
8.761728e+00
5.714971e+00
7.587308e+00
8.257242e+00
1.388118e+01
1.425232e+01
1.082419e+01
7.080082e+00
9.457250e+00
1.220180e+01
9.746987e+00
1.034241e+01
2.280307e+01
1.325504e+01
1.070663e+01
9.887848e+00
5.936349e+00
7.199643e+00
1.567348e+01
7.325860e+00
7.596481e+00
6.911977e+00
5.517368e+00
5.494584e+00
1.100381e+01
4.818774e+00
3.122267e+00
3.868065e+00
5.695671e+00
6.516085e+00
9.334352e+00
6.398187e+00
3.710712e+00
1.790857e+00
5.653870e+00
7.315142e+00
1.015614e+01
7.978806e+00
5.898775e+00
1.535688e+00
4.626249e+00
5.947077e+00
3.995783e+01
2.106992e+01
9.811001e+00
6.263158e+00
3.655911e+00
5.217085e+00
4.767165e+01
2.319749e+01
1.221679e+01
5.394741e+00
4.193468e+00
8.600186e+00
4.572423e+01
2.352220e+01
1.215510e+01
7.870168e+00
1.216629e+01
1.501143e+01
2.996454e+01
1.137764e+01
1.044265e+01
5.045165e+00
1.857802e+01
2.047974e+01
2.001531e+01
1.253828e+01
1.363714e+01
9.761973e+00
1.854627e+01
2.119065e+01
2.200527e+01
1.544731e+01
1.327572e+01
1.519522e+01
1.327664e+01
1.578390e+01
4.189996e+01
2.193423e+01
1.367863e+01
1.338898e+01
7.384220e+00
1.111661e+01
2.336539e+01
1.371898e+01
1.246329e+01
9.751331e+00
5.077078e+00
5.972567e+00
1.427778e+01
6.864142e+00
4.937674e+00
6.002836e+00
6.144959e+00
7.122812e+00
1.070723e+01
9.246423e+00
7.549459e+00
3.565494e+00
6.045727e+00
7.975225e+00
1.287477e+01
1.188192e+01
9.867871e+00
3.549333e+00
4.695625e+00
6.175753e+00
SCALARS TRIAX_STRESS float 1
LOOKUP_TABLE default
-2.254002e-01
2.542037e-01
3.104259e-01
2.885738e-02
-2.254002e-01
2.542037e-01
3.104259e-01
2.885738e-02
3.668479e-01
2.592768e-01
7.069707e-01
2.910686e-01
3.668479e-01
2.592768e-01
7.069707e-01
2.910686e-01
1.333910e-01
2.230067e-01
1.356216e-01
1.333910e-01
2.230067e-01
1.356216e-01
2.654553e-01
7.202584e-02
2.212180e-01
1.313683e-01
2.654553e-01
7.202584e-02
2.212180e-01
1.313683e-01
2.324605e-01
3.225358e-02
2.324605e-01
3.225358e-02
2.343086e-01
1.466848e-01
2.343086e-01
1.466848e-01
6.119888e-01
4.470759e-01
5.304283e-01
2.342611e-01
6.119888e-01
4.470759e-01
5.304283e-01
2.342611e-01
3.962632e-02
1.523094e-02
-1.082961e-01
-6.027779e-02
3.962632e-02
1.523094e-02
-1.082961e-01
-6.027779e-02
-1.464855e-01
2.503741e-01
-1.417524e-01
-3.666840e-01
-1.464855e-01
2.503741e-01
-1.417524e-01
-3.666840e-01
-3.529559e-01
1.197123e-01
-3.529559e-01
1.197123e-01
-6.738675e-01
-6.738675e-01
-1.489652e-01
-7.188681e-02
-1.489652e-01
-7.188681e-02
-8.801406e-02
-1.710496e-01
-8.801406e-02
-1.710496e-01
-8.288850e-02
-8.288850e-02
5.292408e-01
5.292408e-01
4.573604e-01
4.573604e-01
-2.499898e-01
-1.198158e-01
-7.314222e-02
-2.499898e-01
-1.198158e-01
-7.314222e-02
6.756710e-01
5.970687e-01
3.216390e-02
4.135483e-01
6.756710e-01
5.970687e-01
3.216390e-02
4.135483e-01
5.012205e-01
5.012205e-01
1.738005e-01
-2.704535e-01
1.738005e-01
-2.704535e-01
4.169815e-01
4.169815e-01
-2.354354e-01
-2.354354e-01
9.437200e-02
9.437200e-02
3.084985e-01
3.084985e-01
2.750292e-02
2.750292e-02
-2.659021e-02
-2.659021e-02
5.188706e-01
5.188706e-01
-6.887021e-02
-6.887021e-02
4.678081e-01
1.665270e-01
4.678081e-01
1.665270e-01
6.754625e-02
6.754625e-02
-6.838389e-02
-6.838389e-02
1.738616e-02
1.738616e-02
-7.144080e-02
-7.144080e-02
8.222283e-01
3.084586e-01
8.222283e-01
3.084586e-01
1.481364e-01
1.481364e-01
-6.629081e-01
-6.629081e-01
-8.267951e-01
-8.267951e-01
-8.339446e-01
-8.339446e-01
8.627368e-01
5.333554e-01
8.627368e-01
5.333554e-01
2.635153e-01
2.635153e-01
-5.449788e-01
-5.449788e-01
-4.273938e-01
-4.273938e-01
-3.724564e-01
-3.724564e-01
4.129831e-01
3.678883e-01
4.129831e-01
3.678883e-01
-1.527049e-02
-1.527049e-02
-5.012293e-01
-5.012293e-01
-1.219498e-01
-1.219498e-01
7.680956e-02
7.680956e-02
1.346547e-01
-3.446057e-01
1.346547e-01
-3.446057e-01
-1.317668e-01
-1.317668e-01
-2.153617e-01
-2.153617e-01
-1.017973e-01
-1.017973e-01
-1.500318e-01
-1.500318e-01
-3.409891e-01
-4.862627e-01
-3.409891e-01
-4.862627e-01
-2.737834e-01
-2.737834e-01
-1.918591e-01
-1.918591e-01
-8.125899e-03
-8.125899e-03
-4.347915e-02
-4.347915e-02
-3.097218e-01
-6.060728e-01
-3.097218e-01
-6.060728e-01
-1.263509e-01
-1.263509e-01
-1.658690e-01
-1.658690e-01
-1.749483e-01
-1.749483e-01
-6.342768e-02
-6.342768e-02
1.338188e-01
-3.757937e-01
1.338188e-01
-3.757937e-01
2.505820e-01
2.505820e-01
4.047174e-01
4.047174e-01
8.989151e-02
8.989151e-02
-1.174201e-01
-1.174201e-01
2.095667e-01
5.498174e-02
2.095667e-01
5.498174e-02
2.526802e-01
2.526802e-01
-3.863323e-02
-3.863323e-02
-8.232580e-02
-8.232580e-02
4.324215e-01
4.324215e-01
1.839302e-01
-5.979987e-02
1.839302e-01
-5.979987e-02
3.541290e-01
3.541290e-01
-5.558789e-01
-5.558789e-01
-8.267653e-01
-8.267653e-01
-1.267658e-01
-1.267658e-01
8.458853e-02
1.464101e-01
8.458853e-02
1.464101e-01
3.456902e-01
3.456902e-01
-5.046430e-01
-5.046430e-01
-6.355262e-01
-6.355262e-01
-1.683421e-01
-1.683421e-01
-7.294029e-02
-2.265992e-02
-7.294029e-02
-2.265992e-02
-2.529133e-03
-2.529133e-03
-3.880991e-01
-3.880991e-01
-5.813632e-01
-5.813632e-01
-4.975948e-01
-4.975948e-01
1.591362e-01
-3.609580e-01
1.591362e-01
-3.609580e-01
1.884367e-01
1.884367e-01
3.114322e-01
3.114322e-01
-1.823742e-01
-1.823742e-01
-1.091266e+00
-1.091266e+00
4.633137e-01
6.119966e-02
4.633137e-01
6.119966e-02
7.874394e-01
7.874394e-01
7.951284e-01
7.951284e-01
8.213495e-02
8.213495e-02
-8.494127e-01
-8.494127e-01
3.542061e-01
-2.577210e-01
-2.518569e-01
-3.892869e-01
3.542061e-01
-2.577210e-01
-2.518569e-01
-3.892869e-01
-9.567633e-01
-3.795474e-01
-9.567633e-01
-3.795474e-01
-2.629928e-01
-1.675452e-01
-2.629928e-01
-1.675452e-01
-1.608369e-01
-1.608369e-01
-3.973167e-01
3.629330e-01
-3.973167e-01
3.629330e-01
-1.017591e-01
-1.017591e-01
5.316552e-01
6.212982e-02
5.316552e-01
6.212982e-02
2.483156e-01
2.483156e-01
3.870215e-01
-2.923397e-01
3.870215e-01
-2.923397e-01
7.397325e-04
7.397325e-04
-3.992260e-01
-8.911457e-04
-3.992260e-01
-8.911457e-04
-2.313800e-01
-2.313800e-01
1.576207e-01
1.435300e-01
1.576207e-01
1.435300e-01
-5.366631e-02
-5.366631e-02
-2.245145e-01
-2.245145e-01
-6.009761e-01
-6.009761e-01
-5.448552e-01
-5.448552e-01
-7.424652e-01
-7.424652e-01
4.245869e-01
6.728109e-01
4.245869e-01
6.728109e-01
1.580816e-01
1.580816e-01
2.717206e-01
2.717206e-01
-1.060188e-01
-1.060188e-01
-8.810332e-01
-8.810332e-01
-5.337562e-01
-5.337562e-01
-4.322971e-02
-4.322971e-02
-9.419644e-01
-9.419644e-01
-1.129154e-01
-1.129154e-01
5.752996e-01
5.752996e-01
4.875945e-01
4.875945e-01
-1.002422e-02
-1.002422e-02
3.559003e-01
3.559003e-01
1.944775e-01
1.944775e-01
3.663532e-01
5.090334e-01
6.792565e-01
3.723560e-01
3.663532e-01
5.090334e-01
6.792565e-01
3.723560e-01
1.611043e-01
3.009210e-01
2.356051e-01
2.720525e-01
1.611043e-01
3.009210e-01
2.356051e-01
2.720525e-01
-2.579126e-01
8.992729e-02
2.935172e-01
-5.273532e-01
-2.579126e-01
8.992729e-02
2.935172e-01
-5.273532e-01
-6.297906e-01
2.974158e-01
5.436546e-02
-6.297906e-01
2.974158e-01
5.436546e-02
3.149572e-01
6.627878e-01
3.149572e-01
6.627878e-01
1.419253e-01
1.691832e-01
2.831567e-01
7.265868e-02
1.419253e-01
1.691832e-01
2.831567e-01
7.265868e-02
-7.926543e-02
1.347651e-01
-7.926543e-02
1.347651e-01
2.882858e-01
2.016921e-01
2.882858e-01
2.016921e-01
-7.562817e-03
7.349987e-02
4.224457e-01
-7.562817e-03
7.349987e-02
4.224457e-01
1.466061e-01
1.466061e-01
6.472172e-02
4.586364e-02
6.472172e-02
4.586364e-02
-4.942263e-03
5.719179e-02
-4.942263e-03
5.719179e-02
-3.518331e-02
-3.518331e-02
-4.105734e-01
-4.105734e-01
-2.373114e-01
-4.631958e-01
-5.930372e-01
-2.373114e-01
-4.631958e-01
-5.930372e-01
6.969922e-02
5.177648e-03
5.153279e-02
-1.525429e-01
6.969922e-02
5.177648e-03
5.153279e-02
-1.525429e-01
-1.355735e-01
-4.876366e-02
-1.355735e-01
-4.876366e-02
-4.314643e-01
-4.314643e-01
-2.108482e-02
-2.488937e-02
-1.653692e-01
2.014604e-03
-2.108482e-02
-2.488937e-02
-1.653692e-01
2.014604e-03
-2.524043e-01
-2.524043e-01
-2.421044e-02
-2.421044e-02
6.099186e-01
6.099186e-01
1.019800e+00
1.019800e+00
5.434283e-01
5.434283e-01
3.114778e-01
3.114778e-01
-2.293222e-01
3.570630e-01
-2.293222e-01
3.570630e-01
1.648977e-01
2.640402e-01
1.648977e-01
2.640402e-01
1.272255e-02
4.361479e-01
1.272255e-02
4.361479e-01
-3.996686e-01
-4.700422e-01
-3.996686e-01
-4.700422e-01
-1.021493e-01
-7.690455e-01
-1.021493e-01
-7.690455e-01
-2.555540e-01
-4.138062e-01
-2.555540e-01
-4.138062e-01
4.977730e-02
-4.163015e-02
4.977730e-02
-4.163015e-02
5.686695e-01
1.934065e-01
5.686695e-01
1.934065e-01
5.743860e-01
4.864070e-01
5.743860e-01
4.864070e-01
1.029508e-01
6.265814e-01
1.029508e-01
6.265814e-01
-1.346325e-01
2.844463e-01
-1.346325e-01
2.844463e-01
-2.437146e-03
1.410734e-01
-2.437146e-03
1.410734e-01
-1.329046e-01
-4.173658e-01
-1.329046e-01
-4.173658e-01
-1.363723e-02
-7.786557e-01
-1.363723e-02
-7.786557e-01
6.167753e-01
6.167753e-01
3.551293e-01
3.551293e-01
4.170481e-01
4.170481e-01
-2.410144e-01
-2.410144e-01
-6.016962e-01
-6.016962e-01
-3.884641e-01
-3.884641e-01
-2.646300e-01
-2.646300e-01
-2.948140e-01
-2.948140e-01
-2.720665e-01
-2.720665e-01
-4.830797e-02
-4.830797e-02
-2.552932e-02
-2.552932e-02
4.159101e-01
4.159101e-01
1.070638e-01
1.070638e-01
-6.688015e-01
-6.688015e-01
4.861234e-01
4.861234e-01
5.106890e-01
5.106890e-01
6.253212e-02
6.253212e-02
-2.715549e-01
-2.715549e-01
-1.718873e-01
-1.718873e-01
-2.295004e-02
-2.295004e-02
1.541587e-01
1.541587e-01
1.724666e-01
1.724666e-01
-4.475926e-01
-4.475926e-01
-1.452761e-01
-1.452761e-01
3.029390e-01
3.029390e-01
4.010613e-01
4.010613e-01
4.100710e-01
4.100710e-01
1.758763e-01
1.758763e-01
4.065954e-01
4.065954e-01
4.990653e-01
4.990653e-01
1.591095e-02
1.591095e-02
-6.622407e-02
-6.622407e-02
5.257888e-02
5.257888e-02
-2.576953e-01
-2.576953e-01
5.597525e-02
5.597525e-02
-3.484560e-03
-3.484560e-03
-2.459432e-01
-2.459432e-01
2.328291e-01
2.328291e-01
2.656671e-01
2.656671e-01
3.088949e-01
3.088949e-01
3.145402e-01
3.145402e-01
1.059514e-01
1.059514e-01
1.191534e-01
1.191534e-01
3.752577e-01
3.752577e-01
-2.721618e-01
-2.721618e-01
-1.912010e-03
-1.912010e-03
1.319895e-01
1.319895e-01
-2.638836e-01
-2.638836e-01
3.439878e-01
3.439878e-01
-3.711060e-01
-3.711060e-01
-9.036196e-02
-9.036196e-02
7.544811e-02
7.544811e-02
-3.424949e-01
-3.424949e-01
2.753046e-01
2.753046e-01
-1.697202e-02
-1.697202e-02
-5.155173e-01
-5.155173e-01
3.668973e-01
-5.080803e-01
3.668973e-01
-5.080803e-01
4.943649e-01
4.943649e-01
-2.201877e-01
-2.201877e-01
4.136391e-01
4.136391e-01
4.876499e-01
4.876499e-01
-1.701780e-01
-1.701780e-01
-4.251400e-01
-4.251400e-01
-2.396001e-01
-2.396001e-01
1.086190e-01
2.261766e-01
1.086190e-01
2.261766e-01
7.557207e-02
7.557207e-02
-6.539025e-02
-6.539025e-02
1.468397e-01
1.468397e-01
1.335108e-01
1.335108e-01
7.410422e-02
7.410422e-02
7.002703e-02
7.002703e-02
3.336792e-02
3.336792e-02
-2.651115e-01
-2.687319e-02
-2.651115e-01
-2.687319e-02
-1.404360e-02
-1.404360e-02
-2.373440e-01
-2.373440e-01
-4.781419e-01
-4.781419e-01
-1.747257e-01
-1.747257e-01
1.056191e-01
1.056191e-01
1.102299e-01
1.102299e-01
-4.980316e-02
-4.980316e-02
-4.648839e-01
-9.368014e-02
-4.648839e-01
-9.368014e-02
-1.607261e-01
-1.607261e-01
-1.085627e-01
-1.085627e-01
-9.943035e-02
-9.943035e-02
1.844099e-01
1.844099e-01
1.608742e-01
1.608742e-01
-1.648799e-01
-1.648799e-01
-4.665511e-01
-4.665511e-01
-1.922700e-01
-1.337980e-01
-1.922700e-01
-1.337980e-01
2.252635e-01
2.252635e-01
2.411102e-01
2.411102e-01
3.347497e-01
3.347497e-01
3.000020e-01
3.000020e-01
-5.397621e-01
-5.397621e-01
-5.811124e-01
-5.811124e-01
-4.560381e-01
-4.560381e-01
1.193512e-01
-1.401242e-01
1.193512e-01
-1.401242e-01
2.777536e-01
2.777536e-01
1.884397e-01
1.884397e-01
2.722549e-01
2.722549e-01
8.956253e-02
8.956253e-02
-1.716158e-01
-1.716158e-01
1.913445e-02
1.913445e-02
2.634696e-01
2.634696e-01
-6.179946e-02
1.183845e-01
-4.717572e-02
-1.496582e-01
-6.179946e-02
1.183845e-01
-4.717572e-02
-1.496582e-01
-1.128319e-01
-3.272380e-02
-1.128319e-01
-3.272380e-02
-1.331232e-01
2.471732e-01
-1.331232e-01
2.471732e-01
-6.970457e-01
-3.650102e-01
-6.970457e-01
-3.650102e-01
-3.672043e-01
-2.791433e-01
-3.672043e-01
-2.791433e-01
5.288087e-01
4.367618e-01
5.288087e-01
4.367618e-01
5.479562e-01
3.628356e-01
5.479562e-01
3.628356e-01
3.447820e-01
-2.035025e-01
3.447820e-01
-2.035025e-01
-2.817808e-01
-2.817808e-01
1.264482e-01
1.264482e-01
-3.065288e-01
-3.065288e-01
-6.914554e-02
-6.914554e-02
2.781800e-01
2.781800e-01
6.682463e-02
6.682463e-02
3.046921e-01
3.046921e-01
2.545454e-01
2.545454e-01
5.641298e-02
5.641298e-02
-3.962097e-01
-3.962097e-01
3.197391e-01
3.197391e-01
5.159420e-01
5.159420e-01
-3.449269e-01
-3.449269e-01
-2.789063e-01
-2.789063e-01
-1.316762e-01
-1.316762e-01
1.882515e-02
1.882515e-02
-1.297151e-01
-1.297151e-01
-6.277064e-01
-6.277064e-01
1.380360e-01
1.380360e-01
3.746393e-01
3.746393e-01
6.079885e-02
6.079885e-02
3.076913e-02
3.076913e-02
5.877975e-02
5.877975e-02
2.307533e-01
2.307533e-01
2.542223e-03
2.542223e-03
7.695631e-01
2.125235e-01
7.695631e-01
2.125235e-01
6.875615e-01
1.918771e-01
6.875615e-01
1.918771e-01
1.889330e-01
-2.107054e-01
1.889330e-01
-2.107054e-01
3.256651e-01
-8.454164e-02
3.256651e-01
-8.454164e-02
4.549948e-01
2.446315e-01
4.549948e-01
2.446315e-01
-2.371248e-01
-2.371248e-01
-1.254598e-01
-1.254598e-01
-2.678184e-01
-2.678184e-01
-2.689552e-01
-2.689552e-01
-1.575998e-01
-1.575998e-01
-4.003782e-01
-4.003782e-01
-3.914561e-01
-3.914561e-01
-2.129958e-01
-2.129958e-01
2.965337e-01
2.965337e-01
1.333706e-01
1.333706e-01
-3.512608e-01
-3.512608e-01
-3.022224e-01
-3.022224e-01
4.136350e-02
4.136350e-02
1.099255e-01
1.099255e-01
-1.108394e-01
-1.108394e-01
2.697484e-01
2.697484e-01
-2.883729e-02
-2.883729e-02
2.808879e-01
2.808879e-01
-2.559263e-01
-2.559263e-01
-5.609241e-01
-5.609241e-01
1.025998e+00
1.025998e+00
3.218315e-01
3.218315e-01
4.967393e-01
4.967393e-01
-2.206291e-02
-2.206291e-02
-2.863335e-01
-2.863335e-01
1.356433e-01
1.356433e-01
6.203859e-02
6.203859e-02
3.250640e-01
3.250640e-01
-3.860099e-01
-3.860099e-01
-3.230360e-01
-3.230360e-01
-8.497086e-01
-8.497086e-01
-4.990301e-01
-4.990301e-01
-4.243943e-02
-4.243943e-02
-5.989868e-01
-5.989868e-01
-1.370658e-02
-1.370658e-02
-1.399637e-01
-1.399637e-01
5.191183e-01
5.191183e-01
3.937184e-01
3.937184e-01
1.391368e-02
1.391368e-02
-2.609437e-01
-2.609437e-01
-1.076117e-01
-1.076117e-01
-4.025809e-01
-4.025809e-01
1.713668e-01
1.713668e-01
2.673285e-01
2.673285e-01
2.896648e-02
2.896648e-02
1.889975e-01
1.889975e-01
2.436527e-01
2.436527e-01
-4.977268e-01
-4.977268e-01
-4.629857e-01
-4.629857e-01
1.855944e-01
1.855944e-01
6.532187e-01
6.532187e-01
6.205407e-01
6.205407e-01
4.934858e-01
4.934858e-01
-4.954491e-01
-4.954491e-01
-5.875798e-01
-5.875798e-01
-1.930826e-01
-1.930826e-01
4.264662e-01
4.264662e-01
6.069894e-01
6.069894e-01
4.153057e-01
4.153057e-01
3.695787e-02
3.695787e-02
-2.618126e-02
-2.618126e-02
-3.695489e-01
-3.695489e-01
4.001738e-02
4.001738e-02
4.670664e-01
4.670664e-01
4.433079e-01
4.433079e-01
4.217658e-01
4.217658e-01
2.998726e-01
2.998726e-01
3.439259e-01
3.439259e-01
-1.043369e-01
-1.043369e-01
-2.816724e-01
-2.816724e-01
1.935995e-01
1.935995e-01
-1.430956e-01
-1.430956e-01
4.280989e-01
4.280989e-01
5.401496e-01
5.401496e-01
5.471933e-01
5.471933e-01
3.503459e-01
3.503459e-01
1.565331e-01
1.565331e-01
-2.325104e-01
-2.325104e-01
3.254104e-01
3.254104e-01
6.138924e-01
6.138924e-01
9.810425e-01
9.810425e-01
6.442512e-01
6.442512e-01
6.325317e-02
6.325317e-02
9.465657e-02
9.465657e-02
3.063276e-01
3.063276e-01
4.802550e-01
4.802550e-01
2.922875e-01
2.922875e-01
-2.459319e-01
-2.459319e-01
-2.362193e-01
-2.362193e-01
3.302691e-01
3.302691e-01
4.536512e-01
4.536512e-01
1.632586e-01
1.632586e-01
5.045138e-02
5.045138e-02
-2.375703e-01
-2.375703e-01
-1.025942e-01
-1.025942e-01
1.975531e-01
1.975531e-01
2.929896e-01
2.929896e-01
2.097360e-01
2.097360e-01
-4.544858e-02
-4.544858e-02
-1.330820e-02
-1.330820e-02
-3.305250e-02
-3.305250e-02
2.679582e-02
2.679582e-02
4.202395e-02
4.202395e-02
7.550710e-02
7.550710e-02
1.273160e-01
1.273160e-01
1.169907e-01
1.169907e-01
-1.207269e-01
-1.207269e-01
-4.712645e-02
-4.712645e-02
-8.417249e-02
-8.417249e-02
-1.683411e-03
-1.683411e-03
1.038255e-01
1.038255e-01
7.795846e-02
7.795846e-02
-1.603440e-01
-1.603440e-01
-5.019080e-02
-5.019080e-02
-8.419882e-02
-8.419882e-02
-5.996606e-02
-5.996606e-02
-3.917276e-02
-3.917276e-02
4.483334e-02
4.483334e-02
-4.767386e-02
-4.767386e-02
-3.621824e-02
-3.621824e-02
-5.435566e-03
-5.435566e-03
-7.644858e-02
-7.644858e-02
-6.830250e-02
-6.830250e-02
8.555799e-03
8.555799e-03
2.009560e-01
2.009560e-01
-1.818124e-01
-1.818124e-01
-2.093341e-02
-2.093341e-02
6.196276e-02
6.196276e-02
-1.281645e-01
-1.281645e-01
-7.869896e-02
-7.869896e-02
1.321406e-03
1.321406e-03
-3.636723e-02
-3.636723e-02
-1.338347e-02
-1.338347e-02
6.609998e-02
6.609998e-02
-3.874174e-03
-3.874174e-03
-8.625250e-02
-8.625250e-02
-1.126422e-01
-1.126422e-01
-9.371951e-02
-9.371951e-02
-4.773807e-02
-4.773807e-02
1.257811e-01
1.257811e-01
5.404732e-02
5.404732e-02
1.003134e-02
1.003134e-02
-5.189797e-02
-5.189797e-02
-1.878872e-01
-1.878872e-01
-4.532334e-02
-4.532334e-02
1.118813e-01
1.118813e-01
8.194362e-02
8.194362e-02
3.202021e-02
3.202021e-02
1.761041e-01
1.761041e-01
-1.677336e-01
-1.677336e-01
-1.961396e-02
-1.961396e-02
-2.704651e-03
-2.704651e-03
3.013760e-02
3.013760e-02
6.699190e-02
6.699190e-02
2.577712e-01
2.577712e-01
-2.728913e-01
-2.728913e-01
7.717421e-03
7.717421e-03
7.822269e-02
7.822269e-02
5.634991e-02
5.634991e-02
1.212350e-01
1.212350e-01
-2.998248e-02
-2.998248e-02
-1.753385e-01
-1.753385e-01
1.837982e-01
1.837982e-01
1.869260e-01
1.869260e-01
2.333847e-01
2.333847e-01
2.765180e-01
2.765180e-01
9.504168e-01
9.504168e-01
3.848953e-01
3.848953e-01
1.317084e-01
1.317084e-01
3.122748e-01
3.122748e-01
2.208731e-01
2.208731e-01
4.897630e-01
4.897630e-01
6.848504e-02
6.848504e-02
-4.740048e-01
-4.740048e-01
-2.515375e-01
-2.515375e-01
1.626671e-02
1.626671e-02
-5.095954e-02
-5.095954e-02
-2.470999e-01
-2.470999e-01
-1.517423e-01
-1.517423e-01
-1.239469e-01
-1.239469e-01
-4.130503e-02
-4.130503e-02
1.836769e-02
1.836769e-02
6.246482e-02
6.246482e-02
2.285501e-02
2.285501e-02
4.974396e-02
4.974396e-02
1.218224e-01
1.218224e-01
2.211365e-01
2.211365e-01
2.466129e-01
2.466129e-01
9.100537e-01
9.100537e-01
6.707522e-01
6.707522e-01
5.572910e-01
5.572910e-01
2.612190e-01
2.612190e-01
2.290864e-01
2.290864e-01
2.863736e-01
2.863736e-01
-2.367560e-01
-2.367560e-01
-4.492948e-01
-4.492948e-01
-5.613554e-01
-5.613554e-01
-6.339938e-01
-6.339938e-01
-3.379553e-01
-3.379553e-01
5.598358e-02
5.598358e-02
1.412246e-01
1.412246e-01
-1.211339e-02
-1.211339e-02
-4.843339e-02
-4.843339e-02
-1.595740e-02
-1.595740e-02
1.440925e-02
1.440925e-02
8.359484e-02
8.359484e-02
1.767979e-01
1.767979e-01
1.628988e-01
1.628988e-01
2.357513e-02
2.357513e-02
-8.019678e-02
-8.019678e-02
2.053928e-01
2.053928e-01
2.143690e-01
2.143690e-01
6.546736e-01
6.546736e-01
3.049060e-01
3.049060e-01
-2.952926e-02
-2.952926e-02
-2.825664e-01
-2.825664e-01
-2.460993e-01
-2.460993e-01
-3.858611e-01
-3.858611e-01
-5.217624e-01
-5.217624e-01
-1.745621e-01
-1.745621e-01
3.879345e-02
3.879345e-02
4.633854e-01
4.633854e-01
2.747835e-01
2.747835e-01
-9.938897e-03
-9.938897e-03
1.441112e-02
1.441112e-02
-1.303292e-01
-1.303292e-01
-1.766938e-01
-1.766938e-01
-7.235966e-02
-7.235966e-02
1.497282e-01
1.497282e-01
1.623798e-01
1.623798e-01
-1.080221e-01
-1.080221e-01
-1.789884e-01
-1.789884e-01
5.753803e-03
5.753803e-03
-1.661071e-01
-1.661071e-01
-2.037859e-02
-2.037859e-02
-1.918107e-01
-1.918107e-01
-9.962339e-02
-9.962339e-02
-2.163894e-01
-2.163894e-01
2.492650e-01
2.492650e-01
-2.759405e-02
-2.759405e-02
-4.622373e-01
-4.622373e-01
-2.926617e-01
-2.926617e-01
-1.235958e-01
-1.235958e-01
5.702521e-02
5.702521e-02
-2.195045e-01
-2.195045e-01
-8.659824e-02
-8.659824e-02
-1.765576e-02
-1.765576e-02
-1.717170e-01
-1.717170e-01
-2.382480e-01
-2.382480e-01
-5.185986e-02
-5.185986e-02
5.924563e-02
5.924563e-02
8.742912e-02
8.742912e-02
5.657979e-02
5.657979e-02
-5.027754e-02
-5.027754e-02
2.902546e-01
2.902546e-01
8.403743e-02
8.403743e-02
9.957344e-02
9.957344e-02
-2.470815e-01
-2.470815e-01
3.530304e-01
3.530304e-01
3.876569e-01
3.876569e-01
5.077225e-01
5.077225e-01
3.814122e-01
3.814122e-01
-1.595735e-01
-1.595735e-01
-2.252877e-01
-2.252877e-01
-4.618274e-01
-4.618274e-01
-2.853896e-01
-2.853896e-01
-2.889463e-01
-2.889463e-01
-1.099218e-01
-1.099218e-01
7.080625e-02
7.080625e-02
-9.641097e-02
-9.641097e-02
-1.405096e-01
-1.405096e-01
2.311219e-02
2.311219e-02
1.202308e-01
1.202308e-01
1.309195e-01
1.309195e-01
-2.823258e-02
-2.823258e-02
-2.911482e-01
-2.911482e-01
-5.485557e-01
-3.227110e-01
-2.271301e-01
3.953009e-02
6.841298e-01
9.318054e-01
-6.674825e-01
-4.413562e-01
-2.449064e-01
-3.130643e-02
5.460151e-01
8.800602e-01
-3.349750e-01
-2.098297e-01
-2.188490e-01
-2.108399e-01
4.389456e-01
9.465575e-01
2.272819e-01
2.434272e-01
4.366497e-01
6.431719e-01
6.424260e-01
6.122351e-01
1.223785e-01
1.561994e-01
3.753842e-01
3.691155e-01
-3.683098e-01
-9.141026e-01
-3.371774e-02
-9.997348e-02
-1.634147e-01
-3.658235e-01
-1.164139e+00
-1.757232e+00
3.903626e-01
1.352722e-01
1.867966e-01
2.938967e-01
-8.242660e-01
-1.742914e+00
7.011162e-01
2.806614e-01
1.485587e-01
1.092128e-01
-1.685363e+00
-3.152241e+00
1.324404e+00
7.903982e-01
2.629598e-01
-6.269765e-03
-2.716658e+00
-5.151250e+00
1.045134e+00
3.211014e-01
1.137768e+00
2.974574e+00
4.714863e-02
-3.176382e+00
8.887980e-02
-8.136487e-01
1.643858e+00
5.728322e+00
3.028622e+00
-3.955051e-01
-2.151359e-01
-1.053098e-01
5.744468e-02
7.232253e-02
2.121814e-01
3.900909e-01
-3.837307e-01
-2.176108e-01
-9.648300e-02
-1.303816e-01
1.541387e-01
4.275655e-01
-2.928238e-01
-1.680687e-01
-2.122652e-01
-4.571283e-01
-3.993721e-02
4.531656e-01
1.099144e-01
9.007260e-02
1.933154e-01
1.458368e-01
1.466054e-01
3.179371e-01
7.234577e-02
7.265845e-02
1.856513e-01
2.520696e-01
-1.597637e-01
-5.253351e-01
-4.847286e-04
1.115635e-02
2.928002e-02
-8.860495e-02
-6.082210e-01
-1.003469e+00
3.559710e-01
2.199034e-01
3.181998e-01
2.637366e-01
-4.145906e-01
-8.040907e-01
5.089579e-01
2.137510e-01
1.936397e-01
1.458624e-01
-9.920930e-01
-1.807176e+00
7.974136e-01
4.304547e-01
2.355434e-01
1.165362e-01
-1.572648e+00
-2.970777e+00
3.895045e-01
9.124714e-02
6.319762e-01
1.596762e+00
5.081043e-01
-7.063521e-01
-4.023545e-01
-6.273532e-01
7.917534e-01
2.916198e+00
2.578766e+00
1.760995e+00
1.682803e-01
1.372369e-01
2.756683e-01
2.662077e-01
-4.339075e-02
-1.740539e-01
5.701853e-02
5.978768e-02
1.157420e-01
2.240956e-02
-7.940435e-02
-3.470072e-02
1.128117e-02
-2.035082e-02
-8.333670e-02
-3.014262e-01
-3.125048e-01
-1.368478e-01
1.507120e-01
1.356887e-02
-4.904780e-02
-1.485906e-01
-1.672676e-01
-1.187543e-02
1.501671e-01
-3.398935e-03
-2.606239e-02
1.039103e-01
7.080441e-02
3.862848e-02
4.855207e-02
1.503465e-02
9.635899e-02
2.081996e-01
1.031455e-03
-2.031354e-01
2.033560e-01
1.660863e-01
3.285839e-01
3.858473e-01
2.729068e-01
3.024702e-01
3.108961e-01
1.664394e-01
1.294013e-01
1.973355e-01
1.067655e-01
5.567983e-02
1.285913e-01
-2.802029e-02
4.020485e-02
2.362625e-01
1.178506e-02
-1.839134e-01
-7.248748e-01
-4.580018e-01
1.348032e-02
3.383888e-01
1.299382e+00
2.140077e+00
-1.470464e+00
-7.722119e-01
-1.825781e-01
1.200904e-01
2.278423e+00
4.025468e+00
5.548187e-02
1.254859e-01
1.561287e-01
1.602127e-01
-5.895109e-03
-2.154483e-01
8.322366e-02
9.779663e-02
9.111607e-02
4.923970e-02
-2.214798e-02
-7.291283e-02
1.262249e-01
4.935746e-02
-3.261851e-02
-3.534052e-02
9.274085e-03
5.150212e-02
1.250019e-01
-1.585868e-02
-1.097386e-01
-2.308806e-02
1.562552e-01
2.959286e-01
1.919122e-01
-1.792474e-01
-2.851040e-01
-1.941106e-02
1.292911e-01
2.776031e-01
5.066689e-02
-3.797612e-01
-4.229794e-01
6.580473e-02
-1.263434e-03
-1.699058e-01
1.110171e-02
-1.467165e-01
-5.440754e-02
2.935478e-01
2.790616e-01
1.667474e-01
1.814625e-01
4.820580e-02
-6.545331e-02
7.272722e-02
1.836674e-01
1.760246e-01
-3.151772e-02
-7.115875e-02
-1.739584e-01
-3.207660e-02
1.242226e-01
7.548137e-02
-6.580897e-01
-2.593382e-01
-8.228249e-02
5.059624e-02
7.278993e-01
1.050628e+00
-1.086393e+00
-4.478668e-01
-2.426272e-01
-1.430923e-01
1.011017e+00
1.632305e+00
8.164968e-03
8.179947e-02
1.952760e-01
-2.173957e-02
-3.162464e-01
-3.538956e-01
4.531609e-03
7.639214e-02
1.241584e-01
-1.172826e-01
-3.186139e-01
-3.025986e-01
-9.891117e-02
-4.176354e-02
-9.884853e-03
-1.673103e-01
-1.281197e-01
4.322755e-02
-6.710365e-02
-1.302036e-01
-7.827496e-02
-3.146705e-02
1.498522e-01
3.993920e-01
1.334386e-01
-1.509085e-01
-1.882153e-01
3.145156e-02
1.322451e-01
2.604120e-01
7.310374e-02
-3.184061e-01
-3.956367e-01
-4.703720e-02
-5.259556e-02
-9.247417e-02
-5.179741e-02
-1.722632e-01
-1.490213e-01
8.429471e-02
1.410899e-01
1.082768e-01
-1.155868e-01
-1.238869e-01
-1.731073e-02
1.817294e-01
3.124192e-01
3.589451e-01
-1.941853e-01
-1.853401e-01
-1.621128e-01
1.077833e-01
3.858411e-01
4.083848e-01
2.217474e-02
1.058389e-01
-3.488840e-01
-4.539930e-01
2.925448e-02
7.922374e-02
2.489848e-01
2.382202e-01
-6.087036e-01
-1.026800e+00
-5.052336e-01
-4.017305e-01
1.236428e-01
7.500960e-02
2.876118e-01
6.339584e-02
-4.477171e-01
-4.733789e-01
5.663183e-02
7.063171e-02
2.456281e-01
-5.876858e-02
-5.140027e-01
-5.038437e-01
-1.770372e-01
-9.663586e-02
8.447530e-02
-1.633754e-01
-3.809771e-01
-2.500184e-01
-7.533403e-02
-1.382700e-01
1.485061e-02
3.755918e-02
1.874008e-03
1.595368e-01
1.610741e-01
6.076244e-02
1.457340e-01
1.745221e-01
9.873464e-02
1.794423e-01
1.092295e-01
3.049332e-02
2.542862e-02
2.101654e-03
-4.829852e-02
-1.700196e-03
-4.066549e-02
-2.345529e-02
1.833736e-02
1.196118e-01
2.747852e-01
3.532667e-01
-2.891060e-01
-1.581470e-01
1.163670e-01
4.301634e-01
7.698579e-01
9.393110e-01
-3.385762e-01
-3.549144e-01
-1.040260e-01
5.129027e-01
9.754444e-01
1.088284e+00
1.769042e-01
-4.704240e-02
-6.324264e-01
-5.513505e-01
2.324149e-01
5.736669e-01
6.234178e-01
2.688080e-01
-1.036957e+00
-1.631308e+00
-6.045660e-01
6.537154e-02
