# vtk DataFile Version 2.0
Test
ASCII
DATASET UNSTRUCTURED_GRID
POINTS 5874 float
4.302424e+01 3.355103e+02 -2.551245e+02
4.356442e+01 3.689423e+02 -2.520172e+02
5.214751e+01 3.652208e+02 -2.108842e+02
5.187665e+01 3.215426e+02 -2.115527e+02
4.400964e+01 3.355423e+02 -2.552917e+02
4.454857e+01 3.689391e+02 -2.521945e+02
5.312695e+01 3.652207e+02 -2.110859e+02
5.285825e+01 3.215814e+02 -2.117397e+02
4.410484e+01 4.023781e+02 -2.489131e+02
5.241787e+01 4.089141e+02 -2.102262e+02
4.508726e+01 4.023321e+02 -2.490941e+02
5.339614e+01 4.088449e+02 -2.104216e+02
6.086540e+01 4.155267e+02 -1.713116e+02
6.086958e+01 3.615115e+02 -1.695058e+02
6.157052e+01 4.152811e+02 -1.719768e+02
6.156634e+01 3.614901e+02 -1.702227e+02
6.086282e+01 3.075261e+02 -1.677397e+02
6.157310e+01 3.076693e+02 -1.684289e+02
1.414657e+01 3.236756e+02 -5.284918e+02
1.912983e+01 2.785737e+02 -5.224505e+02
1.717367e+01 2.881545e+02 -5.613949e+02
1.155938e+01 3.415758e+02 -5.772002e+02
1.514247e+01 3.237494e+02 -5.285442e+02
2.012314e+01 2.786764e+02 -5.225035e+02
1.816817e+01 2.882574e+02 -5.614147e+02
1.255700e+01 3.416379e+02 -5.772304e+02
2.411860e+01 2.334406e+02 -5.164109e+02
2.279380e+01 2.347058e+02 -5.455804e+02
2.509830e+01 2.336346e+02 -5.164611e+02
2.377348e+01 2.349043e+02 -5.456083e+02
2.146896e+01 2.359734e+02 -5.747385e+02
1.521788e+01 2.977377e+02 -6.003221e+02
2.244870e+01 2.361716e+02 -5.747669e+02
1.621281e+01 2.978360e+02 -6.003432e+02
8.972516e+00 3.594794e+02 -6.258993e+02
9.971210e+00 3.595230e+02 -6.259259e+02
7.686816e+00 4.048311e+02 -6.752949e+02
8.486935e+00 4.333956e+02 -6.349702e+02
9.343385e+00 3.983204e+02 -5.913466e+02
8.686583e+00 4.048368e+02 -6.753158e+02
9.486740e+00 4.333996e+02 -6.349896e+02
1.034276e+01 3.983361e+02 -5.913783e+02
6.402486e+00 4.501975e+02 -7.246962e+02
7.631733e+00 4.685005e+02 -6.785989e+02
7.400586e+00 4.501359e+02 -7.247000e+02
8.629475e+00 4.684334e+02 -6.785958e+02
8.862043e+00 4.868150e+02 -6.324875e+02
9.288284e+00 4.619900e+02 -5.946325e+02
9.857301e+00 4.867194e+02 -6.325057e+02
1.028567e+01 4.619325e+02 -5.946764e+02
9.715392e+00 4.371740e+02 -5.567847e+02
1.071317e+01 4.371366e+02 -5.568399e+02
6.091227e+01 7.082566e+02 -8.358053e+02
6.091017e+01 6.964677e+02 -7.724284e+02
3.838428e+01 6.404636e+02 -7.856593e+02
3.811951e+01 6.496140e+02 -8.519348e+02
6.152365e+01 7.074736e+02 -8.359195e+02
6.152575e+01 6.956929e+02 -7.725726e+02
3.931807e+01 6.401107e+02 -7.857183e+02
3.905048e+01 6.492533e+02 -8.519910e+02
6.091316e+01 6.846827e+02 -7.090541e+02
3.865371e+01 6.313242e+02 -7.193784e+02
6.152276e+01 6.839083e+02 -7.092231e+02
3.958101e+01 6.309570e+02 -7.194509e+02
1.653104e+01 5.781023e+02 -7.296689e+02
1.599655e+01 5.846022e+02 -7.988600e+02
1.750248e+01 5.778691e+02 -7.297125e+02
1.697224e+01 5.843857e+02 -7.988941e+02
1.545985e+01 5.910900e+02 -8.680559e+02
1.644421e+01 5.909144e+02 -8.680709e+02
2.120022e+01 5.652638e+02 -6.175167e+02
1.886661e+01 5.716881e+02 -6.735965e+02
3.982281e+01 6.208544e+02 -6.629698e+02
4.098983e+01 6.103781e+02 -6.065575e+02
2.216278e+01 5.650030e+02 -6.175903e+02
1.983165e+01 5.714310e+02 -6.736477e+02
4.074428e+01 6.204754e+02 -6.630554e+02
4.190963e+01 6.100003e+02 -6.066637e+02
6.091589e+01 6.701568e+02 -6.523064e+02
6.152003e+01 6.693837e+02 -6.524999e+02
6.091619e+01 6.556284e+02 -5.955583e+02
6.151973e+01 6.548616e+02 -5.957771e+02
6.092319e+01 7.219338e+02 -9.635007e+02
6.091972e+01 7.150972e+02 -8.996554e+02
4.016732e+01 6.659655e+02 -9.129233e+02
4.221255e+01 6.823110e+02 -9.739208e+02
6.151273e+01 7.211288e+02 -9.635671e+02
6.151620e+01 7.142992e+02 -8.997409e+02
4.108493e+01 6.655722e+02 -9.129813e+02
4.312196e+01 6.818971e+02 -9.739626e+02
1.954761e+01 6.169539e+02 -9.261987e+02
2.052097e+01 6.167251e+02 -9.262142e+02
2.363100e+01 6.427961e+02 -9.843485e+02
2.460210e+01 6.425575e+02 -9.843505e+02
3.304071e+01 3.825956e+02 -1.092165e+03
3.544618e+01 3.964410e+02 -1.117752e+03
2.951614e+01 4.377934e+02 -1.077767e+03
2.599588e+01 4.226748e+02 -1.038862e+03
3.403383e+01 3.826334e+02 -1.092055e+03
3.643927e+01 3.964795e+02 -1.117641e+03
3.050970e+01 4.378285e+02 -1.077659e+03
2.698963e+01 4.227076e+02 -1.038756e+03
3.785207e+01 4.102875e+02 -1.143342e+03
3.303687e+01 4.529132e+02 -1.116676e+03
3.884429e+01 4.103245e+02 -1.143224e+03
3.402931e+01 4.529483e+02 -1.116558e+03
2.822117e+01 4.955421e+02 -1.090006e+03
2.358580e+01 4.791475e+02 -1.037779e+03
2.921483e+01 4.955689e+02 -1.089896e+03
2.458044e+01 4.791759e+02 -1.037680e+03
1.894990e+01 4.627542e+02 -9.855466e+02
1.994658e+01 4.627816e+02 -9.854700e+02
4.002400e+01 6.568728e+02 -1.216953e+03
3.499171e+01 6.588569e+02 -1.156546e+03
3.427097e+01 6.155627e+02 -1.154100e+03
3.974035e+01 6.025211e+02 -1.206649e+03
4.101334e+01 6.567536e+02 -1.216869e+03
3.597885e+01 6.587083e+02 -1.156487e+03
3.526663e+01 6.155632e+02 -1.154007e+03
4.073209e+01 6.025400e+02 -1.206523e+03
2.996268e+01 6.608536e+02 -1.096141e+03
2.880295e+01 6.286093e+02 -1.101558e+03
3.094110e+01 6.606504e+02 -1.096103e+03
2.979981e+01 6.285814e+02 -1.101484e+03
2.765298e+01 5.964440e+02 -1.106966e+03
3.355526e+01 5.723375e+02 -1.151644e+03
2.864876e+01 5.964334e+02 -1.106874e+03
3.454938e+01 5.723491e+02 -1.151537e+03
3.945824e+01 5.482351e+02 -1.196326e+03
4.044930e+01 5.482607e+02 -1.196196e+03
6.090216e+01 5.702062e+02 -3.579355e+02
6.089897e+01 5.387430e+02 -3.007688e+02
4.573106e+01 4.994237e+02 -3.309898e+02
4.349202e+01 5.252915e+02 -3.833887e+02
6.153376e+01 5.695052e+02 -3.582665e+02
6.153695e+01 5.380683e+02 -3.011400e+02
4.668326e+01 4.991618e+02 -3.311470e+02
4.443609e+01 5.249979e+02 -3.835388e+02
6.088264e+01 5.072396e+02 -2.435693e+02
4.796818e+01 4.735408e+02 -2.785859e+02
6.155328e+01 5.066716e+02 -2.440463e+02
4.893236e+01 4.733409e+02 -2.787603e+02
3.519184e+01 4.399809e+02 -3.134599e+02
3.070681e+01 4.602532e+02 -3.611120e+02
3.617332e+01 4.398713e+02 -3.136169e+02
3.168592e+01 4.601066e+02 -3.612529e+02
2.622137e+01 4.805187e+02 -4.087643e+02
2.719893e+01 4.803487e+02 -4.088887e+02
2.153494e+01 4.254867e+02 -4.315165e+02
1.889979e+01 4.538322e+02 -4.827328e+02
2.452312e+01 5.038729e+02 -4.599304e+02
2.252956e+01 4.254405e+02 -4.316092e+02
1.989482e+01 4.537667e+02 -4.828078e+02
2.549748e+01 5.036760e+02 -4.600394e+02
1.685632e+01 3.704846e+02 -4.542558e+02
1.328552e+01 4.038336e+02 -5.055222e+02
1.785238e+01 3.705024e+02 -4.543426e+02
1.428311e+01 4.038152e+02 -5.055893e+02
1.626585e+01 4.821823e+02 -5.339424e+02
1.725888e+01 4.820882e+02 -5.340132e+02
2.282580e+01 5.272268e+02 -5.110917e+02
2.379510e+01 5.270036e+02 -5.111949e+02
1.242194e+01 3.727045e+02 -5.413619e+02
1.550144e+01 3.470757e+02 -4.913732e+02
1.342057e+01 3.727268e+02 -5.414092e+02
1.649743e+01 3.471303e+02 -4.914440e+02
2.929944e+01 3.516967e+02 -3.428541e+02
3.224361e+01 3.958288e+02 -3.281608e+02
3.790370e+01 3.823847e+02 -2.900900e+02
3.616172e+01 3.436042e+02 -2.989893e+02
3.029106e+01 3.517189e+02 -3.429815e+02
3.323422e+01 3.958051e+02 -3.282954e+02
3.889171e+01 3.823729e+02 -2.902440e+02
3.715047e+01 3.436299e+02 -2.991366e+02
3.964826e+01 4.211782e+02 -2.811847e+02
4.063037e+01 4.211030e+02 -2.813573e+02
2.837821e+01 2.428524e+02 -4.300967e+02
2.261500e+01 3.066774e+02 -4.421756e+02
2.776341e+01 3.048913e+02 -3.910520e+02
3.245434e+01 2.486714e+02 -3.835391e+02
2.935907e+01 2.430260e+02 -4.301851e+02
2.360799e+01 3.067553e+02 -4.422645e+02
2.875622e+01 3.049619e+02 -3.911487e+02
3.343533e+01 2.488338e+02 -3.836453e+02
2.307777e+01 3.610916e+02 -3.985549e+02
2.407183e+01 3.611097e+02 -3.986621e+02
3.291265e+01 3.031031e+02 -3.399228e+02
3.390363e+01 3.031707e+02 -3.400385e+02
3.652962e+01 2.544947e+02 -3.369849e+02
3.751244e+01 2.546373e+02 -3.371021e+02
2.688920e+01 4.106578e+02 -3.798380e+02
2.788196e+01 4.106228e+02 -3.799529e+02
2.087285e+01 2.926251e+02 -4.823064e+02
2.186513e+01 2.927163e+02 -4.823906e+02
2.624838e+01 2.381464e+02 -4.732528e+02
2.722871e+01 2.383304e+02 -4.733241e+02
4.660070e+01 1.974199e+02 -3.727835e+02
4.456340e+01 1.869731e+02 -4.233307e+02
4.756210e+01 1.976748e+02 -3.728873e+02
4.552320e+01 1.872411e+02 -4.234144e+02
4.863487e+01 2.078775e+02 -3.222434e+02
4.960412e+01 2.080977e+02 -3.223532e+02
6.089332e+01 1.610574e+02 -3.074086e+02
6.090554e+01 1.459675e+02 -3.619687e+02
6.154260e+01 1.617610e+02 -3.076976e+02
6.153038e+01 1.467167e+02 -3.621886e+02
6.091044e+01 1.308928e+02 -4.165076e+02
6.152548e+01 1.316572e+02 -4.167008e+02
6.091383e+01 1.188499e+02 -4.729040e+02
4.349843e+01 1.786011e+02 -4.731064e+02
6.152209e+01 1.196261e+02 -4.730698e+02
4.445807e+01 1.788753e+02 -4.731690e+02
6.082993e+01 1.068907e+02 -5.293136e+02
4.243414e+01 1.702277e+02 -5.228818e+02
6.160599e+01 1.075113e+02 -5.294256e+02
4.339227e+01 1.705109e+02 -5.229238e+02
4.177284e+01 1.713819e+02 -5.510326e+02
4.111107e+01 1.725388e+02 -5.791729e+02
4.272876e+01 1.716747e+02 -5.510532e+02
4.206572e+01 1.728358e+02 -5.791932e+02
6.073981e+01 1.081054e+02 -5.564863e+02
6.169611e+01 1.083977e+02 -5.564967e+02
6.074047e+01 1.091539e+02 -5.836083e+02
6.169545e+01 1.094503e+02 -5.836185e+02
1.146136e+01 5.141230e+02 -7.271911e+02
1.206105e+01 5.264196e+02 -7.940535e+02
1.245694e+01 5.140294e+02 -7.271977e+02
1.305829e+01 5.263458e+02 -7.940631e+02
8.136302e+00 4.683081e+02 -7.892373e+02
9.133594e+00 4.682348e+02 -7.892419e+02
9.868937e+00 4.863974e+02 -8.537923e+02
1.266069e+01 5.387105e+02 -8.609284e+02
1.086778e+01 4.863550e+02 -8.537699e+02
1.365970e+01 5.386679e+02 -8.609161e+02
4.742563e+01 4.300921e+02 -1.222159e+03
5.407444e+01 4.292724e+02 -1.267635e+03
5.208344e+01 4.895685e+02 -1.265077e+03
4.344245e+01 4.891605e+02 -1.209246e+03
4.841623e+01 4.301245e+02 -1.222027e+03
5.506445e+01 4.292981e+02 -1.267497e+03
5.307187e+01 4.895987e+02 -1.264928e+03
4.443225e+01 4.891957e+02 -1.209108e+03
6.072126e+01 4.284540e+02 -1.313096e+03
6.072313e+01 4.899782e+02 -1.320899e+03
6.171466e+01 4.284704e+02 -1.312982e+03
6.171279e+01 4.900000e+02 -1.320758e+03
6.072285e+01 5.515061e+02 -1.328687e+03
5.009226e+01 5.498685e+02 -1.262518e+03
6.171307e+01 5.515259e+02 -1.328549e+03
5.107947e+01 5.498954e+02 -1.262361e+03
6.071796e+01 1.361235e+02 -1.276029e+03
6.071799e+01 2.116162e+02 -1.285592e+03
5.849799e+01 2.137548e+02 -1.238100e+03
6.071801e+01 1.338238e+02 -1.216842e+03
6.171796e+01 1.361235e+02 -1.276029e+03
6.171793e+01 2.116175e+02 -1.285581e+03
5.949755e+01 2.137732e+02 -1.238076e+03
6.171791e+01 1.338379e+02 -1.216842e+03
6.071857e+01 2.871071e+02 -1.295168e+03
5.627941e+01 2.936866e+02 -1.259375e+03
6.171735e+01 2.871133e+02 -1.295120e+03
5.727576e+01 2.937077e+02 -1.259293e+03
5.184006e+01 3.002603e+02 -1.223572e+03
5.627976e+01 2.158788e+02 -1.190623e+03
5.283436e+01 3.003079e+02 -1.223476e+03
5.727541e+01 2.159435e+02 -1.190556e+03
6.071993e+01 1.315063e+02 -1.157686e+03
6.171599e+01 1.315701e+02 -1.157624e+03
5.023386e+01 6.030038e+02 -1.270974e+03
5.037301e+01 6.561895e+02 -1.279402e+03
5.122032e+01 6.030282e+02 -1.270812e+03
5.136362e+01 6.561105e+02 -1.279290e+03
6.072059e+01 6.034943e+02 -1.335250e+03
6.171533e+01 6.035085e+02 -1.335149e+03
6.071891e+01 6.554974e+02 -1.341810e+03
6.171701e+01 6.554762e+02 -1.341752e+03
6.088492e+01 7.373201e+02 -1.208597e+03
5.038429e+01 6.970069e+02 -1.212780e+03
5.555138e+01 7.030704e+02 -1.280678e+03
6.087304e+01 7.501670e+02 -1.281933e+03
6.155100e+01 7.365797e+02 -1.208687e+03
5.135234e+01 6.967562e+02 -1.212773e+03
5.653490e+01 7.028901e+02 -1.280664e+03
6.156288e+01 7.494539e+02 -1.282059e+03
6.071874e+01 7.091062e+02 -1.348571e+03
6.171718e+01 7.090516e+02 -1.348560e+03
6.079766e+01 7.629310e+02 -1.355274e+03
6.163826e+01 7.624110e+02 -1.355426e+03
6.091111e+01 7.287851e+02 -1.081718e+03
6.092173e+01 7.253633e+02 -1.022615e+03
4.379586e+01 6.885443e+02 -1.031426e+03
4.537048e+01 6.947567e+02 -1.088928e+03
6.152481e+01 7.279971e+02 -1.081768e+03
6.151419e+01 7.245591e+02 -1.022662e+03
4.470632e+01 6.881313e+02 -1.031448e+03
4.629937e+01 6.943864e+02 -1.088937e+03
2.679833e+01 6.518321e+02 -1.040243e+03
2.777011e+01 6.515967e+02 -1.040228e+03
1.632134e+01 5.342230e+02 -9.698857e+02
1.588677e+01 5.626248e+02 -9.189759e+02
1.514753e+01 5.185877e+02 -9.193153e+02
1.763539e+01 4.984821e+02 -9.777123e+02
1.732054e+01 5.342210e+02 -9.698457e+02
1.688620e+01 5.625994e+02 -9.189532e+02
1.614726e+01 5.185965e+02 -9.192940e+02
1.863379e+01 4.985078e+02 -9.776617e+02
1.440872e+01 4.745689e+02 -9.196649e+02
1.540788e+01 4.745752e+02 -9.196245e+02
6.089376e+01 7.330503e+02 -1.145167e+03
4.787320e+01 6.958718e+02 -1.150858e+03
6.154216e+01 7.322907e+02 -1.145218e+03
4.883004e+01 6.955813e+02 -1.150851e+03
1.564608e+01 5.041024e+02 -5.794693e+02
2.201357e+01 5.462469e+02 -5.643009e+02
1.663687e+01 5.039831e+02 -5.795335e+02
2.297838e+01 5.460017e+02 -5.643959e+02
1.502582e+01 5.260210e+02 -6.250110e+02
1.601536e+01 5.258796e+02 -6.250391e+02
2.123403e+01 5.147176e+02 -1.020746e+03
2.222958e+01 5.147365e+02 -1.020653e+03
2.483165e+01 5.309502e+02 -1.063762e+03
2.582638e+01 5.309681e+02 -1.063662e+03
2.144150e+01 5.663727e+02 -1.037510e+03
1.888173e+01 5.503030e+02 -1.003703e+03
2.243856e+01 5.663529e+02 -1.037436e+03
1.987924e+01 5.502818e+02 -1.003636e+03
3.383961e+01 5.218889e+02 -1.143166e+03
2.919381e+01 5.516422e+02 -1.107706e+03
3.483216e+01 5.219145e+02 -1.143046e+03
3.018752e+01 5.516602e+02 -1.107596e+03
2.454719e+01 5.814084e+02 -1.072237e+03
2.554371e+01 5.813931e+02 -1.072156e+03
4.634630e+01 3.131495e+02 -1.181096e+03
4.909389e+01 3.066996e+02 -1.202338e+03
4.586625e+01 3.634503e+02 -1.192546e+03
4.209907e+01 3.617207e+02 -1.162219e+03
4.733890e+01 3.132067e+02 -1.180988e+03
5.008592e+01 3.067626e+02 -1.202228e+03
4.685821e+01 3.634880e+02 -1.192425e+03
4.309171e+01 3.617634e+02 -1.162106e+03
4.963312e+01 3.651814e+02 -1.222870e+03
5.062502e+01 3.652110e+02 -1.222747e+03
4.263891e+01 4.201897e+02 -1.182752e+03
4.363020e+01 4.202246e+02 -1.182624e+03
6.091158e+01 6.164113e+02 -4.734639e+02
6.090774e+01 5.933117e+02 -4.157038e+02
4.264650e+01 5.485233e+02 -4.378465e+02
4.180017e+01 5.717511e+02 -4.923036e+02
6.152434e+01 6.156677e+02 -4.737315e+02
6.152818e+01 5.925835e+02 -4.159949e+02
4.358176e+01 5.481988e+02 -4.379878e+02
4.272824e+01 5.714036e+02 -4.924374e+02
1.324429e+01 5.200796e+02 -6.761117e+02
1.423544e+01 5.199469e+02 -6.761077e+02
1.920880e+01 5.835966e+02 -9.649596e+02
2.020597e+01 5.835353e+02 -9.649162e+02
2.252969e+01 6.045487e+02 -1.010935e+03
2.352689e+01 6.044909e+02 -1.010888e+03
3.836975e+01 3.026252e+02 -3.009985e+02
4.058001e+01 2.616358e+02 -3.030054e+02
3.935869e+01 3.026879e+02 -3.011329e+02
4.156468e+01 2.617563e+02 -3.031315e+02
4.382771e+01 3.021423e+02 -2.620720e+02
4.481289e+01 3.022101e+02 -2.622295e+02
4.463146e+01 2.687756e+02 -2.690213e+02
4.561586e+01 2.688766e+02 -2.691655e+02
6.091463e+01 6.360207e+02 -5.345112e+02
4.139585e+01 5.910664e+02 -5.494286e+02
6.152129e+01 6.352638e+02 -5.347542e+02
4.231808e+01 5.907002e+02 -5.495525e+02
5.121931e+01 2.523685e+02 -1.179357e+03
5.220841e+01 2.524606e+02 -1.179242e+03
4.615444e+01 2.888836e+02 -1.168065e+03
4.714584e+01 2.889522e+02 -1.167954e+03
4.596262e+01 2.646216e+02 -1.155037e+03
5.334432e+01 1.980493e+02 -1.156380e+03
4.695274e+01 2.646938e+02 -1.154917e+03
5.433132e+01 1.981466e+02 -1.156252e+03
6.071990e+01 3.577807e+02 -1.304135e+03
5.517763e+01 3.614812e+02 -1.263513e+03
6.171602e+01 3.577917e+02 -1.304048e+03
5.616940e+01 3.615012e+02 -1.263387e+03
6.086561e+01 2.123273e+02 -2.128515e+02
6.088253e+01 1.866644e+02 -2.601543e+02
5.065695e+01 2.242509e+02 -2.816437e+02
5.268027e+01 2.406350e+02 -2.410283e+02
6.157031e+01 2.128161e+02 -2.133659e+02
6.155339e+01 1.873165e+02 -2.605075e+02
5.163335e+01 2.244356e+02 -2.817557e+02
5.366135e+01 2.407628e+02 -2.411738e+02
4.079989e+01 3.426658e+02 -1.142907e+03
4.179297e+01 3.427124e+02 -1.142799e+03
3.950104e+01 3.236122e+02 -1.123598e+03
4.049391e+01 3.236600e+02 -1.123489e+03
6.086810e+01 2.599318e+02 -1.902737e+02
5.227882e+01 2.810906e+02 -2.262842e+02
6.156782e+01 2.602376e+02 -1.909193e+02
5.325944e+01 2.811703e+02 -2.264631e+02
5.019313e+01 4.412319e+02 -2.444029e+02
6.087801e+01 4.614067e+02 -2.074380e+02
5.116414e+01 4.410885e+02 -2.445941e+02
6.155791e+01 4.609528e+02 -2.080140e+02
2.566613e+01 6.165825e+02 -1.056242e+03
2.666354e+01 6.165327e+02 -1.056190e+03
3.823957e+01 4.710372e+02 -1.162961e+03
3.923087e+01 4.710717e+02 -1.162833e+03
6.074587e+01 7.074859e+02 -1.414944e+03
6.071799e+01 7.622931e+02 -1.423818e+03
6.174586e+01 7.074861e+02 -1.414944e+03
6.171793e+01 7.622868e+02 -1.423827e+03
6.077390e+01 6.526704e+02 -1.406065e+03
6.177364e+01 6.526937e+02 -1.406065e+03
6.083070e+01 6.498438e+02 -1.470348e+03
6.077377e+01 7.058927e+02 -1.481322e+03
6.182846e+01 6.499108e+02 -1.470350e+03
6.177377e+01 7.058935e+02 -1.481322e+03
6.071817e+01 7.618947e+02 -1.492293e+03
6.171775e+01 7.619231e+02 -1.492297e+03
6.585694e+01 5.979497e+02 -1.398752e+03
6.685494e+01 5.980007e+02 -1.398715e+03
7.094180e+01 5.432554e+02 -1.391461e+03
7.193441e+01 5.432813e+02 -1.391343e+03
8.116053e+01 5.350001e+02 -1.454229e+03
7.099873e+01 5.923807e+02 -1.462279e+03
8.215597e+01 5.350413e+02 -1.454143e+03
7.198910e+01 5.925173e+02 -1.462256e+03
6.790312e+01 4.813873e+02 -1.383808e+03
6.889353e+01 4.813803e+02 -1.383670e+03
6.486062e+01 4.195037e+02 -1.376122e+03
6.585646e+01 4.194949e+02 -1.376031e+03
6.900067e+01 4.105630e+02 -1.439143e+03
7.508215e+01 4.728088e+02 -1.446700e+03
6.999757e+01 4.105098e+02 -1.439085e+03
7.607522e+01 4.727483e+02 -1.446600e+03
6.272589e+01 3.505542e+02 -1.368209e+03
6.372462e+01 3.505447e+02 -1.368159e+03
6.059204e+01 2.816024e+02 -1.360299e+03
6.159190e+01 2.815968e+02 -1.360284e+03
6.046612e+01 2.761000e+02 -1.425443e+03
6.473322e+01 3.433347e+02 -1.432290e+03
6.146584e+01 2.760780e+02 -1.425435e+03
6.573188e+01 3.432907e+02 -1.432263e+03
6.065497e+01 2.088255e+02 -1.352868e+03
6.165496e+01 2.088258e+02 -1.352869e+03
6.071796e+01 1.360515e+02 -1.345445e+03
6.171796e+01 1.360518e+02 -1.345445e+03
6.071796e+01 1.359792e+02 -1.414861e+03
6.059197e+01 2.060338e+02 -1.420149e+03
6.171796e+01 1.359804e+02 -1.414861e+03
6.159197e+01 2.060350e+02 -1.420151e+03
6.080238e+01 7.046772e+02 -1.540254e+03
6.071883e+01 7.615618e+02 -1.549365e+03
6.180237e+01 7.046784e+02 -1.540254e+03
6.171709e+01 7.616209e+02 -1.549365e+03
6.088911e+01 6.477162e+02 -1.531142e+03
6.188447e+01 6.478123e+02 -1.531144e+03
6.094719e+01 6.455948e+02 -1.591936e+03
6.083098e+01 7.034616e+02 -1.599186e+03
6.194081e+01 6.457076e+02 -1.591938e+03
6.183098e+01 7.034634e+02 -1.599186e+03
6.071946e+01 7.612351e+02 -1.606435e+03
6.171646e+01 7.613125e+02 -1.606435e+03
7.329053e+01 5.891748e+02 -1.523710e+03
7.427184e+01 5.893670e+02 -1.523700e+03
8.567680e+01 5.307551e+02 -1.516294e+03
8.667437e+01 5.308000e+02 -1.516240e+03
9.019358e+01 5.265142e+02 -1.578364e+03
7.558110e+01 5.859811e+02 -1.585144e+03
9.119226e+01 5.265546e+02 -1.578332e+03
7.655582e+01 5.862045e+02 -1.585141e+03
7.730480e+01 4.684139e+02 -1.509230e+03
7.829708e+01 4.683061e+02 -1.509169e+03
6.892833e+01 4.059858e+02 -1.502143e+03
6.992427e+01 4.058990e+02 -1.502120e+03
6.885636e+01 4.014016e+02 -1.565155e+03
7.952894e+01 4.640146e+02 -1.571767e+03
6.985060e+01 4.012952e+02 -1.565143e+03
8.051746e+01 4.638682e+02 -1.571730e+03
6.463726e+01 3.395856e+02 -1.495994e+03
6.563523e+01 3.395219e+02 -1.495991e+03
6.034643e+01 2.731805e+02 -1.489854e+03
6.134595e+01 2.731497e+02 -1.489854e+03
6.022664e+01 2.702567e+02 -1.554269e+03
6.454100e+01 3.358274e+02 -1.559709e+03
6.122616e+01 2.702257e+02 -1.554269e+03
6.553888e+01 3.357622e+02 -1.559709e+03
6.053208e+01 2.045373e+02 -1.485301e+03
6.153207e+01 2.045394e+02 -1.485302e+03
6.071796e+01 1.359105e+02 -1.480749e+03
6.171796e+01 1.359127e+02 -1.480750e+03
6.071796e+01 1.358418e+02 -1.546638e+03
6.047218e+01 2.030407e+02 -1.550453e+03
6.171796e+01 1.358450e+02 -1.546638e+03
6.147218e+01 2.030439e+02 -1.550454e+03
6.084799e+01 7.026139e+02 -1.656109e+03
6.072017e+01 7.609230e+02 -1.661043e+03
6.184799e+01 7.026160e+02 -1.656109e+03
6.171575e+01 7.610169e+02 -1.661043e+03
6.098176e+01 6.441989e+02 -1.651174e+03
6.197427e+01 6.443211e+02 -1.651177e+03
6.101595e+01 6.428063e+02 -1.710413e+03
6.086500e+01 7.017663e+02 -1.713033e+03
6.200811e+01 6.429313e+02 -1.710415e+03
6.186499e+01 7.017686e+02 -1.713032e+03
6.072089e+01 7.606120e+02 -1.715651e+03
6.171503e+01 7.607202e+02 -1.715651e+03
7.600674e+01 5.843312e+02 -1.645691e+03
7.697732e+01 5.845719e+02 -1.645693e+03
9.100639e+01 5.246252e+02 -1.640214e+03
9.200570e+01 5.246610e+02 -1.640204e+03
9.181946e+01 5.227351e+02 -1.702074e+03
7.643094e+01 5.826874e+02 -1.706241e+03
9.281888e+01 5.227685e+02 -1.702066e+03
7.740026e+01 5.829332e+02 -1.706243e+03
7.968128e+01 4.619073e+02 -1.634081e+03
8.066639e+01 4.617358e+02 -1.634067e+03
6.834515e+01 3.990592e+02 -1.627940e+03
6.933810e+01 3.989407e+02 -1.627938e+03
6.783349e+01 3.967123e+02 -1.690730e+03
7.983278e+01 4.597922e+02 -1.696405e+03
6.882605e+01 3.965907e+02 -1.690728e+03
8.081616e+01 4.596111e+02 -1.696394e+03
6.425703e+01 3.338739e+02 -1.622959e+03
6.525495e+01 3.338095e+02 -1.622963e+03
6.017058e+01 2.686986e+02 -1.617982e+03
6.117013e+01 2.686683e+02 -1.617983e+03
6.011451e+01 2.671399e+02 -1.681695e+03
6.397298e+01 3.319192e+02 -1.686211e+03
6.111411e+01 2.671115e+02 -1.681697e+03
6.497110e+01 3.318580e+02 -1.686214e+03
6.044416e+01 2.022282e+02 -1.614488e+03
6.144415e+01 2.022320e+02 -1.614489e+03
6.071796e+01 1.357748e+02 -1.610994e+03
6.171796e+01 1.357787e+02 -1.610995e+03
6.071796e+01 1.357079e+02 -1.675351e+03
6.041614e+01 2.014157e+02 -1.678523e+03
6.171796e+01 1.357123e+02 -1.675351e+03
6.141613e+01 2.014201e+02 -1.678524e+03
6.087605e+01 7.011296e+02 -1.771061e+03
6.072136e+01 7.602937e+02 -1.772125e+03
6.187605e+01 7.011322e+02 -1.771060e+03
6.171456e+01 7.604101e+02 -1.772126e+03
6.103818e+01 6.418465e+02 -1.769995e+03
6.203010e+01 6.419734e+02 -1.769996e+03
6.106035e+01 6.408872e+02 -1.829576e+03
6.088711e+01 7.004930e+02 -1.829089e+03
6.205215e+01 6.410150e+02 -1.829578e+03
6.188710e+01 7.004958e+02 -1.829088e+03
6.072159e+01 7.599776e+02 -1.828600e+03
6.171433e+01 7.600978e+02 -1.828600e+03
7.666711e+01 5.813286e+02 -1.766600e+03
7.763558e+01 5.815778e+02 -1.766602e+03
9.226880e+01 5.209810e+02 -1.763209e+03
9.326830e+01 5.210119e+02 -1.763204e+03
9.271813e+01 5.192269e+02 -1.824345e+03
7.690307e+01 5.799707e+02 -1.826959e+03
9.371773e+01 5.192553e+02 -1.824341e+03
7.787111e+01 5.802215e+02 -1.826961e+03
7.989426e+01 4.581760e+02 -1.758214e+03
8.087614e+01 4.579867e+02 -1.758205e+03
6.750573e+01 3.952284e+02 -1.753214e+03
6.849797e+01 3.951041e+02 -1.753212e+03
6.717795e+01 3.937443e+02 -1.815697e+03
7.995562e+01 4.565589e+02 -1.820023e+03
6.816991e+01 3.936177e+02 -1.815697e+03
8.093624e+01 4.563632e+02 -1.820017e+03
6.379296e+01 3.307121e+02 -1.749114e+03
6.479124e+01 3.306535e+02 -1.749117e+03
6.008254e+01 2.662128e+02 -1.745017e+03
6.108217e+01 2.661858e+02 -1.745019e+03
6.005057e+01 2.652858e+02 -1.808340e+03
6.361297e+01 3.295052e+02 -1.812017e+03
6.105023e+01 2.652600e+02 -1.808340e+03
6.461136e+01 3.294487e+02 -1.812020e+03
6.040016e+01 2.009193e+02 -1.742070e+03
6.140015e+01 2.009241e+02 -1.742070e+03
6.071797e+01 1.356417e+02 -1.739122e+03
6.171795e+01 1.356465e+02 -1.739122e+03
6.071797e+01 1.355756e+02 -1.802893e+03
6.038419e+01 2.004230e+02 -1.805616e+03
6.171795e+01 1.355806e+02 -1.802893e+03
6.138417e+01 2.004280e+02 -1.805617e+03
6.089685e+01 6.999123e+02 -1.888801e+03
6.072162e+01 7.596492e+02 -1.887569e+03
6.189684e+01 6.999152e+02 -1.888801e+03
6.171430e+01 7.597699e+02 -1.887570e+03
6.107988e+01 6.400536e+02 -1.890032e+03
6.207158e+01 6.401822e+02 -1.890033e+03
6.109940e+01 6.392201e+02 -1.950487e+03
6.090659e+01 6.993315e+02 -1.948514e+03
6.209102e+01 6.393493e+02 -1.950489e+03
6.190658e+01 6.993346e+02 -1.948513e+03
6.072148e+01 7.593222e+02 -1.946539e+03
6.171444e+01 7.594406e+02 -1.946539e+03
7.696637e+01 5.792463e+02 -1.888438e+03
7.793404e+01 5.794985e+02 -1.888441e+03
9.282486e+01 5.186135e+02 -1.886847e+03
9.382450e+01 5.186403e+02 -1.886846e+03
9.293161e+01 5.179994e+02 -1.949351e+03
7.702963e+01 5.785220e+02 -1.949918e+03
9.393125e+01 5.180260e+02 -1.949349e+03
7.799701e+01 5.787754e+02 -1.949920e+03
7.992785e+01 4.558235e+02 -1.882682e+03
8.090765e+01 4.556235e+02 -1.882679e+03
6.701492e+01 3.928840e+02 -1.878515e+03
6.800672e+01 3.927561e+02 -1.878514e+03
6.685183e+01 3.920232e+02 -1.941332e+03
7.989984e+01 4.550867e+02 -1.945343e+03
6.784359e+01 3.918950e+02 -1.941332e+03
8.087930e+01 4.548851e+02 -1.945339e+03
6.352180e+01 3.287846e+02 -1.875072e+03
6.452028e+01 3.287296e+02 -1.875074e+03
6.003141e+01 2.647066e+02 -1.871631e+03
6.103111e+01 2.646817e+02 -1.871632e+03
6.001227e+01 2.641275e+02 -1.934923e+03
6.343064e+01 3.280642e+02 -1.938127e+03
6.101197e+01 2.641033e+02 -1.934923e+03
6.442919e+01 3.280103e+02 -1.938128e+03
6.037462e+01 2.001006e+02 -1.869073e+03
6.137460e+01 2.001058e+02 -1.869073e+03
6.071797e+01 1.355096e+02 -1.866515e+03
6.171795e+01 1.355148e+02 -1.866515e+03
6.071797e+01 1.354436e+02 -1.930137e+03
6.036505e+01 1.997782e+02 -1.932530e+03
6.171795e+01 1.354490e+02 -1.930137e+03
6.136503e+01 1.997835e+02 -1.932530e+03
6.091131e+01 6.988891e+02 -2.010336e+03
6.072143e+01 7.589814e+02 -2.007871e+03
6.191131e+01 6.988923e+02 -2.010335e+03
6.171449e+01 7.590989e+02 -2.007871e+03
6.110889e+01 6.386764e+02 -2.012799e+03
6.210043e+01 6.388062e+02 -2.012801e+03
6.111836e+01 6.381329e+02 -2.075111e+03
6.091604e+01 6.984468e+02 -2.072158e+03
6.210986e+01 6.382629e+02 -2.075113e+03
6.191603e+01 6.984500e+02 -2.072157e+03
6.072144e+01 7.586400e+02 -2.069203e+03
6.171448e+01 7.587578e+02 -2.069203e+03
7.710939e+01 5.778595e+02 -2.012354e+03
7.807654e+01 5.781137e+02 -2.012356e+03
9.308144e+01 5.172189e+02 -2.011910e+03
9.408109e+01 5.172450e+02 -2.011909e+03
9.323126e+01 5.164385e+02 -2.074470e+03
7.718911e+01 5.771972e+02 -2.074790e+03
9.423094e+01 5.164639e+02 -2.074468e+03
7.815610e+01 5.774519e+02 -2.074791e+03
7.991529e+01 4.543510e+02 -2.008101e+03
8.089436e+01 4.541475e+02 -2.008097e+03
6.673255e+01 3.913309e+02 -2.004288e+03
6.772423e+01 3.912023e+02 -2.004288e+03
6.661327e+01 3.906388e+02 -2.067244e+03
7.993077e+01 4.536154e+02 -2.070859e+03
6.760487e+01 3.905094e+02 -2.067244e+03
8.090940e+01 4.534099e+02 -2.070854e+03
6.336417e+01 3.274999e+02 -2.001245e+03
6.436276e+01 3.274468e+02 -2.001246e+03
5.999869e+01 2.636919e+02 -1.998202e+03
6.099840e+01 2.636682e+02 -1.998203e+03
5.998511e+01 2.632564e+02 -2.061482e+03
6.329771e+01 3.269356e+02 -2.064363e+03
6.098483e+01 2.632330e+02 -2.061482e+03
6.429633e+01 3.268832e+02 -2.064363e+03
6.035826e+01 1.995275e+02 -1.995946e+03
6.135824e+01 1.995330e+02 -1.995947e+03
6.071797e+01 1.353777e+02 -1.993690e+03
6.171795e+01 1.353833e+02 -1.993691e+03
6.071797e+01 1.353119e+02 -2.057244e+03
6.035147e+01 1.992769e+02 -2.059363e+03
6.171795e+01 1.353175e+02 -2.057244e+03
6.135146e+01 1.992825e+02 -2.059363e+03
6.092190e+01 6.979631e+02 -2.137091e+03
6.072130e+01 7.582743e+02 -2.135134e+03
6.192189e+01 6.979664e+02 -2.137091e+03
6.171462e+01 7.583897e+02 -2.135134e+03
6.113009e+01 6.375323e+02 -2.139048e+03
6.212156e+01 6.376628e+02 -2.139049e+03
6.114183e+01 6.369318e+02 -2.202985e+03
6.092775e+01 6.974794e+02 -2.202025e+03
6.213325e+01 6.370626e+02 -2.202985e+03
6.192775e+01 6.974829e+02 -2.202025e+03
6.072102e+01 7.579098e+02 -2.201065e+03
6.171490e+01 7.580204e+02 -2.201065e+03
7.730343e+01 5.763686e+02 -2.138004e+03
7.827028e+01 5.766239e+02 -2.138006e+03
9.344803e+01 5.153828e+02 -2.136963e+03
9.444774e+01 5.154071e+02 -2.136961e+03
9.366480e+01 5.143272e+02 -2.199456e+03
7.741776e+01 5.755400e+02 -2.201219e+03
9.466454e+01 5.143502e+02 -2.199454e+03
7.838445e+01 5.757959e+02 -2.201221e+03
7.998065e+01 4.527397e+02 -2.133557e+03
8.095873e+01 4.525315e+02 -2.133552e+03
6.649576e+01 3.899414e+02 -2.130148e+03
6.748722e+01 3.898110e+02 -2.130146e+03
6.637826e+01 3.892441e+02 -2.193050e+03
8.003058e+01 4.518641e+02 -2.196255e+03
6.736956e+01 3.891125e+02 -2.193050e+03
8.100800e+01 4.516529e+02 -2.196250e+03
6.323282e+01 3.263886e+02 -2.127389e+03
6.423149e+01 3.263370e+02 -2.127389e+03
5.997295e+01 2.628608e+02 -2.124631e+03
6.097268e+01 2.628379e+02 -2.124631e+03
5.996079e+01 2.624653e+02 -2.187780e+03
6.316793e+01 3.258416e+02 -2.190415e+03
6.096053e+01 2.624427e+02 -2.187780e+03
6.416664e+01 3.257907e+02 -2.190415e+03
6.034540e+01 1.990463e+02 -2.122629e+03
6.134538e+01 1.990521e+02 -2.122629e+03
6.071797e+01 1.352462e+02 -2.120627e+03
6.171795e+01 1.352520e+02 -2.120627e+03
6.071797e+01 1.351806e+02 -2.184010e+03
6.033932e+01 1.988158e+02 -2.185895e+03
6.171795e+01 1.351864e+02 -2.184010e+03
6.133930e+01 1.988217e+02 -2.185895e+03
6.092856e+01 6.971111e+02 -2.269965e+03
6.072048e+01 7.575238e+02 -2.271364e+03
6.192855e+01 6.971146e+02 -2.269966e+03
6.171544e+01 7.576241e+02 -2.271364e+03
6.114346e+01 6.365863e+02 -2.268567e+03
6.213484e+01 6.367172e+02 -2.268567e+03
6.114507e+01 6.362408e+02 -2.334149e+03
6.092936e+01 6.967428e+02 -2.337906e+03
6.213645e+01 6.363718e+02 -2.334149e+03
6.192936e+01 6.967463e+02 -2.337906e+03
6.071977e+01 7.571403e+02 -2.341664e+03
6.171615e+01 7.572253e+02 -2.341662e+03
7.747641e+01 5.750208e+02 -2.265634e+03
7.844299e+01 5.752772e+02 -2.265635e+03
9.378037e+01 5.136352e+02 -2.262703e+03
9.478012e+01 5.136572e+02 -2.262701e+03
9.389593e+01 5.129431e+02 -2.325949e+03
7.753502e+01 5.745018e+02 -2.330048e+03
9.489571e+01 5.129643e+02 -2.325949e+03
7.850156e+01 5.747582e+02 -2.330050e+03
8.004190e+01 4.512187e+02 -2.259307e+03
8.101879e+01 4.510050e+02 -2.259304e+03
6.628485e+01 3.886437e+02 -2.255909e+03
6.727603e+01 3.885112e+02 -2.255908e+03
6.619142e+01 3.880431e+02 -2.318767e+03
8.005314e+01 4.505729e+02 -2.322359e+03
6.718252e+01 3.879101e+02 -2.318767e+03
8.102965e+01 4.503574e+02 -2.322357e+03
6.311578e+01 3.253612e+02 -2.253302e+03
6.411452e+01 3.253110e+02 -2.253303e+03
5.994998e+01 2.621058e+02 -2.250696e+03
6.094974e+01 2.620837e+02 -2.250696e+03
5.993918e+01 2.617464e+02 -2.313612e+03
6.306363e+01 3.248809e+02 -2.316189e+03
6.093894e+01 2.617246e+02 -2.313612e+03
6.406240e+01 3.248312e+02 -2.316190e+03
6.033392e+01 1.986035e+02 -2.248894e+03
6.133390e+01 1.986095e+02 -2.248895e+03
6.071797e+01 1.351152e+02 -2.247093e+03
6.171795e+01 1.351212e+02 -2.247093e+03
6.071797e+01 1.350499e+02 -2.310176e+03
6.032852e+01 1.983912e+02 -2.311894e+03
6.171795e+01 1.350559e+02 -2.310176e+03
6.132850e+01 1.983972e+02 -2.311894e+03
6.093332e+01 6.963126e+02 -2.400323e+03
6.071941e+01 7.567982e+02 -2.403943e+03
6.193331e+01 6.963161e+02 -2.400322e+03
6.171651e+01 7.568743e+02 -2.403939e+03
6.115298e+01 6.357269e+02 -2.396704e+03
6.214436e+01 6.358580e+02 -2.396704e+03
6.116089e+01 6.352131e+02 -2.459258e+03
6.093727e+01 6.958824e+02 -2.462739e+03
6.215227e+01 6.353441e+02 -2.459260e+03
6.193727e+01 6.958859e+02 -2.462739e+03
6.071930e+01 7.564532e+02 -2.466220e+03
6.171662e+01 7.565262e+02 -2.466218e+03
7.755322e+01 5.739244e+02 -2.392469e+03
7.851977e+01 5.741809e+02 -2.392472e+03
9.392442e+01 5.123027e+02 -2.388237e+03
9.492421e+01 5.123231e+02 -2.388237e+03
9.395291e+01 5.116623e+02 -2.450523e+03
7.757139e+01 5.733472e+02 -2.454890e+03
9.495271e+01 5.116819e+02 -2.450527e+03
7.853800e+01 5.736035e+02 -2.454894e+03
8.002060e+01 4.499733e+02 -2.384670e+03
8.099680e+01 4.497564e+02 -2.384667e+03
6.609757e+01 3.874836e+02 -2.381100e+03
6.708861e+01 3.873500e+02 -2.381100e+03
6.600371e+01 3.869239e+02 -2.443432e+03
7.998806e+01 4.493736e+02 -2.446978e+03
6.699471e+01 3.867901e+02 -2.443434e+03
8.096396e+01 4.491555e+02 -2.446980e+03
6.301249e+01 3.244319e+02 -2.378610e+03
6.401129e+01 3.243827e+02 -2.378611e+03
5.993081e+01 2.614085e+02 -2.376121e+03
6.093057e+01 2.613870e+02 -2.376121e+03
5.992243e+01 2.610706e+02 -2.438630e+03
6.296136e+01 3.239828e+02 -2.441031e+03
6.092221e+01 2.610494e+02 -2.438630e+03
6.396017e+01 3.239342e+02 -2.441032e+03
6.032433e+01 1.981898e+02 -2.374493e+03
6.132432e+01 1.981960e+02 -2.374493e+03
6.071797e+01 1.349849e+02 -2.372865e+03
6.171795e+01 1.349911e+02 -2.372865e+03
6.071797e+01 1.349200e+02 -2.435554e+03
6.032015e+01 1.979884e+02 -2.437092e+03
6.171795e+01 1.349262e+02 -2.435554e+03
6.132013e+01 1.979947e+02 -2.437092e+03
6.094120e+01 6.953154e+02 -2.524054e+03
6.071923e+01 7.561094e+02 -2.528191e+03
6.194119e+01 6.953191e+02 -2.524054e+03
6.171669e+01 7.561804e+02 -2.528191e+03
6.116865e+01 6.344248e+02 -2.519916e+03
6.216021e+01 6.345544e+02 -2.519917e+03
6.117631e+01 6.336372e+02 -2.580573e+03
6.094512e+01 6.947485e+02 -2.585368e+03
6.216825e+01 6.337640e+02 -2.580575e+03
6.194512e+01 6.947522e+02 -2.585369e+03
6.071920e+01 7.557650e+02 -2.590164e+03
6.171672e+01 7.558352e+02 -2.590162e+03
7.718291e+01 5.726118e+02 -2.515811e+03
7.815029e+01 5.728651e+02 -2.515817e+03
9.316888e+01 5.109781e+02 -2.511706e+03
9.416866e+01 5.109966e+02 -2.511716e+03
9.238492e+01 5.102940e+02 -2.572886e+03
7.679408e+01 5.718779e+02 -2.576731e+03
9.338454e+01 5.103112e+02 -2.572908e+03
7.776293e+01 5.721253e+02 -2.576740e+03
7.948954e+01 4.487565e+02 -2.508402e+03
8.046569e+01 4.485395e+02 -2.508410e+03
6.579088e+01 3.863750e+02 -2.505099e+03
6.678203e+01 3.862423e+02 -2.505103e+03
6.557797e+01 3.858253e+02 -2.566764e+03
7.899084e+01 4.481382e+02 -2.569823e+03
6.656943e+01 3.856953e+02 -2.566774e+03
7.996759e+01 4.479247e+02 -2.569843e+03
6.286087e+01 3.235466e+02 -2.502882e+03
6.385973e+01 3.234992e+02 -2.502885e+03
5.993425e+01 2.607474e+02 -2.500666e+03
6.093404e+01 2.607269e+02 -2.500666e+03
5.994607e+01 2.604242e+02 -2.562702e+03
6.276036e+01 3.231102e+02 -2.564734e+03
6.094587e+01 2.604044e+02 -2.562702e+03
6.375931e+01 3.230644e+02 -2.564737e+03
6.032606e+01 1.977947e+02 -2.499252e+03
6.132604e+01 1.978010e+02 -2.499252e+03
6.071797e+01 1.348555e+02 -2.497838e+03
6.171795e+01 1.348617e+02 -2.497837e+03
6.071797e+01 1.347910e+02 -2.560121e+03
6.033197e+01 1.976011e+02 -2.561412e+03
6.171795e+01 1.347972e+02 -2.560121e+03
6.133196e+01 1.976073e+02 -2.561411e+03
6.093026e+01 6.942979e+02 -2.643694e+03
6.071915e+01 7.554458e+02 -2.647636e+03
6.193026e+01 6.943014e+02 -2.643694e+03
6.171677e+01 7.555148e+02 -2.647634e+03
6.114618e+01 6.330589e+02 -2.639753e+03
6.213894e+01 6.331791e+02 -2.639754e+03
6.111587e+01 6.324825e+02 -2.698932e+03
6.091540e+01 6.938473e+02 -2.702020e+03
6.210981e+01 6.325923e+02 -2.698934e+03
6.191540e+01 6.938506e+02 -2.702020e+03
6.071910e+01 7.551268e+02 -2.705109e+03
6.171682e+01 7.551942e+02 -2.705105e+03
7.542934e+01 5.712894e+02 -2.636459e+03
7.640135e+01 5.715239e+02 -2.636473e+03
8.968848e+01 5.096867e+02 -2.633162e+03
9.068778e+01 5.097020e+02 -2.633196e+03
8.699219e+01 5.090794e+02 -2.693436e+03
7.406390e+01 5.707046e+02 -2.696188e+03
8.799087e+01 5.090928e+02 -2.693486e+03
7.504047e+01 5.709189e+02 -2.696206e+03
7.740498e+01 4.475811e+02 -2.630500e+03
7.838351e+01 4.473776e+02 -2.630533e+03
6.510425e+01 3.853261e+02 -2.627847e+03
6.609648e+01 3.852027e+02 -2.627862e+03
6.463037e+01 3.848250e+02 -2.688929e+03
7.581872e+01 4.470208e+02 -2.691176e+03
6.562369e+01 3.847120e+02 -2.688951e+03
7.679984e+01 4.468338e+02 -2.691225e+03
6.255393e+01 3.227148e+02 -2.626078e+03
6.355299e+01 3.226719e+02 -2.626084e+03
6.000665e+01 2.601315e+02 -2.624307e+03
6.100647e+01 2.601130e+02 -2.624308e+03
6.006722e+01 2.598385e+02 -2.685912e+03
6.234748e+01 3.223187e+02 -2.687423e+03
6.106708e+01 2.598219e+02 -2.685914e+03
6.334670e+01 3.222800e+02 -2.687430e+03
6.036227e+01 1.974232e+02 -2.623174e+03
6.136225e+01 1.974291e+02 -2.623174e+03
6.071797e+01 1.347270e+02 -2.622041e+03
6.171795e+01 1.347330e+02 -2.622040e+03
6.071797e+01 1.346632e+02 -2.683960e+03
6.039256e+01 1.972453e+02 -2.684937e+03
6.171795e+01 1.346686e+02 -2.683960e+03
6.139255e+01 1.972508e+02 -2.684936e+03
6.087863e+01 6.934526e+02 -2.759633e+03
6.071897e+01 7.548134e+02 -2.761823e+03
6.187863e+01 6.934555e+02 -2.759633e+03
6.171695e+01 7.548765e+02 -2.761815e+03
6.104155e+01 6.320159e+02 -2.757446e+03
6.203706e+01 6.321105e+02 -2.757448e+03
6.096715e+01 6.315518e+02 -2.815960e+03
6.084187e+01 6.930580e+02 -2.817246e+03
6.196439e+01 6.316262e+02 -2.815962e+03
6.184186e+01 6.930604e+02 -2.817246e+03
6.071879e+01 7.545015e+02 -2.818538e+03
6.171713e+01 7.545573e+02 -2.818524e+03
7.144337e+01 5.702335e+02 -2.755340e+03
7.242588e+01 5.704182e+02 -2.755363e+03
8.183104e+01 5.085831e+02 -2.753223e+03
8.282886e+01 5.085939e+02 -2.753289e+03
7.666951e+01 5.080867e+02 -2.813018e+03
6.882253e+01 5.697673e+02 -2.814494e+03
7.766723e+01 5.080951e+02 -2.813084e+03
6.981161e+01 5.699126e+02 -2.814518e+03
7.283866e+01 4.465570e+02 -2.751420e+03
7.382327e+01 4.463950e+02 -2.751486e+03
6.383459e+01 3.844123e+02 -2.749635e+03
6.482937e+01 3.843147e+02 -2.749666e+03
6.303864e+01 3.839968e+02 -2.810345e+03
6.985791e+01 4.460885e+02 -2.811672e+03
6.403522e+01 3.839202e+02 -2.810377e+03
7.084739e+01 4.459609e+02 -2.811740e+03
6.201288e+01 3.219927e+02 -2.748418e+03
6.301230e+01 3.219597e+02 -2.748427e+03
6.019325e+01 2.595960e+02 -2.747194e+03
6.119315e+01 2.595818e+02 -2.747195e+03
6.031928e+01 2.593531e+02 -2.808475e+03
6.167828e+01 3.216659e+02 -2.809414e+03
6.131922e+01 2.593421e+02 -2.808477e+03
6.267790e+01 3.216402e+02 -2.809423e+03
6.045559e+01 1.970931e+02 -2.746390e+03
6.145557e+01 1.970979e+02 -2.746389e+03
6.071797e+01 1.345997e+02 -2.745585e+03
6.171795e+01 1.346045e+02 -2.745584e+03
6.071796e+01 1.345364e+02 -2.807210e+03
6.051861e+01 1.969411e+02 -2.807843e+03
6.171796e+01 1.345402e+02 -2.807208e+03
6.151860e+01 1.969448e+02 -2.807842e+03
6.080019e+01 6.927163e+02 -2.874685e+03
6.071855e+01 7.541938e+02 -2.874866e+03
6.180019e+01 6.927180e+02 -2.874685e+03
6.171737e+01 7.542381e+02 -2.874847e+03
6.088313e+01 6.311917e+02 -2.874513e+03
6.188170e+01 6.312450e+02 -2.874514e+03
6.079931e+01 6.308320e+02 -2.933066e+03
6.075851e+01 6.923746e+02 -2.932124e+03
6.179881e+01 6.308634e+02 -2.933066e+03
6.175851e+01 6.923756e+02 -2.932124e+03
6.071839e+01 7.538889e+02 -2.931198e+03
6.171753e+01 7.539161e+02 -2.931166e+03
6.605958e+01 5.694219e+02 -2.873637e+03
6.705382e+01 5.695263e+02 -2.873662e+03
7.123217e+01 5.077269e+02 -2.872751e+03
7.222979e+01 5.077329e+02 -2.872819e+03
6.579423e+01 5.073671e+02 -2.932494e+03
6.329736e+01 5.690774e+02 -2.932784e+03
6.679295e+01 5.073707e+02 -2.932544e+03
6.429529e+01 5.691392e+02 -2.932801e+03
6.673927e+01 4.457468e+02 -2.871815e+03
6.773255e+01 4.456550e+02 -2.871886e+03
6.224185e+01 3.836994e+02 -2.870900e+03
6.323983e+01 3.836445e+02 -2.870932e+03
6.144515e+01 3.834016e+02 -2.931459e+03
6.362058e+01 4.454043e+02 -2.931969e+03
6.244435e+01 3.833692e+02 -2.931483e+03
6.461776e+01 4.453500e+02 -2.932021e+03
6.134814e+01 3.214315e+02 -2.870230e+03
6.234794e+01 3.214134e+02 -2.870240e+03
6.045526e+01 2.591768e+02 -2.869553e+03
6.145522e+01 2.591691e+02 -2.869555e+03
6.059124e+01 2.590006e+02 -2.930631e+03
6.101803e+01 3.211972e+02 -2.931048e+03
6.159122e+01 2.589960e+02 -2.930633e+03
6.201795e+01 3.211865e+02 -2.931055e+03
6.058660e+01 1.968225e+02 -2.869086e+03
6.158660e+01 1.968252e+02 -2.869084e+03
6.071796e+01 1.344734e+02 -2.868617e+03
6.171796e+01 1.344760e+02 -2.868615e+03
6.071796e+01 1.344103e+02 -2.930023e+03
6.065460e+01 1.967039e+02 -2.930328e+03
6.171796e+01 1.344119e+02 -2.930023e+03
6.165459e+01 1.967055e+02 -2.930327e+03
6.073824e+01 6.920934e+02 -2.992359e+03
6.071843e+01 7.535652e+02 -2.991912e+03
6.173823e+01 6.920939e+02 -2.992359e+03
6.171749e+01 7.535642e+02 -2.991869e+03
6.075857e+01 6.306149e+02 -2.992828e+03
6.175845e+01 6.306304e+02 -2.992828e+03
6.071799e+01 6.303925e+02 -3.052590e+03
6.071796e+01 6.918121e+02 -3.052594e+03
6.171793e+01 6.304027e+02 -3.052590e+03
6.171796e+01 6.918124e+02 -3.052595e+03
6.071855e+01 7.532369e+02 -3.052621e+03
6.171737e+01 7.532169e+02 -3.052577e+03
6.200740e+01 5.688968e+02 -2.992684e+03
6.300688e+01 5.689271e+02 -2.992695e+03
6.325603e+01 5.072003e+02 -2.992535e+03
6.425552e+01 5.072022e+02 -2.992566e+03
6.071821e+01 5.070330e+02 -3.052566e+03
6.071809e+01 5.687055e+02 -3.052580e+03
6.171771e+01 5.070342e+02 -3.052598e+03
6.171783e+01 5.687257e+02 -3.052592e+03
6.216901e+01 4.452478e+02 -2.992270e+03
6.316812e+01 4.452213e+02 -2.992303e+03
6.108147e+01 3.832758e+02 -2.992015e+03
6.208124e+01 3.832599e+02 -2.992029e+03
6.071804e+01 3.831556e+02 -3.052565e+03
6.071831e+01 4.451008e+02 -3.052561e+03
6.171788e+01 3.831450e+02 -3.052581e+03
6.171761e+01 4.450831e+02 -3.052594e+03
6.086799e+01 3.210978e+02 -2.991808e+03
6.186796e+01 3.210926e+02 -2.991812e+03
6.065460e+01 2.589236e+02 -2.991598e+03
6.165459e+01 2.589215e+02 -2.991599e+03
6.071796e+01 2.588475e+02 -3.052565e+03
6.071797e+01 3.210003e+02 -3.052567e+03
6.171796e+01 2.588461e+02 -3.052565e+03
6.171795e+01 3.209968e+02 -3.052571e+03
6.068628e+01 1.966347e+02 -2.991444e+03
6.168628e+01 1.966355e+02 -2.991444e+03
6.071796e+01 1.343473e+02 -2.991290e+03
6.171796e+01 1.343481e+02 -2.991289e+03
6.071796e+01 1.342840e+02 -3.052556e+03
6.071796e+01 1.965653e+02 -3.052561e+03
6.171796e+01 1.342846e+02 -3.052556e+03
6.171796e+01 1.965658e+02 -3.052560e+03
1.037387e+02 1.177768e+03 -2.303373e+03
7.378393e+01 1.109909e+03 -2.314219e+03
7.750709e+01 1.113176e+03 -2.380592e+03
1.084200e+02 1.181000e+03 -2.368932e+03
1.043139e+02 1.176950e+03 -2.303381e+03
7.469463e+01 1.109500e+03 -2.314165e+03
7.841689e+01 1.112763e+03 -2.380554e+03
1.089937e+02 1.180180e+03 -2.368932e+03
4.396494e+01 1.042158e+03 -2.325034e+03
4.673112e+01 1.045466e+03 -2.392231e+03
4.493958e+01 1.041942e+03 -2.324980e+03
4.770313e+01 1.045233e+03 -2.392196e+03
4.949740e+01 1.048771e+03 -2.459433e+03
8.123181e+01 1.116446e+03 -2.446967e+03
5.046658e+01 1.048527e+03 -2.459407e+03
8.213758e+01 1.116024e+03 -2.446940e+03
1.131025e+02 1.184232e+03 -2.434491e+03
1.136723e+02 1.183410e+03 -2.434483e+03
4.155229e+01 9.699062e+02 -2.329313e+03
4.315990e+01 9.730466e+02 -2.396632e+03
4.255120e+01 9.698917e+02 -2.329268e+03
4.415851e+01 9.730036e+02 -2.396602e+03
3.915283e+01 8.977100e+02 -2.333587e+03
3.960207e+01 9.006743e+02 -2.401029e+03
4.014963e+01 8.977858e+02 -2.333561e+03
4.060051e+01 9.007272e+02 -2.401011e+03
4.005183e+01 9.036325e+02 -2.468472e+03
4.476764e+01 9.761805e+02 -2.463954e+03
4.105087e+01 9.036747e+02 -2.468460e+03
4.576570e+01 9.761221e+02 -2.463932e+03
4.994148e+01 8.273828e+02 -2.337624e+03
5.016516e+01 8.286945e+02 -2.402485e+03
5.092771e+01 8.275479e+02 -2.337613e+03
5.115409e+01 8.288425e+02 -2.402476e+03
5.038974e+01 8.300006e+02 -2.467346e+03
5.137957e+01 8.301427e+02 -2.467339e+03
8.216980e+01 1.116440e+03 -2.505920e+03
1.138118e+02 1.183500e+03 -2.493674e+03
8.307367e+01 1.116013e+03 -2.505905e+03
1.143797e+02 1.182678e+03 -2.493658e+03
5.066407e+01 1.049491e+03 -2.518167e+03
5.163136e+01 1.049237e+03 -2.518151e+03
5.183027e+01 1.050208e+03 -2.576903e+03
8.310703e+01 1.116432e+03 -2.564878e+03
5.279661e+01 1.049950e+03 -2.576893e+03
8.401051e+01 1.116004e+03 -2.564865e+03
1.145202e+02 1.182768e+03 -2.552861e+03
1.150880e+02 1.181946e+03 -2.552829e+03
4.537385e+01 9.771329e+02 -2.523391e+03
4.637132e+01 9.770631e+02 -2.523377e+03
4.009776e+01 9.048147e+02 -2.528613e+03
4.109715e+01 9.048493e+02 -2.528606e+03
4.014379e+01 9.059955e+02 -2.588756e+03
4.598001e+01 9.780833e+02 -2.582829e+03
4.114333e+01 9.060253e+02 -2.588750e+03
4.697699e+01 9.780061e+02 -2.582822e+03
5.041251e+01 8.304193e+02 -2.528401e+03
5.140291e+01 8.305576e+02 -2.528399e+03
5.043544e+01 8.308370e+02 -2.589460e+03
5.142608e+01 8.309735e+02 -2.589456e+03
8.239997e+01 1.113676e+03 -2.622394e+03
1.133269e+02 1.178564e+03 -2.613000e+03
8.330288e+01 1.113246e+03 -2.622383e+03
1.138945e+02 1.177741e+03 -2.612953e+03
5.160913e+01 1.048898e+03 -2.631803e+03
5.257516e+01 1.048640e+03 -2.631799e+03
5.138777e+01 1.047588e+03 -2.686707e+03
8.169331e+01 1.110920e+03 -2.679915e+03
5.235393e+01 1.047330e+03 -2.686701e+03
8.259484e+01 1.110487e+03 -2.679897e+03
1.121340e+02 1.174359e+03 -2.673140e+03
1.127006e+02 1.173537e+03 -2.673076e+03
4.607915e+01 9.773617e+02 -2.637907e+03
4.707603e+01 9.772828e+02 -2.637907e+03
4.056324e+01 9.058616e+02 -2.644016e+03
4.156284e+01 9.058893e+02 -2.644010e+03
4.098277e+01 9.057267e+02 -2.699281e+03
4.617810e+01 9.766374e+02 -2.692990e+03
4.198227e+01 9.057543e+02 -2.699265e+03
4.717527e+01 9.765621e+02 -2.692987e+03
5.064503e+01 8.306108e+02 -2.645827e+03
5.163597e+01 8.307450e+02 -2.645821e+03
5.085460e+01 8.303851e+02 -2.702198e+03
5.184588e+01 8.305159e+02 -2.702182e+03
8.073193e+01 1.105806e+03 -2.737227e+03
1.108128e+02 1.167465e+03 -2.733112e+03
8.163126e+01 1.105369e+03 -2.737200e+03
1.113776e+02 1.166644e+03 -2.733031e+03
5.078451e+01 1.044248e+03 -2.741360e+03
5.175148e+01 1.043993e+03 -2.741352e+03
5.018093e+01 1.040906e+03 -2.796015e+03
7.977088e+01 1.100692e+03 -2.794540e+03
5.114935e+01 1.040658e+03 -2.796001e+03
8.066736e+01 1.100251e+03 -2.794503e+03
1.094917e+02 1.160571e+03 -2.793084e+03
1.100545e+02 1.159751e+03 -2.792986e+03
4.689647e+01 9.742513e+02 -2.747341e+03
4.789438e+01 9.741867e+02 -2.747336e+03
4.302322e+01 9.043033e+02 -2.753334e+03
4.402249e+01 9.043317e+02 -2.753308e+03
4.506386e+01 9.028798e+02 -2.807390e+03
4.761475e+01 9.718618e+02 -2.801694e+03
4.606252e+01 9.029092e+02 -2.807348e+03
4.861358e+01 9.718147e+02 -2.801683e+03
5.187434e+01 8.295200e+02 -2.757583e+03
5.286648e+01 8.296425e+02 -2.757557e+03
5.289396e+01 8.286578e+02 -2.812971e+03
5.388719e+01 8.287661e+02 -2.812929e+03
7.894860e+01 1.093308e+03 -2.853753e+03
1.082505e+02 1.151480e+03 -2.853296e+03
7.984220e+01 1.092862e+03 -2.853707e+03
1.088112e+02 1.150660e+03 -2.853184e+03
4.977444e+01 1.035219e+03 -2.854230e+03
5.074546e+01 1.034981e+03 -2.854210e+03
4.937332e+01 1.029531e+03 -2.912506e+03
7.812748e+01 1.085923e+03 -2.912985e+03
5.033620e+01 1.029305e+03 -2.912358e+03
7.901588e+01 1.085474e+03 -2.912892e+03
1.070090e+02 1.142389e+03 -2.913507e+03
1.075682e+02 1.141569e+03 -2.913383e+03
4.979316e+01 9.674017e+02 -2.858664e+03
5.079282e+01 9.673822e+02 -2.858647e+03
4.982718e+01 8.996683e+02 -2.863121e+03
5.082488e+01 8.996995e+02 -2.863061e+03
5.459349e+01 8.964582e+02 -2.918879e+03
5.197741e+01 9.629396e+02 -2.915697e+03
5.558425e+01 8.964884e+02 -2.918747e+03
5.296622e+01 9.629517e+02 -2.915548e+03
5.527470e+01 8.269074e+02 -2.869004e+03
5.626929e+01 8.269924e+02 -2.868944e+03
5.765622e+01 8.251625e+02 -2.925044e+03
5.865061e+01 8.252133e+02 -2.924951e+03
8.763930e+01 1.075214e+03 -2.971644e+03
1.054912e+02 1.132029e+03 -2.969850e+03
8.855694e+01 1.074839e+03 -2.971514e+03
1.060837e+02 1.131235e+03 -2.969719e+03
6.993794e+01 1.018519e+03 -2.973510e+03
7.087963e+01 1.018323e+03 -2.973236e+03
9.048952e+01 1.007513e+03 -3.034449e+03
9.715119e+01 1.064504e+03 -3.030278e+03
9.143610e+01 1.007335e+03 -3.034179e+03
9.809792e+01 1.064205e+03 -3.030160e+03
1.039725e+02 1.121669e+03 -3.026186e+03
1.046001e+02 1.120901e+03 -3.026062e+03
6.759497e+01 9.540580e+02 -2.977350e+03
6.855344e+01 9.540442e+02 -2.977065e+03
6.525065e+01 8.896865e+02 -2.981147e+03
6.622860e+01 8.896760e+02 -2.980938e+03
7.590244e+01 8.829134e+02 -3.043378e+03
8.319881e+01 9.451826e+02 -3.038938e+03
7.687832e+01 8.828650e+02 -3.043166e+03
8.415438e+01 9.451306e+02 -3.038648e+03
6.298293e+01 8.216259e+02 -2.986531e+03
6.397466e+01 8.216201e+02 -2.986402e+03
6.830896e+01 8.180797e+02 -3.048001e+03
6.929938e+01 8.180364e+02 -3.047870e+03
5.773397e+01 7.831960e+02 -1.560270e+03
5.877015e+01 7.818014e+02 -1.511079e+03
5.872783e+01 7.833063e+02 -1.560279e+03
5.976916e+01 7.818399e+02 -1.511102e+03
5.669784e+01 7.846065e+02 -1.609454e+03
5.768644e+01 7.847568e+02 -1.609463e+03
5.267248e+01 8.080125e+02 -1.612468e+03
5.474699e+01 8.048568e+02 -1.571169e+03
5.366016e+01 8.081665e+02 -1.612496e+03
5.574068e+01 8.049651e+02 -1.571199e+03
5.682216e+01 8.017254e+02 -1.529858e+03
5.782054e+01 8.017394e+02 -1.529914e+03
5.524261e+01 7.876544e+02 -1.659294e+03
5.622535e+01 7.878391e+02 -1.659303e+03
5.378733e+01 7.907052e+02 -1.709136e+03
5.476431e+01 7.909184e+02 -1.709142e+03
4.684493e+01 8.208524e+02 -1.702618e+03
4.975903e+01 8.144299e+02 -1.657541e+03
4.782243e+01 8.210626e+02 -1.702636e+03
5.074097e+01 8.146171e+02 -1.657568e+03
5.246730e+01 7.947856e+02 -1.762680e+03
5.344062e+01 7.950150e+02 -1.762683e+03
5.114624e+01 7.988708e+02 -1.816223e+03
5.211795e+01 7.991069e+02 -1.816225e+03
4.155802e+01 8.378321e+02 -1.803845e+03
4.420210e+01 8.293394e+02 -1.753232e+03
4.253444e+01 8.380479e+02 -1.803851e+03
4.517781e+01 8.295581e+02 -1.753243e+03
5.025681e+01 8.031415e+02 -1.873487e+03
5.122850e+01 8.033777e+02 -1.873487e+03
4.936685e+01 8.074144e+02 -1.930750e+03
5.033958e+01 8.076463e+02 -1.930750e+03
3.799810e+01 8.555817e+02 -1.914959e+03
3.977812e+01 8.467065e+02 -1.859404e+03
3.897884e+01 8.557769e+02 -1.914963e+03
4.075658e+01 8.469128e+02 -1.859405e+03
4.845423e+01 8.108269e+02 -1.989475e+03
4.942731e+01 8.110573e+02 -1.989476e+03
4.754174e+01 8.142388e+02 -2.048201e+03
4.851490e+01 8.144689e+02 -2.048201e+03
3.434668e+01 8.699197e+02 -2.027198e+03
3.617245e+01 8.627503e+02 -1.971076e+03
3.533068e+01 8.700979e+02 -2.027200e+03
3.715470e+01 8.629378e+02 -1.971084e+03
4.727718e+01 8.177266e+02 -2.119263e+03
4.825162e+01 8.179512e+02 -2.119260e+03
4.701215e+01 8.212167e+02 -2.190326e+03
4.798881e+01 8.214313e+02 -2.190318e+03
3.328813e+01 8.846122e+02 -2.179589e+03
3.381751e+01 8.772645e+02 -2.103392e+03
3.427787e+01 8.847536e+02 -2.179569e+03
3.480417e+01 8.774272e+02 -2.103386e+03
4.847710e+01 8.242976e+02 -2.263977e+03
4.945798e+01 8.244918e+02 -2.263964e+03
3.622052e+01 8.911597e+02 -2.256594e+03
3.721371e+01 8.912711e+02 -2.256559e+03
5.142403e+01 8.268037e+02 -1.576167e+03
5.480791e+01 8.201291e+02 -1.540508e+03
5.241677e+01 8.269087e+02 -1.576226e+03
5.580117e+01 8.201004e+02 -1.540621e+03
4.804323e+01 8.335183e+02 -1.611804e+03
4.902930e+01 8.336769e+02 -1.611854e+03
4.341542e+01 8.591470e+02 -1.611090e+03
4.810590e+01 8.488486e+02 -1.581128e+03
4.439700e+01 8.590644e+02 -1.611262e+03
4.908804e+01 8.487542e+02 -1.581291e+03
5.280035e+01 8.385634e+02 -1.551153e+03
5.377511e+01 8.384308e+02 -1.551333e+03
4.354554e+01 8.454220e+02 -1.653451e+03
4.452622e+01 8.456126e+02 -1.653495e+03
3.904644e+01 8.573338e+02 -1.695103e+03
4.002455e+01 8.575403e+02 -1.695130e+03
3.124646e+01 8.939638e+02 -1.687523e+03
3.733214e+01 8.765530e+02 -1.649299e+03
3.222816e+01 8.938694e+02 -1.687689e+03
3.831138e+01 8.764693e+02 -1.649483e+03
3.602325e+01 8.700231e+02 -1.738968e+03
3.700165e+01 8.702295e+02 -1.738981e+03
3.299874e+01 8.827193e+02 -1.782831e+03
3.398006e+01 8.829117e+02 -1.782834e+03
2.444037e+01 9.277515e+02 -1.761753e+03
2.784321e+01 9.108577e+02 -1.724639e+03
2.542477e+01 9.276305e+02 -1.761881e+03
2.882667e+01 9.107499e+02 -1.724784e+03
3.122147e+01 8.983148e+02 -1.835055e+03
3.220647e+01 8.984872e+02 -1.835049e+03
2.944454e+01 9.139093e+02 -1.887271e+03
3.043254e+01 9.140638e+02 -1.887272e+03
2.089513e+01 9.723597e+02 -1.859536e+03
2.266812e+01 9.500593e+02 -1.810645e+03
2.188209e+01 9.722279e+02 -1.859628e+03
2.365306e+01 9.499255e+02 -1.810754e+03
2.783647e+01 9.261400e+02 -1.942430e+03
2.882653e+01 9.262805e+02 -1.942436e+03
2.622821e+01 9.383728e+02 -1.997597e+03
2.722070e+01 9.384950e+02 -1.997593e+03
1.811427e+01 1.006921e+03 -1.967976e+03
1.950439e+01 9.896367e+02 -1.913750e+03
1.910619e+01 1.006797e+03 -1.968006e+03
2.049445e+01 9.895161e+02 -1.913823e+03
2.767973e+01 9.471998e+02 -2.083205e+03
2.867488e+01 9.472971e+02 -2.083190e+03
2.913160e+01 9.560299e+02 -2.168819e+03
3.012870e+01 9.560960e+02 -2.168781e+03
2.498566e+01 1.027532e+03 -2.158042e+03
2.154937e+01 1.017226e+03 -2.063011e+03
2.596894e+01 1.027354e+03 -2.158000e+03
2.253816e+01 1.017076e+03 -2.063001e+03
3.534203e+01 9.629673e+02 -2.249075e+03
3.633986e+01 9.629946e+02 -2.249015e+03
3.447603e+01 1.034845e+03 -2.241552e+03
3.545353e+01 1.034648e+03 -2.241476e+03
6.437154e+01 1.102449e+03 -2.237170e+03
6.528129e+01 1.102039e+03 -2.237101e+03
9.440047e+01 1.170150e+03 -2.232750e+03
9.497563e+01 1.169333e+03 -2.232764e+03
8.506158e+01 1.162532e+03 -2.162117e+03
5.495725e+01 1.094987e+03 -2.160099e+03
8.563802e+01 1.161716e+03 -2.162157e+03
5.586985e+01 1.094580e+03 -2.160059e+03
4.720130e+01 1.084382e+03 -2.078903e+03
4.812634e+01 1.084002e+03 -2.078887e+03
7.298936e+01 1.151635e+03 -2.094752e+03
7.357840e+01 1.150830e+03 -2.094815e+03
6.091988e+01 1.140728e+03 -2.027323e+03
3.944848e+01 1.073779e+03 -1.997677e+03
6.151604e+01 1.139954e+03 -2.027537e+03
4.037971e+01 1.073421e+03 -1.997744e+03
4.015156e+01 1.046199e+03 -1.932912e+03
4.106582e+01 1.045825e+03 -1.933068e+03
6.093157e+01 1.102815e+03 -1.952014e+03
6.150435e+01 1.102079e+03 -1.952373e+03
6.093921e+01 1.064923e+03 -1.876769e+03
4.085618e+01 1.018626e+03 -1.868173e+03
6.149671e+01 1.064183e+03 -1.877145e+03
4.175039e+01 1.018221e+03 -1.868366e+03
4.174971e+01 9.923484e+02 -1.815004e+03
4.262884e+01 9.919275e+02 -1.815227e+03
6.094370e+01 1.034653e+03 -1.819337e+03
6.149222e+01 1.033914e+03 -1.819727e+03
6.094394e+01 1.004378e+03 -1.761902e+03
4.263753e+01 9.660614e+02 -1.761841e+03
6.149198e+01 1.003650e+03 -1.762312e+03
4.351300e+01 9.656436e+02 -1.762083e+03
4.433914e+01 9.440312e+02 -1.720274e+03
4.521376e+01 9.436218e+02 -1.720533e+03
6.094291e+01 9.772074e+02 -1.715881e+03
6.149301e+01 9.764910e+02 -1.716310e+03
6.093919e+01 9.500324e+02 -1.669858e+03
4.603803e+01 9.219945e+02 -1.678707e+03
6.149673e+01 9.493364e+02 -1.670310e+03
4.691724e+01 9.216065e+02 -1.678983e+03
4.907543e+01 9.000131e+02 -1.640083e+03
4.996429e+01 8.996570e+02 -1.640371e+03
6.093303e+01 9.234947e+02 -1.630827e+03
6.150289e+01 9.228231e+02 -1.631300e+03
6.092131e+01 8.969609e+02 -1.591809e+03
5.210693e+01 8.780303e+02 -1.601479e+03
6.151461e+01 8.963059e+02 -1.592277e+03
5.301724e+01 8.777088e+02 -1.601740e+03
5.444326e+01 8.609462e+02 -1.569665e+03
5.537167e+01 8.606578e+02 -1.569899e+03
6.091034e+01 8.731219e+02 -1.558123e+03
6.152558e+01 8.724832e+02 -1.558586e+03
6.090233e+01 8.492924e+02 -1.524448e+03
5.678073e+01 8.438608e+02 -1.537849e+03
6.153359e+01 8.486510e+02 -1.524884e+03
5.772496e+01 8.436080e+02 -1.538060e+03
6.088268e+01 8.276557e+02 -1.490352e+03
5.777420e+01 8.238143e+02 -1.515484e+03
6.155324e+01 8.270292e+02 -1.490749e+03
5.874830e+01 8.236429e+02 -1.515631e+03
6.086306e+01 8.060247e+02 -1.456271e+03
5.877319e+01 8.037688e+02 -1.493123e+03
6.157286e+01 8.054017e+02 -1.456599e+03
5.976612e+01 8.036768e+02 -1.493198e+03
6.085192e+01 7.845055e+02 -1.405759e+03
5.974456e+01 7.830281e+02 -1.458475e+03
6.158400e+01 7.838787e+02 -1.406026e+03
6.074305e+01 7.829846e+02 -1.458508e+03
1.714103e+03 7.291188e+02 -1.088326e+03
1.714105e+03 7.340735e+02 -1.156785e+03
1.727182e+03 6.884978e+02 -1.162121e+03
1.730320e+03 6.810598e+02 -1.098630e+03
1.713461e+03 7.283546e+02 -1.088382e+03
1.713459e+03 7.333121e+02 -1.156840e+03
1.726227e+03 6.882022e+02 -1.162125e+03
1.729367e+03 6.807614e+02 -1.098660e+03
1.714115e+03 7.390186e+02 -1.225224e+03
1.724050e+03 6.959136e+02 -1.225602e+03
1.713449e+03 7.382792e+02 -1.225318e+03
1.723081e+03 6.956652e+02 -1.225600e+03
1.733844e+03 6.529866e+02 -1.225975e+03
1.740121e+03 6.430772e+02 -1.167465e+03
1.732854e+03 6.528732e+02 -1.225887e+03
1.739133e+03 6.429372e+02 -1.167402e+03
1.746399e+03 6.331570e+02 -1.108955e+03
1.745411e+03 6.330120e+02 -1.108917e+03
1.741956e+03 3.825771e+02 -1.092184e+03
1.742456e+03 4.327842e+02 -1.106004e+03
1.735701e+03 3.915144e+02 -1.145342e+03
1.735496e+03 3.235986e+02 -1.123615e+03
1.740964e+03 3.826127e+02 -1.092068e+03
1.741464e+03 4.328195e+02 -1.105890e+03
1.734709e+03 3.915577e+02 -1.145218e+03
1.734505e+03 3.236417e+02 -1.123492e+03
1.742957e+03 4.829936e+02 -1.119824e+03
1.735905e+03 4.594325e+02 -1.167070e+03
1.741963e+03 4.830240e+02 -1.119712e+03
1.734914e+03 4.594714e+02 -1.166942e+03
1.728854e+03 4.358786e+02 -1.214309e+03
1.728946e+03 3.502527e+02 -1.184672e+03
1.727864e+03 4.359116e+02 -1.214179e+03
1.727954e+03 3.502878e+02 -1.184553e+03
1.729037e+03 2.646161e+02 -1.155039e+03
1.728045e+03 2.646747e+02 -1.154923e+03
1.758637e+03 5.763882e+02 -7.264577e+02
1.759421e+03 5.810149e+02 -7.889360e+02
1.763147e+03 5.246324e+02 -7.891178e+02
1.763623e+03 5.132759e+02 -7.256069e+02
1.757665e+03 5.761614e+02 -7.265109e+02
1.758446e+03 5.807935e+02 -7.889722e+02
1.762150e+03 5.245601e+02 -7.891295e+02
1.762626e+03 5.131969e+02 -7.256315e+02
1.760206e+03 5.856332e+02 -8.514229e+02
1.762671e+03 5.359853e+02 -8.526417e+02
1.759226e+03 5.854340e+02 -8.514249e+02
1.761674e+03 5.359269e+02 -8.526145e+02
1.765128e+03 4.864079e+02 -8.538507e+02
1.766862e+03 4.683244e+02 -7.892905e+02
1.764130e+03 4.863493e+02 -8.538139e+02
1.765865e+03 4.682522e+02 -7.892959e+02
1.768597e+03 4.502239e+02 -7.247450e+02
1.767599e+03 4.501721e+02 -7.247632e+02
1.767315e+03 4.048789e+02 -6.753443e+02
1.766721e+03 4.294978e+02 -6.368523e+02
1.767576e+03 4.661408e+02 -6.799068e+02
1.766315e+03 4.048836e+02 -6.753661e+02
1.765722e+03 4.295003e+02 -6.368729e+02
1.766577e+03 4.660948e+02 -6.799297e+02
1.766031e+03 3.595461e+02 -6.259406e+02
1.765866e+03 3.928639e+02 -5.937933e+02
1.765033e+03 3.595829e+02 -6.259720e+02
1.764867e+03 3.928966e+02 -5.938206e+02
1.765700e+03 4.262109e+02 -5.616271e+02
1.766126e+03 4.541471e+02 -5.983459e+02
1.764702e+03 4.261811e+02 -5.616881e+02
1.765130e+03 4.540865e+02 -5.983941e+02
1.766553e+03 4.820774e+02 -6.350614e+02
1.765557e+03 4.819978e+02 -6.351034e+02
1.754378e+03 5.627881e+02 -6.175629e+02
1.760471e+03 5.224117e+02 -6.263171e+02
1.759923e+03 4.986914e+02 -5.817017e+02
1.753712e+03 5.432598e+02 -5.650516e+02
1.753412e+03 5.625465e+02 -6.176499e+02
1.759479e+03 5.222932e+02 -6.263717e+02
1.758933e+03 4.985676e+02 -5.817698e+02
1.752745e+03 5.430245e+02 -5.651514e+02
1.759377e+03 4.749530e+02 -5.370829e+02
1.758386e+03 4.748600e+02 -5.371713e+02
1.753048e+03 5.237207e+02 -5.125389e+02
1.752076e+03 5.235133e+02 -5.126543e+02
1.748374e+03 3.531833e+02 -3.636666e+02
1.744890e+03 3.965808e+02 -3.436147e+02
1.749796e+03 4.076092e+02 -3.952235e+02
1.753926e+03 3.553961e+02 -4.202102e+02
1.747382e+03 3.532015e+02 -3.637858e+02
1.743897e+03 3.965586e+02 -3.437390e+02
1.748802e+03 4.075770e+02 -3.953236e+02
1.752930e+03 3.554073e+02 -4.203074e+02
1.741400e+03 4.399987e+02 -3.235507e+02
1.745660e+03 4.598563e+02 -3.702215e+02
1.740418e+03 4.398953e+02 -3.237043e+02
1.744680e+03 4.597128e+02 -3.703552e+02
1.749920e+03 4.797008e+02 -4.168844e+02
1.754702e+03 4.186371e+02 -4.468207e+02
1.748942e+03 4.795434e+02 -4.170140e+02
1.753707e+03 4.185960e+02 -4.469199e+02
1.759476e+03 3.575974e+02 -4.767534e+02
1.758480e+03 3.576246e+02 -4.768294e+02
1.714086e+03 6.839360e+02 -7.057306e+02
1.736430e+03 6.300960e+02 -7.161123e+02
1.735365e+03 6.195354e+02 -6.610607e+02
1.714086e+03 6.696160e+02 -6.500687e+02
1.713478e+03 6.831616e+02 -7.059032e+02
1.735503e+03 6.297276e+02 -7.161889e+02
1.734440e+03 6.191671e+02 -6.611523e+02
1.713478e+03 6.688470e+02 -6.502665e+02
1.756508e+03 5.695872e+02 -6.720103e+02
1.755538e+03 5.693549e+02 -6.720804e+02
1.734301e+03 6.089712e+02 -6.060057e+02
1.733376e+03 6.086103e+02 -6.061190e+02
1.714087e+03 6.552945e+02 -5.944064e+02
1.713477e+03 6.545339e+02 -5.946302e+02
1.759375e+03 5.273370e+02 -9.231852e+02
1.760587e+03 4.745832e+02 -9.197254e+02
1.758378e+03 5.273020e+02 -9.231222e+02
1.759590e+03 4.745484e+02 -9.196505e+02
1.758157e+03 5.801564e+02 -9.266349e+02
1.757171e+03 5.799900e+02 -9.266040e+02
1.756109e+03 5.746661e+02 -1.001836e+03
1.756078e+03 5.186834e+02 -9.937227e+02
1.755115e+03 5.745595e+02 -1.001794e+03
1.755082e+03 5.186824e+02 -9.936359e+02
1.756046e+03 4.627531e+02 -9.855911e+02
1.755050e+03 4.627529e+02 -9.854961e+02
1.714279e+03 4.284552e+02 -1.313094e+03
1.721566e+03 4.321675e+02 -1.263708e+03
1.721930e+03 4.921930e+02 -1.272210e+03
1.714277e+03 4.899801e+02 -1.320900e+03
1.713285e+03 4.284692e+02 -1.312984e+03
1.720575e+03 4.321898e+02 -1.263575e+03
1.720941e+03 4.922160e+02 -1.272061e+03
1.713287e+03 4.899981e+02 -1.320757e+03
1.729584e+03 4.944048e+02 -1.223513e+03
1.728594e+03 4.944350e+02 -1.223372e+03
1.730314e+03 5.529309e+02 -1.232713e+03
1.722294e+03 5.522190e+02 -1.280709e+03
1.729324e+03 5.529585e+02 -1.232569e+03
1.721307e+03 5.522417e+02 -1.280550e+03
1.714277e+03 5.515072e+02 -1.328688e+03
1.713287e+03 5.515248e+02 -1.328548e+03
1.714281e+03 2.753751e+02 -1.293691e+03
1.721658e+03 2.699893e+02 -1.224375e+03
1.721613e+03 3.510864e+02 -1.244039e+03
1.714280e+03 3.519184e+02 -1.303390e+03
1.713283e+03 2.753943e+02 -1.293629e+03
1.720665e+03 2.700408e+02 -1.224266e+03
1.720619e+03 3.511073e+02 -1.243923e+03
1.713284e+03 3.519285e+02 -1.303309e+03
1.717968e+03 2.018813e+02 -1.220625e+03
1.721657e+03 1.980378e+02 -1.156362e+03
1.716975e+03 2.019646e+02 -1.220538e+03
1.720666e+03 1.981458e+02 -1.156274e+03
1.714281e+03 2.057395e+02 -1.284865e+03
1.713283e+03 2.057687e+02 -1.284824e+03
1.714282e+03 1.361092e+02 -1.276044e+03
1.714279e+03 1.337893e+02 -1.216873e+03
1.713282e+03 1.361378e+02 -1.276014e+03
1.713285e+03 1.338724e+02 -1.216811e+03
1.714278e+03 1.314838e+02 -1.157687e+03
1.713286e+03 1.315926e+02 -1.157623e+03
1.714101e+03 5.704109e+02 -3.583948e+02
1.732081e+03 5.249805e+02 -3.876787e+02
1.729953e+03 4.996454e+02 -3.361764e+02
1.714102e+03 5.395835e+02 -3.020350e+02
1.713463e+03 5.697167e+02 -3.587286e+02
1.731132e+03 5.247054e+02 -3.878322e+02
1.728999e+03 4.993852e+02 -3.363314e+02
1.713462e+03 5.389087e+02 -3.024040e+02
1.727828e+03 4.742838e+02 -2.846647e+02
1.726863e+03 4.740916e+02 -2.848401e+02
1.714118e+03 5.087123e+02 -2.456398e+02
1.713446e+03 5.081445e+02 -2.461148e+02
1.732862e+03 5.474214e+02 -4.401853e+02
1.751484e+03 5.017080e+02 -4.647087e+02
1.731917e+03 5.471316e+02 -4.403363e+02
1.750509e+03 5.015311e+02 -4.648371e+02
1.714098e+03 5.932911e+02 -4.155992e+02
1.713466e+03 5.925759e+02 -4.158982e+02
1.714093e+03 6.161696e+02 -4.727986e+02
1.733641e+03 5.698693e+02 -4.926949e+02
1.713471e+03 6.154368e+02 -4.730728e+02
1.732703e+03 5.695509e+02 -4.928374e+02
1.762588e+03 3.919024e+02 -5.191888e+02
1.761190e+03 3.448503e+02 -5.597773e+02
1.756515e+03 2.968436e+02 -5.257568e+02
1.761591e+03 3.919046e+02 -5.192602e+02
1.760193e+03 3.449155e+02 -5.598084e+02
1.755519e+03 2.969276e+02 -5.258007e+02
1.759792e+03 2.978271e+02 -6.003425e+02
1.758796e+03 2.978976e+02 -6.003799e+02
1.753549e+03 2.360813e+02 -5.747497e+02
1.752563e+03 2.362391e+02 -5.747825e+02
1.714167e+03 1.068863e+02 -5.293172e+02
1.729774e+03 1.584434e+02 -5.125284e+02
1.731836e+03 1.655169e+02 -5.458694e+02
1.714261e+03 1.081074e+02 -5.564971e+02
1.713397e+03 1.075157e+02 -5.294220e+02
1.728819e+03 1.587406e+02 -5.125560e+02
1.730879e+03 1.658062e+02 -5.458626e+02
1.713303e+03 1.083957e+02 -5.564859e+02
1.745299e+03 2.098762e+02 -4.956897e+02
1.749423e+03 2.229711e+02 -5.352242e+02
1.744323e+03 2.100898e+02 -4.957399e+02
1.748444e+03 2.231721e+02 -5.352567e+02
1.733897e+03 1.725854e+02 -5.791933e+02
1.732941e+03 1.728769e+02 -5.791862e+02
1.714260e+03 1.091567e+02 -5.836190e+02
1.713304e+03 1.094475e+02 -5.836078e+02
1.714081e+03 1.314656e+02 -4.141378e+02
1.714084e+03 1.458569e+02 -3.620079e+02
1.724055e+03 1.755587e+02 -3.649024e+02
1.725820e+03 1.672561e+02 -4.104335e+02
1.713483e+03 1.322450e+02 -4.143278e+02
1.713480e+03 1.466255e+02 -3.622200e+02
1.723109e+03 1.758703e+02 -3.649921e+02
1.724874e+03 1.675695e+02 -4.105098e+02
1.714099e+03 1.602673e+02 -3.098525e+02
1.722298e+03 1.838922e+02 -3.193606e+02
1.713465e+03 1.609869e+02 -3.101377e+02
1.721337e+03 1.841402e+02 -3.194851e+02
1.730338e+03 2.073026e+02 -3.287874e+02
1.733867e+03 2.050738e+02 -3.677307e+02
1.729368e+03 2.075080e+02 -3.289138e+02
1.732898e+03 2.053018e+02 -3.678304e+02
1.737397e+03 2.028560e+02 -4.066683e+02
1.736427e+03 2.030846e+02 -4.067527e+02
1.745882e+03 2.784221e+02 -3.804439e+02
1.741642e+03 2.406500e+02 -3.935566e+02
1.736857e+03 2.374494e+02 -3.531419e+02
1.739841e+03 2.698033e+02 -3.385513e+02
1.744892e+03 2.785233e+02 -3.805479e+02
1.740657e+03 2.407930e+02 -3.936498e+02
1.735873e+03 2.375933e+02 -3.532505e+02
1.738853e+03 2.699064e+02 -3.386724e+02
1.732070e+03 2.342465e+02 -3.127216e+02
1.731090e+03 2.343958e+02 -3.128568e+02
1.733799e+03 2.611834e+02 -2.966556e+02
1.732815e+03 2.612906e+02 -2.968000e+02
1.752818e+03 2.724711e+02 -4.994451e+02
1.751826e+03 2.725743e+02 -4.995036e+02
1.749122e+03 2.480974e+02 -4.731366e+02
1.748132e+03 2.482221e+02 -4.732033e+02
1.752939e+03 2.862867e+02 -4.505884e+02
1.756208e+03 3.219357e+02 -4.636719e+02
1.751947e+03 2.863863e+02 -4.506618e+02
1.755213e+03 3.220118e+02 -4.637446e+02
1.732630e+03 4.006952e+02 -2.581328e+02
1.733458e+03 3.666897e+02 -2.637891e+02
1.723863e+03 3.653227e+02 -2.166693e+02
1.723450e+03 4.085940e+02 -2.150004e+02
1.731648e+03 4.006638e+02 -2.583146e+02
1.732473e+03 3.666917e+02 -2.639649e+02
1.722884e+03 3.653271e+02 -2.168735e+02
1.722471e+03 4.085393e+02 -2.151987e+02
1.734285e+03 3.326843e+02 -2.694471e+02
1.724277e+03 3.220620e+02 -2.183478e+02
1.733299e+03 3.327195e+02 -2.696135e+02
1.723297e+03 3.221042e+02 -2.185387e+02
1.714137e+03 3.113913e+02 -1.670122e+02
1.714130e+03 3.639726e+02 -1.693069e+02
1.713427e+03 3.115373e+02 -1.677002e+02
1.713434e+03 3.639455e+02 -1.700247e+02
1.714135e+03 4.165768e+02 -1.716433e+02
1.713429e+03 4.163308e+02 -1.723075e+02
1.751668e+03 3.188757e+02 -4.178621e+02
1.747128e+03 3.158033e+02 -3.720545e+02
1.750675e+03 3.189306e+02 -4.179572e+02
1.746137e+03 3.158618e+02 -3.721676e+02
1.749411e+03 2.823558e+02 -4.155168e+02
1.748419e+03 2.824534e+02 -4.156042e+02
1.727796e+03 1.628481e+02 -4.614761e+02
1.741348e+03 2.063644e+02 -4.511784e+02
1.726847e+03 1.631567e+02 -4.615378e+02
1.740375e+03 2.065889e+02 -4.512469e+02
1.714079e+03 1.191346e+02 -4.717178e+02
1.713485e+03 1.199217e+02 -4.718846e+02
1.723168e+03 2.086927e+02 -2.888126e+02
1.724034e+03 2.334833e+02 -2.582675e+02
1.722194e+03 2.088686e+02 -2.889577e+02
1.723055e+03 2.336069e+02 -2.584274e+02
1.714113e+03 1.829090e+02 -2.648049e+02
1.713451e+03 1.835713e+02 -2.651573e+02
1.714132e+03 2.056041e+02 -2.197119e+02
1.713432e+03 2.061023e+02 -2.202223e+02
1.745382e+03 2.443708e+02 -4.333475e+02
1.744395e+03 2.445105e+02 -4.334257e+02
1.725640e+03 4.414391e+02 -2.498292e+02
1.737016e+03 4.203436e+02 -2.908398e+02
1.724666e+03 4.413152e+02 -2.500228e+02
1.736032e+03 4.202829e+02 -2.910114e+02
1.714124e+03 4.626668e+02 -2.086394e+02
1.713440e+03 4.622154e+02 -2.092133e+02
1.714087e+03 6.956413e+02 -7.677123e+02
1.736822e+03 6.382602e+02 -7.783393e+02
1.713477e+03 6.948631e+02 -7.678592e+02
1.735893e+03 6.378962e+02 -7.784005e+02
1.714094e+03 7.073417e+02 -8.296968e+02
1.737220e+03 6.464111e+02 -8.405713e+02
1.713470e+03 7.065695e+02 -8.298124e+02
1.736278e+03 6.460781e+02 -8.406072e+02
1.714108e+03 7.218323e+02 -9.624499e+02
1.735179e+03 6.481673e+02 -9.821362e+02
1.736201e+03 6.472842e+02 -9.113642e+02
1.714104e+03 7.145855e+02 -8.960779e+02
1.713456e+03 7.210771e+02 -9.625187e+02
1.734215e+03 6.479002e+02 -9.821631e+02
1.735245e+03 6.469941e+02 -9.113747e+02
1.713460e+03 7.138248e+02 -8.961610e+02
1.732751e+03 6.646077e+02 -1.040373e+03
1.751254e+03 6.039138e+02 -1.055385e+03
1.731790e+03 6.643366e+02 -1.040421e+03
1.750263e+03 6.037835e+02 -1.055366e+03
1.714107e+03 7.254747e+02 -1.025391e+03
1.713457e+03 7.247167e+02 -1.025447e+03
1.723176e+03 6.030269e+02 -1.282302e+03
1.714279e+03 6.031316e+02 -1.335205e+03
1.722190e+03 6.030485e+02 -1.282137e+03
1.713285e+03 6.031447e+02 -1.335102e+03
1.732079e+03 6.029249e+02 -1.229356e+03
1.731089e+03 6.029497e+02 -1.229216e+03
1.724061e+03 6.538797e+02 -1.283867e+03
1.723070e+03 6.538105e+02 -1.283753e+03
1.714281e+03 6.547697e+02 -1.341719e+03
1.713283e+03 6.547509e+02 -1.341659e+03
1.714131e+03 7.510123e+02 -1.290245e+03
1.719167e+03 7.023330e+02 -1.287068e+03
1.713433e+03 7.503076e+02 -1.290376e+03
1.718180e+03 7.021720e+02 -1.287052e+03
1.714208e+03 7.629215e+02 -1.355274e+03
1.714281e+03 7.087404e+02 -1.348526e+03
1.713356e+03 7.624205e+02 -1.355426e+03
1.713283e+03 7.086909e+02 -1.348513e+03
1.733970e+03 5.894223e+02 -5.493483e+02
1.733040e+03 5.890786e+02 -5.494802e+02
1.714089e+03 6.357330e+02 -5.336027e+02
1.713475e+03 6.349844e+02 -5.338513e+02
1.757039e+03 4.467924e+02 -4.919459e+02
1.756047e+03 4.467307e+02 -4.920515e+02
1.762047e+03 5.178401e+02 -6.759635e+02
1.761052e+03 5.177488e+02 -6.760001e+02
1.735871e+03 5.064533e+02 -1.180188e+03
1.734880e+03 5.064879e+02 -1.180056e+03
1.742159e+03 5.185088e+02 -1.136858e+03
1.741166e+03 5.185338e+02 -1.136746e+03
1.741362e+03 5.540236e+02 -1.153894e+03
1.735838e+03 5.534756e+02 -1.193302e+03
1.740368e+03 5.540440e+02 -1.153778e+03
1.734846e+03 5.535029e+02 -1.193175e+03
1.724155e+03 2.777732e+02 -2.383026e+02
1.734042e+03 2.969350e+02 -2.830492e+02
1.723176e+03 2.778550e+02 -2.384881e+02
1.733057e+03 2.970039e+02 -2.832089e+02
1.714132e+03 2.585011e+02 -1.933416e+02
1.713432e+03 2.588164e+02 -1.939817e+02
1.740586e+03 3.063705e+02 -3.275544e+02
1.739596e+03 3.064315e+02 -3.276857e+02
1.741330e+03 3.429338e+02 -3.165577e+02
1.740340e+03 3.429605e+02 -3.166988e+02
1.739174e+03 3.816345e+02 -3.037032e+02
1.738185e+03 3.816259e+02 -3.038506e+02
1.749267e+03 4.757314e+02 -1.049868e+03
1.749001e+03 4.226626e+02 -1.038892e+03
1.748273e+03 4.757533e+02 -1.049758e+03
1.748007e+03 4.226853e+02 -1.038778e+03
1.749533e+03 5.288019e+02 -1.060842e+03
1.748539e+03 5.288197e+02 -1.060741e+03
1.743882e+03 5.935529e+02 -1.131438e+03
1.746708e+03 5.611787e+02 -1.096136e+03
1.742888e+03 5.935654e+02 -1.131334e+03
1.745713e+03 5.611913e+02 -1.096042e+03
1.737981e+03 5.982378e+02 -1.180394e+03
1.736988e+03 5.982586e+02 -1.180278e+03
1.714282e+03 7.622697e+02 -1.424228e+03
1.714253e+03 7.072371e+02 -1.415224e+03
1.713282e+03 7.623057e+02 -1.424229e+03
1.713253e+03 7.072374e+02 -1.415224e+03
1.714281e+03 7.618760e+02 -1.493105e+03
1.714224e+03 7.057585e+02 -1.481929e+03
1.713283e+03 7.619328e+02 -1.493109e+03
1.713224e+03 7.057593e+02 -1.481929e+03
1.714165e+03 6.495796e+02 -1.470750e+03
1.714224e+03 6.521751e+02 -1.406220e+03
1.713167e+03 6.496472e+02 -1.470752e+03
1.713224e+03 6.521986e+02 -1.406220e+03
1.714281e+03 7.615504e+02 -1.549981e+03
1.714196e+03 7.045987e+02 -1.540861e+03
1.713283e+03 7.616254e+02 -1.549989e+03
1.713196e+03 7.046000e+02 -1.540860e+03
1.714280e+03 7.612245e+02 -1.606859e+03
1.714168e+03 7.034390e+02 -1.599792e+03
1.713284e+03 7.613183e+02 -1.606867e+03
1.713169e+03 7.034407e+02 -1.599792e+03
1.714052e+03 6.455518e+02 -1.592720e+03
1.714108e+03 6.475626e+02 -1.531735e+03
1.713058e+03 6.456648e+02 -1.592722e+03
1.713113e+03 6.476591e+02 -1.531737e+03
1.714279e+03 7.609085e+02 -1.662259e+03
1.714161e+03 7.029095e+02 -1.657726e+03
1.713285e+03 7.610178e+02 -1.662266e+03
1.713161e+03 7.029115e+02 -1.657726e+03
1.714279e+03 7.605961e+02 -1.717659e+03
1.714153e+03 7.023800e+02 -1.715660e+03
1.713285e+03 7.607137e+02 -1.717665e+03
1.713154e+03 7.023822e+02 -1.715659e+03
1.714021e+03 6.440452e+02 -1.713656e+03
1.714036e+03 6.447967e+02 -1.653188e+03
1.713029e+03 6.441694e+02 -1.713658e+03
1.713044e+03 6.449189e+02 -1.653190e+03
1.714278e+03 7.602851e+02 -1.773272e+03
1.714141e+03 7.016741e+02 -1.772985e+03
1.713286e+03 7.604059e+02 -1.773274e+03
1.713141e+03 7.016764e+02 -1.772985e+03
1.714278e+03 7.599758e+02 -1.828884e+03
1.714128e+03 7.009681e+02 -1.830310e+03
1.713286e+03 7.600964e+02 -1.828884e+03
1.713129e+03 7.009706e+02 -1.830310e+03
1.713971e+03 6.418393e+02 -1.831735e+03
1.713996e+03 6.429421e+02 -1.772695e+03
1.712979e+03 6.419659e+02 -1.831737e+03
1.713004e+03 6.430678e+02 -1.772698e+03
1.714279e+03 7.596555e+02 -1.886700e+03
1.714117e+03 7.003123e+02 -1.889166e+03
1.713285e+03 7.597732e+02 -1.886699e+03
1.713117e+03 7.003150e+02 -1.889166e+03
1.714279e+03 7.593340e+02 -1.944515e+03
1.714105e+03 6.996565e+02 -1.948023e+03
1.713285e+03 7.594512e+02 -1.944515e+03
1.713105e+03 6.996594e+02 -1.948022e+03
1.713924e+03 6.398591e+02 -1.951529e+03
1.713947e+03 6.408491e+02 -1.891632e+03
1.712932e+03 6.399875e+02 -1.951531e+03
1.712956e+03 6.409768e+02 -1.891634e+03
1.714279e+03 7.589799e+02 -2.008105e+03
1.714101e+03 6.992347e+02 -2.011367e+03
1.713285e+03 7.590977e+02 -2.008106e+03
1.713102e+03 6.992377e+02 -2.011367e+03
1.714279e+03 7.586276e+02 -2.071697e+03
1.714098e+03 6.988129e+02 -2.074712e+03
1.713285e+03 7.587424e+02 -2.071695e+03
1.713098e+03 6.988159e+02 -2.074712e+03
1.713910e+03 6.388792e+02 -2.077727e+03
1.713917e+03 6.393691e+02 -2.014629e+03
1.712918e+03 6.390084e+02 -2.077729e+03
1.712925e+03 6.394980e+02 -2.014629e+03
1.714279e+03 7.582669e+02 -2.136994e+03
1.714087e+03 6.981965e+02 -2.138919e+03
1.713285e+03 7.583764e+02 -2.136990e+03
1.713087e+03 6.981997e+02 -2.138919e+03
1.714280e+03 7.579087e+02 -2.202292e+03
1.714076e+03 6.975802e+02 -2.203126e+03
1.713284e+03 7.580079e+02 -2.202284e+03
1.713077e+03 6.975835e+02 -2.203126e+03
1.713867e+03 6.371402e+02 -2.203963e+03
1.713888e+03 6.380098e+02 -2.140845e+03
1.712875e+03 6.372706e+02 -2.203965e+03
1.712897e+03 6.381394e+02 -2.140847e+03
1.714280e+03 7.575329e+02 -2.271192e+03
1.714076e+03 6.972270e+02 -2.270110e+03
1.713284e+03 7.576170e+02 -2.271178e+03
1.713076e+03 6.972305e+02 -2.270110e+03
1.714280e+03 7.571528e+02 -2.340085e+03
1.714075e+03 6.968739e+02 -2.337094e+03
1.713284e+03 7.572304e+02 -2.340079e+03
1.713076e+03 6.968774e+02 -2.337094e+03
1.713865e+03 6.364943e+02 -2.334106e+03
1.713866e+03 6.368172e+02 -2.269035e+03
1.712873e+03 6.366251e+02 -2.334106e+03
1.712874e+03 6.369479e+02 -2.269035e+03
1.714281e+03 7.568014e+02 -2.403350e+03
1.714070e+03 6.964024e+02 -2.399867e+03
1.713283e+03 7.568777e+02 -2.403350e+03
1.713070e+03 6.964059e+02 -2.399867e+03
1.714281e+03 7.564510e+02 -2.466618e+03
1.714064e+03 6.959309e+02 -2.462640e+03
1.713283e+03 7.565240e+02 -2.466618e+03
1.713065e+03 6.959345e+02 -2.462639e+03
1.713843e+03 6.353124e+02 -2.458660e+03
1.713854e+03 6.359034e+02 -2.396383e+03
1.712851e+03 6.354434e+02 -2.458662e+03
1.712862e+03 6.360342e+02 -2.396384e+03
1.714281e+03 7.561206e+02 -2.526172e+03
1.714063e+03 6.954385e+02 -2.522519e+03
1.713283e+03 7.561917e+02 -2.526172e+03
1.713063e+03 6.954420e+02 -2.522520e+03
1.714281e+03 7.557897e+02 -2.585726e+03
1.714062e+03 6.949460e+02 -2.582399e+03
1.713283e+03 7.558599e+02 -2.585726e+03
1.713062e+03 6.949496e+02 -2.582400e+03
1.713838e+03 6.340075e+02 -2.579072e+03
1.713840e+03 6.346596e+02 -2.518866e+03
1.712846e+03 6.341341e+02 -2.579074e+03
1.712849e+03 6.347891e+02 -2.518868e+03
1.714281e+03 7.554720e+02 -2.642929e+03
1.714073e+03 6.944303e+02 -2.640335e+03
1.713283e+03 7.555410e+02 -2.642930e+03
1.713074e+03 6.944338e+02 -2.640335e+03
1.714281e+03 7.551544e+02 -2.700133e+03
1.714085e+03 6.939146e+02 -2.698270e+03
1.713283e+03 7.552220e+02 -2.700133e+03
1.713085e+03 6.939179e+02 -2.698271e+03
1.713885e+03 6.325893e+02 -2.696407e+03
1.713861e+03 6.332975e+02 -2.637740e+03
1.712891e+03 6.326993e+02 -2.696409e+03
1.712869e+03 6.334176e+02 -2.637741e+03
1.714281e+03 7.548405e+02 -2.756905e+03
1.714121e+03 6.935019e+02 -2.755944e+03
1.713283e+03 7.549041e+02 -2.756906e+03
1.713121e+03 6.935049e+02 -2.755944e+03
1.714281e+03 7.545279e+02 -2.813678e+03
1.714156e+03 6.930894e+02 -2.813618e+03
1.713283e+03 7.545849e+02 -2.813678e+03
1.713157e+03 6.930917e+02 -2.813618e+03
1.714030e+03 6.315873e+02 -2.813557e+03
1.713957e+03 6.320870e+02 -2.754982e+03
1.713032e+03 6.316621e+02 -2.813559e+03
1.712962e+03 6.321820e+02 -2.754984e+03
1.714281e+03 7.542099e+02 -2.871829e+03
1.714199e+03 6.927384e+02 -2.872303e+03
1.713283e+03 7.542557e+02 -2.871829e+03
1.713199e+03 6.927401e+02 -2.872304e+03
1.714282e+03 7.538943e+02 -2.929980e+03
1.714241e+03 6.923874e+02 -2.930989e+03
1.713282e+03 7.539241e+02 -2.929980e+03
1.713241e+03 6.923885e+02 -2.930989e+03
1.714200e+03 6.308508e+02 -2.931998e+03
1.714115e+03 6.312188e+02 -2.872777e+03
1.713200e+03 6.308826e+02 -2.931998e+03
1.713116e+03 6.312726e+02 -2.872779e+03
1.714282e+03 7.535669e+02 -2.991289e+03
1.714261e+03 6.921057e+02 -2.991792e+03
1.713282e+03 7.535692e+02 -2.991290e+03
1.713262e+03 6.921062e+02 -2.991792e+03
1.714282e+03 7.532355e+02 -3.052599e+03
1.714282e+03 6.918238e+02 -3.052594e+03
1.713282e+03 7.532183e+02 -3.052599e+03
1.713282e+03 6.918242e+02 -3.052595e+03
1.714282e+03 6.304159e+02 -3.052590e+03
1.714241e+03 6.306361e+02 -2.992294e+03
1.713282e+03 6.304263e+02 -3.052590e+03
1.713241e+03 6.306517e+02 -2.992294e+03
1.709106e+03 5.976073e+02 -1.398921e+03
1.708109e+03 5.976589e+02 -1.398883e+03
1.703928e+03 5.920593e+02 -1.462662e+03
1.702938e+03 5.921968e+02 -1.462640e+03
1.693698e+03 5.346224e+02 -1.454594e+03
1.703987e+03 5.430664e+02 -1.391644e+03
1.692702e+03 5.346630e+02 -1.454508e+03
1.702995e+03 5.430923e+02 -1.391525e+03
1.701650e+03 5.889457e+02 -1.524316e+03
1.700669e+03 5.891387e+02 -1.524305e+03
1.699374e+03 5.858443e+02 -1.585972e+03
1.698399e+03 5.860683e+02 -1.585968e+03
1.684717e+03 5.262844e+02 -1.579235e+03
1.689208e+03 5.304515e+02 -1.516912e+03
1.683719e+03 5.263242e+02 -1.579203e+03
1.688210e+03 5.304955e+02 -1.516858e+03
1.698963e+03 5.845139e+02 -1.647297e+03
1.697992e+03 5.847545e+02 -1.647297e+03
1.698553e+03 5.831900e+02 -1.708623e+03
1.697583e+03 5.834343e+02 -1.708625e+03
1.683111e+03 5.225010e+02 -1.703594e+03
1.683914e+03 5.243931e+02 -1.641410e+03
1.682111e+03 5.225330e+02 -1.703588e+03
1.682915e+03 5.244282e+02 -1.641400e+03
1.698374e+03 5.819627e+02 -1.768863e+03
1.697406e+03 5.822097e+02 -1.768866e+03
1.698196e+03 5.807358e+02 -1.829104e+03
1.697228e+03 5.809847e+02 -1.829107e+03
1.682449e+03 5.198039e+02 -1.826476e+03
1.682780e+03 5.211526e+02 -1.765035e+03
1.681449e+03 5.198319e+02 -1.826474e+03
1.681780e+03 5.211823e+02 -1.765031e+03
1.698194e+03 5.801549e+02 -1.890534e+03
1.697226e+03 5.804055e+02 -1.890537e+03
1.698191e+03 5.795742e+02 -1.951965e+03
1.697224e+03 5.798262e+02 -1.951967e+03
1.682487e+03 5.194630e+02 -1.952402e+03
1.682468e+03 5.196338e+02 -1.889438e+03
1.681487e+03 5.194912e+02 -1.952402e+03
1.681468e+03 5.196612e+02 -1.889439e+03
1.698166e+03 5.791346e+02 -2.015304e+03
1.697199e+03 5.793875e+02 -2.015306e+03
1.698141e+03 5.786952e+02 -2.078643e+03
1.697174e+03 5.789486e+02 -2.078645e+03
1.682401e+03 5.186857e+02 -2.079561e+03
1.682444e+03 5.190743e+02 -2.015981e+03
1.681401e+03 5.187143e+02 -2.079559e+03
1.681444e+03 5.191028e+02 -2.015981e+03
1.697932e+03 5.774277e+02 -2.140782e+03
1.696965e+03 5.776818e+02 -2.140784e+03
1.697722e+03 5.761599e+02 -2.202921e+03
1.696756e+03 5.764153e+02 -2.202923e+03
1.681607e+03 5.153571e+02 -2.201882e+03
1.682004e+03 5.170211e+02 -2.140723e+03
1.680607e+03 5.153825e+02 -2.201878e+03
1.681004e+03 5.170487e+02 -2.140717e+03
1.697625e+03 5.755087e+02 -2.266626e+03
1.696658e+03 5.757647e+02 -2.266627e+03
1.697528e+03 5.748577e+02 -2.330330e+03
1.696561e+03 5.751139e+02 -2.330332e+03
1.681220e+03 5.134009e+02 -2.326557e+03
1.681413e+03 5.143791e+02 -2.264219e+03
1.680220e+03 5.134229e+02 -2.326555e+03
1.680414e+03 5.144026e+02 -2.264217e+03
1.697491e+03 5.741770e+02 -2.392367e+03
1.696524e+03 5.744332e+02 -2.392369e+03
1.697453e+03 5.734964e+02 -2.454402e+03
1.696487e+03 5.737524e+02 -2.454407e+03
1.681093e+03 5.118610e+02 -2.450146e+03
1.681156e+03 5.126309e+02 -2.388352e+03
1.680093e+03 5.118808e+02 -2.450150e+03
1.680157e+03 5.126519e+02 -2.388352e+03
1.697835e+03 5.728208e+02 -2.514938e+03
1.696868e+03 5.730739e+02 -2.514944e+03
1.698217e+03 5.721467e+02 -2.575472e+03
1.697249e+03 5.723939e+02 -2.575482e+03
1.682624e+03 5.104612e+02 -2.571870e+03
1.681858e+03 5.111610e+02 -2.511010e+03
1.681624e+03 5.104784e+02 -2.571892e+03
1.680859e+03 5.111797e+02 -2.511019e+03
1.699556e+03 5.714707e+02 -2.634838e+03
1.698583e+03 5.717051e+02 -2.634852e+03
1.700894e+03 5.707981e+02 -2.694203e+03
1.699918e+03 5.710129e+02 -2.694222e+03
1.687923e+03 5.091599e+02 -2.691992e+03
1.685274e+03 5.098105e+02 -2.631932e+03
1.686925e+03 5.091735e+02 -2.692042e+03
1.684274e+03 5.098260e+02 -2.631966e+03
1.703502e+03 5.702986e+02 -2.753406e+03
1.702520e+03 5.704841e+02 -2.753430e+03
1.706111e+03 5.698039e+02 -2.812611e+03
1.705122e+03 5.699505e+02 -2.812636e+03
1.698201e+03 5.081253e+02 -2.811656e+03
1.693062e+03 5.086426e+02 -2.751821e+03
1.697203e+03 5.081341e+02 -2.811722e+03
1.692064e+03 5.086538e+02 -2.751885e+03
1.708893e+03 5.694508e+02 -2.872241e+03
1.707899e+03 5.695562e+02 -2.872266e+03
1.711674e+03 5.690986e+02 -2.931875e+03
1.710676e+03 5.691611e+02 -2.931893e+03
1.709149e+03 5.073911e+02 -2.931745e+03
1.703675e+03 5.077582e+02 -2.871695e+03
1.708151e+03 5.073949e+02 -2.931795e+03
1.702677e+03 5.077645e+02 -2.871764e+03
1.712978e+03 5.689169e+02 -2.992229e+03
1.711979e+03 5.689476e+02 -2.992241e+03
1.714282e+03 5.687244e+02 -3.052580e+03
1.713282e+03 5.687449e+02 -3.052592e+03
1.714282e+03 5.070476e+02 -3.052566e+03
1.711716e+03 5.072196e+02 -2.992160e+03
1.713282e+03 5.070488e+02 -3.052598e+03
1.710716e+03 5.072216e+02 -2.992192e+03
1.707125e+03 4.810151e+02 -1.384047e+03
1.706135e+03 4.810072e+02 -1.383909e+03
1.699974e+03 4.720646e+02 -1.447178e+03
1.698982e+03 4.720018e+02 -1.447078e+03
1.706254e+03 4.094503e+02 -1.439734e+03
1.710267e+03 4.189473e+02 -1.376417e+03
1.705258e+03 4.093971e+02 -1.439676e+03
1.709271e+03 4.189386e+02 -1.376327e+03
1.697745e+03 4.678218e+02 -1.509992e+03
1.696753e+03 4.677115e+02 -1.509931e+03
1.695514e+03 4.635742e+02 -1.572813e+03
1.694525e+03 4.634260e+02 -1.572776e+03
1.706318e+03 4.007492e+02 -1.566376e+03
1.706286e+03 4.051033e+02 -1.503049e+03
1.705324e+03 4.006426e+02 -1.566364e+03
1.705291e+03 4.050163e+02 -1.503026e+03
1.695332e+03 4.615885e+02 -1.635413e+03
1.694348e+03 4.614157e+02 -1.635399e+03
1.695152e+03 4.595952e+02 -1.698023e+03
1.694169e+03 4.594129e+02 -1.698012e+03
1.707206e+03 3.965521e+02 -1.692445e+03
1.706762e+03 3.986528e+02 -1.629408e+03
1.706214e+03 3.964301e+02 -1.692443e+03
1.705769e+03 3.985342e+02 -1.629406e+03
1.695123e+03 4.582889e+02 -1.760038e+03
1.694141e+03 4.580993e+02 -1.760032e+03
1.695094e+03 4.569814e+02 -1.822054e+03
1.694114e+03 4.567868e+02 -1.822051e+03
1.707755e+03 3.940133e+02 -1.817630e+03
1.707481e+03 3.952829e+02 -1.755037e+03
1.706763e+03 3.938873e+02 -1.817630e+03
1.706488e+03 3.951585e+02 -1.755037e+03
1.695162e+03 4.565671e+02 -1.884990e+03
1.694182e+03 4.563700e+02 -1.884990e+03
1.695230e+03 4.561515e+02 -1.947928e+03
1.694249e+03 4.559545e+02 -1.947928e+03
1.707988e+03 3.926920e+02 -1.943454e+03
1.707871e+03 3.933529e+02 -1.880542e+03
1.706996e+03 3.925658e+02 -1.943454e+03
1.706880e+03 3.932263e+02 -1.880542e+03
1.695251e+03 4.556857e+02 -2.011253e+03
1.694271e+03 4.554883e+02 -2.011252e+03
1.695273e+03 4.552199e+02 -2.074580e+03
1.694293e+03 4.550220e+02 -2.074574e+03
1.708161e+03 3.916050e+02 -2.069595e+03
1.708075e+03 3.921485e+02 -2.006524e+03
1.707169e+03 3.914788e+02 -2.069593e+03
1.707082e+03 3.920223e+02 -2.006524e+03
1.695153e+03 4.539611e+02 -2.136316e+03
1.694173e+03 4.537605e+02 -2.136307e+03
1.695032e+03 4.527038e+02 -2.198050e+03
1.694053e+03 4.524976e+02 -2.198043e+03
1.708474e+03 3.898964e+02 -2.194214e+03
1.708317e+03 3.907504e+02 -2.131905e+03
1.707482e+03 3.897668e+02 -2.194212e+03
1.707326e+03 3.906231e+02 -2.131902e+03
1.694999e+03 4.518428e+02 -2.260345e+03
1.694021e+03 4.516324e+02 -2.260340e+03
1.694965e+03 4.509811e+02 -2.322640e+03
1.693989e+03 4.507678e+02 -2.322637e+03
1.708730e+03 3.884031e+02 -2.318721e+03
1.708602e+03 3.891499e+02 -2.256467e+03
1.707738e+03 3.882709e+02 -2.318721e+03
1.707610e+03 3.890187e+02 -2.256467e+03
1.694991e+03 4.502721e+02 -2.384512e+03
1.694014e+03 4.500567e+02 -2.384509e+03
1.695016e+03 4.495629e+02 -2.446381e+03
1.694039e+03 4.493457e+02 -2.446384e+03
1.708958e+03 3.871045e+02 -2.442616e+03
1.708844e+03 3.877539e+02 -2.380669e+03
1.707966e+03 3.869709e+02 -2.442618e+03
1.707852e+03 3.876208e+02 -2.380669e+03
1.695508e+03 4.489199e+02 -2.507549e+03
1.694532e+03 4.487035e+02 -2.507557e+03
1.696001e+03 4.482755e+02 -2.568714e+03
1.695024e+03 4.480626e+02 -2.568734e+03
1.709397e+03 3.859332e+02 -2.565562e+03
1.709177e+03 3.865192e+02 -2.504090e+03
1.708405e+03 3.858034e+02 -2.565572e+03
1.708186e+03 3.863868e+02 -2.504094e+03
1.697564e+03 4.476854e+02 -2.629269e+03
1.696586e+03 4.474821e+02 -2.629301e+03
1.699128e+03 4.470921e+02 -2.689822e+03
1.698147e+03 4.469049e+02 -2.689870e+03
1.710348e+03 3.848869e+02 -2.687664e+03
1.709872e+03 3.854111e+02 -2.626613e+03
1.709354e+03 3.847737e+02 -2.687686e+03
1.708880e+03 3.852875e+02 -2.626629e+03
1.702098e+03 4.466119e+02 -2.750128e+03
1.701113e+03 4.464495e+02 -2.750194e+03
1.705068e+03 4.461271e+02 -2.810442e+03
1.704078e+03 4.459988e+02 -2.810510e+03
1.711942e+03 3.840347e+02 -2.809247e+03
1.711145e+03 3.844622e+02 -2.748454e+03
1.710946e+03 3.839577e+02 -2.809279e+03
1.710150e+03 3.843643e+02 -2.748484e+03
1.708208e+03 4.457773e+02 -2.870853e+03
1.707214e+03 4.456849e+02 -2.870924e+03
1.711348e+03 4.454266e+02 -2.931276e+03
1.710350e+03 4.453718e+02 -2.931327e+03
1.713548e+03 3.834217e+02 -2.930821e+03
1.712745e+03 3.837285e+02 -2.870032e+03
1.712548e+03 3.833891e+02 -2.930845e+03
1.711747e+03 3.836731e+02 -2.870064e+03
1.712815e+03 4.452625e+02 -2.991923e+03
1.711816e+03 4.452357e+02 -2.991956e+03
1.714282e+03 4.451079e+02 -3.052561e+03
1.713282e+03 4.450900e+02 -3.052594e+03
1.714282e+03 3.831550e+02 -3.052565e+03
1.713915e+03 3.832855e+02 -2.991695e+03
1.713282e+03 3.831444e+02 -3.052581e+03
1.712915e+03 3.832696e+02 -2.991711e+03
1.712357e+03 3.464737e+02 -1.368153e+03
1.711358e+03 3.464650e+02 -1.368106e+03
1.710432e+03 3.410363e+02 -1.432922e+03
1.709434e+03 3.409943e+02 -1.432896e+03
1.714610e+03 2.726172e+02 -1.426117e+03
1.714446e+03 2.739984e+02 -1.359894e+03
1.713610e+03 2.725966e+02 -1.426109e+03
1.713446e+03 2.739932e+02 -1.359879e+03
1.710499e+03 3.379940e+02 -1.496925e+03
1.709501e+03 3.379325e+02 -1.496923e+03
1.710565e+03 3.349430e+02 -1.560939e+03
1.709568e+03 3.348795e+02 -1.560939e+03
1.714812e+03 2.691416e+02 -1.555508e+03
1.714711e+03 2.708815e+02 -1.490811e+03
1.713812e+03 2.691116e+02 -1.555508e+03
1.713711e+03 2.708520e+02 -1.490810e+03
1.710809e+03 3.333189e+02 -1.624189e+03
1.709811e+03 3.332555e+02 -1.624193e+03
1.711053e+03 3.316935e+02 -1.687441e+03
1.710054e+03 3.316328e+02 -1.687444e+03
1.714897e+03 2.668493e+02 -1.682440e+03
1.714854e+03 2.679957e+02 -1.618974e+03
1.713897e+03 2.668211e+02 -1.682442e+03
1.713855e+03 2.679661e+02 -1.618975e+03
1.711203e+03 3.306790e+02 -1.750208e+03
1.710204e+03 3.306205e+02 -1.750210e+03
1.711353e+03 3.296647e+02 -1.812975e+03
1.710354e+03 3.296080e+02 -1.812976e+03
1.714948e+03 2.653353e+02 -1.808321e+03
1.714922e+03 2.660922e+02 -1.745381e+03
1.713948e+03 2.653095e+02 -1.808321e+03
1.713923e+03 2.660654e+02 -1.745381e+03
1.711418e+03 3.290946e+02 -1.875961e+03
1.710420e+03 3.290391e+02 -1.875962e+03
1.711484e+03 3.285247e+02 -1.938947e+03
1.710485e+03 3.284699e+02 -1.938948e+03
1.714977e+03 2.643781e+02 -1.934441e+03
1.714962e+03 2.648566e+02 -1.871381e+03
1.713977e+03 2.643533e+02 -1.934441e+03
1.713963e+03 2.648315e+02 -1.871381e+03
1.711533e+03 3.280656e+02 -2.002011e+03
1.710534e+03 3.280114e+02 -2.002011e+03
1.711581e+03 3.276065e+02 -2.065074e+03
1.710583e+03 3.275529e+02 -2.065075e+03
1.714999e+03 2.636295e+02 -2.060555e+03
1.714988e+03 2.640038e+02 -1.997498e+03
1.713999e+03 2.636055e+02 -2.060555e+03
1.713988e+03 2.639794e+02 -1.997498e+03
1.711666e+03 3.269631e+02 -2.127597e+03
1.710668e+03 3.269101e+02 -2.127599e+03
1.711751e+03 3.263195e+02 -2.190121e+03
1.710753e+03 3.262675e+02 -2.190122e+03
1.715026e+03 2.627670e+02 -2.186030e+03
1.715012e+03 2.631983e+02 -2.123292e+03
1.714026e+03 2.627438e+02 -2.186030e+03
1.714013e+03 2.631746e+02 -2.123293e+03
1.711822e+03 3.257382e+02 -2.252509e+03
1.710823e+03 3.256871e+02 -2.252510e+03
1.711892e+03 3.251570e+02 -2.314897e+03
1.710894e+03 3.251067e+02 -2.314899e+03
1.715052e+03 2.619378e+02 -2.311075e+03
1.715039e+03 2.623524e+02 -2.248552e+03
1.714052e+03 2.619156e+02 -2.311075e+03
1.714039e+03 2.623297e+02 -2.248553e+03
1.711955e+03 3.246420e+02 -2.377037e+03
1.710956e+03 3.245924e+02 -2.377038e+03
1.712017e+03 3.241271e+02 -2.439176e+03
1.711018e+03 3.240781e+02 -2.439177e+03
1.715073e+03 2.611782e+02 -2.435736e+03
1.715062e+03 2.615580e+02 -2.373405e+03
1.714073e+03 2.611568e+02 -2.435736e+03
1.714063e+03 2.615362e+02 -2.373406e+03
1.712122e+03 3.236616e+02 -2.500992e+03
1.711123e+03 3.236139e+02 -2.500994e+03
1.712226e+03 3.231960e+02 -2.562807e+03
1.711228e+03 3.231499e+02 -2.562811e+03
1.715053e+03 2.604876e+02 -2.560051e+03
1.715063e+03 2.608329e+02 -2.497893e+03
1.714053e+03 2.604676e+02 -2.560051e+03
1.714063e+03 2.608122e+02 -2.497894e+03
1.712435e+03 3.227828e+02 -2.624323e+03
1.711435e+03 3.227397e+02 -2.624328e+03
1.712643e+03 3.223690e+02 -2.685838e+03
1.711643e+03 3.223301e+02 -2.685846e+03
1.714935e+03 2.598772e+02 -2.684008e+03
1.714994e+03 2.601825e+02 -2.622029e+03
1.713935e+03 2.598604e+02 -2.684010e+03
1.713994e+03 2.601639e+02 -2.622031e+03
1.712978e+03 3.220334e+02 -2.747019e+03
1.711979e+03 3.220002e+02 -2.747028e+03
1.713313e+03 3.216970e+02 -2.808200e+03
1.712314e+03 3.216711e+02 -2.808209e+03
1.714683e+03 2.593774e+02 -2.807145e+03
1.714809e+03 2.596274e+02 -2.745577e+03
1.713683e+03 2.593664e+02 -2.807147e+03
1.713809e+03 2.596133e+02 -2.745578e+03
1.713646e+03 3.214542e+02 -2.869277e+03
1.712646e+03 3.214359e+02 -2.869286e+03
1.713979e+03 3.212114e+02 -2.930356e+03
1.712979e+03 3.212007e+02 -2.930362e+03
1.714410e+03 2.590090e+02 -2.929884e+03
1.714546e+03 2.591932e+02 -2.868515e+03
1.713410e+03 2.590044e+02 -2.929886e+03
1.713547e+03 2.591854e+02 -2.868516e+03
1.714130e+03 3.211018e+02 -2.991462e+03
1.713131e+03 3.210966e+02 -2.991466e+03
1.714282e+03 3.209941e+02 -3.052567e+03
1.713282e+03 3.209907e+02 -3.052571e+03
1.714282e+03 2.588358e+02 -3.052565e+03
1.714346e+03 2.589220e+02 -2.991225e+03
1.713282e+03 2.588344e+02 -3.052565e+03
1.713346e+03 2.589198e+02 -2.991225e+03
1.714364e+03 2.050231e+02 -1.353075e+03
1.713364e+03 2.050235e+02 -1.353077e+03
1.714446e+03 2.042917e+02 -1.421307e+03
1.713446e+03 2.042933e+02 -1.421308e+03
1.714282e+03 1.359772e+02 -1.416501e+03
1.714282e+03 1.360506e+02 -1.346265e+03
1.713282e+03 1.359790e+02 -1.416503e+03
1.713282e+03 1.360510e+02 -1.346266e+03
1.714496e+03 2.033870e+02 -1.486549e+03
1.713497e+03 2.033897e+02 -1.486550e+03
1.714547e+03 2.024825e+02 -1.551791e+03
1.713547e+03 2.024860e+02 -1.551791e+03
1.714282e+03 1.358401e+02 -1.548074e+03
1.714282e+03 1.359086e+02 -1.482288e+03
1.713282e+03 1.358437e+02 -1.548074e+03
1.713282e+03 1.359114e+02 -1.482288e+03
1.714568e+03 2.018768e+02 -1.614946e+03
1.713568e+03 2.018809e+02 -1.614947e+03
1.714589e+03 2.012713e+02 -1.678102e+03
1.713590e+03 2.012757e+02 -1.678103e+03
1.714282e+03 1.357096e+02 -1.673764e+03
1.714282e+03 1.357748e+02 -1.610919e+03
1.713282e+03 1.357140e+02 -1.673764e+03
1.713282e+03 1.357789e+02 -1.610919e+03
1.714602e+03 2.008605e+02 -1.740877e+03
1.713602e+03 2.008653e+02 -1.740878e+03
1.714615e+03 2.004497e+02 -1.803652e+03
1.713615e+03 2.004548e+02 -1.803653e+03
1.714282e+03 1.355796e+02 -1.798984e+03
1.714282e+03 1.356446e+02 -1.736374e+03
1.713282e+03 1.355846e+02 -1.798984e+03
1.713282e+03 1.356493e+02 -1.736374e+03
1.714622e+03 2.001777e+02 -1.866852e+03
1.713622e+03 2.001829e+02 -1.866853e+03
1.714629e+03 1.999057e+02 -1.930052e+03
1.713630e+03 1.999110e+02 -1.930053e+03
1.714282e+03 1.354483e+02 -1.925664e+03
1.714282e+03 1.355140e+02 -1.862324e+03
1.713282e+03 1.354537e+02 -1.925664e+03
1.713282e+03 1.355191e+02 -1.862324e+03
1.714635e+03 1.996859e+02 -1.993192e+03
1.713635e+03 1.996913e+02 -1.993192e+03
1.714640e+03 1.994660e+02 -2.056331e+03
1.713641e+03 1.994716e+02 -2.056331e+03
1.714282e+03 1.353173e+02 -2.052107e+03
1.714282e+03 1.353828e+02 -1.988885e+03
1.713282e+03 1.353229e+02 -2.052107e+03
1.713282e+03 1.353883e+02 -1.988886e+03
1.714647e+03 1.992178e+02 -2.119221e+03
1.713647e+03 1.992234e+02 -2.119221e+03
1.714654e+03 1.989696e+02 -2.182111e+03
1.713654e+03 1.989753e+02 -2.182112e+03
1.714282e+03 1.351866e+02 -2.178193e+03
1.714282e+03 1.352520e+02 -2.115150e+03
1.713282e+03 1.351924e+02 -2.178193e+03
1.713282e+03 1.352576e+02 -2.115150e+03
1.714660e+03 1.987298e+02 -2.244761e+03
1.713661e+03 1.987357e+02 -2.244762e+03
1.714667e+03 1.984901e+02 -2.307411e+03
1.713667e+03 1.984961e+02 -2.307412e+03
1.714282e+03 1.350565e+02 -2.303748e+03
1.714282e+03 1.351216e+02 -2.240970e+03
1.713282e+03 1.350625e+02 -2.303748e+03
1.713282e+03 1.351274e+02 -2.240971e+03
1.714672e+03 1.982678e+02 -2.369951e+03
1.713672e+03 1.982739e+02 -2.369951e+03
1.714677e+03 1.980454e+02 -2.432490e+03
1.713678e+03 1.980517e+02 -2.432490e+03
1.714282e+03 1.349265e+02 -2.429244e+03
1.714282e+03 1.349915e+02 -2.366496e+03
1.713282e+03 1.349327e+02 -2.429244e+03
1.713282e+03 1.349976e+02 -2.366496e+03
1.714672e+03 1.978404e+02 -2.495025e+03
1.713673e+03 1.978466e+02 -2.495025e+03
1.714667e+03 1.976354e+02 -2.557560e+03
1.713668e+03 1.976415e+02 -2.557559e+03
1.714282e+03 1.347962e+02 -2.555068e+03
1.714282e+03 1.348613e+02 -2.492156e+03
1.713282e+03 1.348024e+02 -2.555068e+03
1.713282e+03 1.348676e+02 -2.492156e+03
1.714638e+03 1.974506e+02 -2.620145e+03
1.713638e+03 1.974565e+02 -2.620144e+03
1.714608e+03 1.972659e+02 -2.682731e+03
1.713609e+03 1.972714e+02 -2.682729e+03
1.714282e+03 1.346658e+02 -2.681451e+03
1.714282e+03 1.347309e+02 -2.618260e+03
1.713282e+03 1.346712e+02 -2.681451e+03
1.713282e+03 1.347369e+02 -2.618259e+03
1.714545e+03 1.971099e+02 -2.744550e+03
1.713546e+03 1.971147e+02 -2.744548e+03
1.714482e+03 1.969541e+02 -2.806369e+03
1.713483e+03 1.969578e+02 -2.806368e+03
1.714282e+03 1.345381e+02 -2.805592e+03
1.714282e+03 1.346019e+02 -2.743522e+03
1.713282e+03 1.345419e+02 -2.805590e+03
1.713282e+03 1.346066e+02 -2.743520e+03
1.714414e+03 1.968314e+02 -2.867907e+03
1.713414e+03 1.968340e+02 -2.867905e+03
1.714346e+03 1.967087e+02 -2.929444e+03
1.713346e+03 1.967102e+02 -2.929442e+03
1.714282e+03 1.344114e+02 -2.929001e+03
1.714282e+03 1.344748e+02 -2.867297e+03
1.713282e+03 1.344130e+02 -2.929001e+03
1.713282e+03 1.344774e+02 -2.867295e+03
1.714314e+03 1.966342e+02 -2.991002e+03
1.713314e+03 1.966350e+02 -2.991001e+03
1.714282e+03 1.965594e+02 -3.052561e+03
1.713282e+03 1.965600e+02 -3.052560e+03
1.714282e+03 1.342840e+02 -3.052556e+03
1.714282e+03 1.343479e+02 -2.990779e+03
1.713282e+03 1.342846e+02 -3.052556e+03
1.713282e+03 1.343486e+02 -2.990778e+03
1.440040e+02 1.156661e+03 -2.092854e+03
1.342209e+02 1.145643e+03 -2.024834e+03
1.440754e+02 1.155675e+03 -2.093002e+03
1.342938e+02 1.144692e+03 -2.025136e+03
1.537852e+02 1.167663e+03 -2.160809e+03
1.538591e+02 1.166673e+03 -2.160933e+03
2.222576e+02 1.172707e+03 -2.159542e+03
2.147598e+02 1.161596e+03 -2.090997e+03
2.223314e+02 1.171717e+03 -2.159668e+03
2.148314e+02 1.160610e+03 -2.091148e+03
2.072603e+02 1.150470e+03 -2.022390e+03
2.073331e+02 1.149518e+03 -2.022690e+03
1.617422e+02 1.175217e+03 -2.229997e+03
1.618185e+02 1.174225e+03 -2.230095e+03
1.696998e+02 1.182772e+03 -2.299185e+03
1.697774e+02 1.181777e+03 -2.299257e+03
2.354121e+02 1.187687e+03 -2.295028e+03
2.288347e+02 1.180197e+03 -2.227285e+03
2.354897e+02 1.186693e+03 -2.295102e+03
2.289107e+02 1.179205e+03 -2.227385e+03
1.738414e+02 1.186113e+03 -2.363917e+03
1.739202e+02 1.185117e+03 -2.363961e+03
1.779833e+02 1.189454e+03 -2.428649e+03
1.780626e+02 1.188457e+03 -2.428665e+03
2.426188e+02 1.194588e+03 -2.422817e+03
2.390153e+02 1.191138e+03 -2.358922e+03
2.426982e+02 1.193592e+03 -2.422837e+03
2.390941e+02 1.190142e+03 -2.358970e+03
1.786453e+02 1.188896e+03 -2.488152e+03
1.787248e+02 1.187899e+03 -2.488140e+03
1.793071e+02 1.188338e+03 -2.547655e+03
1.793871e+02 1.187341e+03 -2.547615e+03
2.438500e+02 1.193820e+03 -2.542443e+03
2.432344e+02 1.194204e+03 -2.482630e+03
2.439302e+02 1.192824e+03 -2.542407e+03
2.433142e+02 1.193208e+03 -2.482622e+03
1.782373e+02 1.184372e+03 -2.607316e+03
1.783179e+02 1.183377e+03 -2.607250e+03
1.771674e+02 1.180405e+03 -2.666975e+03
1.772489e+02 1.179413e+03 -2.666886e+03
2.419582e+02 1.186367e+03 -2.660795e+03
2.429042e+02 1.190093e+03 -2.601621e+03
2.420398e+02 1.185373e+03 -2.660711e+03
2.429849e+02 1.189099e+03 -2.601557e+03
1.759944e+02 1.173724e+03 -2.727127e+03
1.760767e+02 1.172734e+03 -2.727017e+03
1.748210e+02 1.167044e+03 -2.787277e+03
1.749049e+02 1.166055e+03 -2.787150e+03
2.399108e+02 1.173432e+03 -2.781454e+03
2.409346e+02 1.179899e+03 -2.721126e+03
2.399948e+02 1.172444e+03 -2.781330e+03
2.410172e+02 1.178909e+03 -2.721019e+03
1.738303e+02 1.158103e+03 -2.848167e+03
1.739158e+02 1.157117e+03 -2.848022e+03
1.728393e+02 1.149163e+03 -2.909056e+03
1.729269e+02 1.148179e+03 -2.908896e+03
2.384337e+02 1.155855e+03 -2.904586e+03
2.391724e+02 1.164644e+03 -2.843020e+03
2.385215e+02 1.154871e+03 -2.904428e+03
2.392580e+02 1.163657e+03 -2.842879e+03
1.717431e+02 1.138553e+03 -2.968019e+03
1.718324e+02 1.137573e+03 -2.967843e+03
1.706471e+02 1.127945e+03 -3.026974e+03
1.707376e+02 1.126964e+03 -3.026798e+03
2.370531e+02 1.134114e+03 -3.027735e+03
2.377433e+02 1.144984e+03 -2.966164e+03
2.371437e+02 1.133134e+03 -3.027561e+03
2.378327e+02 1.144003e+03 -2.965991e+03
2.831556e+02 1.166303e+03 -2.088686e+03
2.767310e+02 1.155060e+03 -2.020065e+03
2.832272e+02 1.165317e+03 -2.088840e+03
2.768038e+02 1.154108e+03 -2.020364e+03
2.895784e+02 1.177530e+03 -2.157247e+03
2.896523e+02 1.176542e+03 -2.157376e+03
3.568993e+02 1.182354e+03 -2.154952e+03
3.515513e+02 1.171010e+03 -2.086375e+03
3.569731e+02 1.181366e+03 -2.155084e+03
3.516230e+02 1.170024e+03 -2.086532e+03
3.462017e+02 1.159650e+03 -2.017740e+03
3.462745e+02 1.158698e+03 -2.018038e+03
2.952598e+02 1.185079e+03 -2.224447e+03
2.953357e+02 1.184087e+03 -2.224551e+03
3.009414e+02 1.192627e+03 -2.291647e+03
3.010189e+02 1.191632e+03 -2.291725e+03
3.664706e+02 1.197566e+03 -2.288267e+03
3.616848e+02 1.189960e+03 -2.221609e+03
3.665482e+02 1.196572e+03 -2.288347e+03
3.617608e+02 1.188969e+03 -2.221716e+03
3.040945e+02 1.196178e+03 -2.355150e+03
3.041734e+02 1.195182e+03 -2.355201e+03
3.072480e+02 1.199729e+03 -2.418654e+03
3.073275e+02 1.198733e+03 -2.418677e+03
3.718772e+02 1.204870e+03 -2.414492e+03
3.691738e+02 1.201218e+03 -2.351379e+03
3.719568e+02 1.203874e+03 -2.414516e+03
3.692526e+02 1.200223e+03 -2.351432e+03
3.077920e+02 1.199480e+03 -2.478503e+03
3.078720e+02 1.198483e+03 -2.478496e+03
3.083360e+02 1.199231e+03 -2.538350e+03
3.084164e+02 1.198234e+03 -2.538317e+03
3.728220e+02 1.204641e+03 -2.534257e+03
3.723496e+02 1.204756e+03 -2.474375e+03
3.729026e+02 1.203645e+03 -2.534227e+03
3.724297e+02 1.203759e+03 -2.474371e+03
3.074942e+02 1.195663e+03 -2.597550e+03
3.075750e+02 1.194668e+03 -2.597490e+03
3.066521e+02 1.192095e+03 -2.656748e+03
3.067338e+02 1.191102e+03 -2.656666e+03
3.713460e+02 1.197824e+03 -2.652701e+03
3.720841e+02 1.201233e+03 -2.593480e+03
3.714278e+02 1.196830e+03 -2.652621e+03
3.721651e+02 1.200237e+03 -2.593423e+03
3.057607e+02 1.185781e+03 -2.717366e+03
3.058433e+02 1.184790e+03 -2.717263e+03
3.048690e+02 1.179468e+03 -2.777983e+03
3.049531e+02 1.178478e+03 -2.777862e+03
3.698272e+02 1.185503e+03 -2.774512e+03
3.705867e+02 1.191663e+03 -2.713607e+03
3.699114e+02 1.184513e+03 -2.774394e+03
3.706695e+02 1.190672e+03 -2.713507e+03
3.042902e+02 1.170778e+03 -2.840274e+03
3.043759e+02 1.169791e+03 -2.840136e+03
3.037111e+02 1.162088e+03 -2.902565e+03
3.037989e+02 1.161104e+03 -2.902411e+03
3.689885e+02 1.168321e+03 -2.900545e+03
3.694079e+02 1.176912e+03 -2.837529e+03
3.690763e+02 1.167337e+03 -2.900393e+03
3.694938e+02 1.175925e+03 -2.837393e+03
3.031870e+02 1.151148e+03 -2.965530e+03
3.032766e+02 1.150167e+03 -2.965359e+03
3.026633e+02 1.140210e+03 -3.028487e+03
3.027540e+02 1.139229e+03 -3.028316e+03
3.682735e+02 1.146306e+03 -3.029239e+03
3.686308e+02 1.157313e+03 -2.964896e+03
3.683643e+02 1.145324e+03 -3.029071e+03
3.687205e+02 1.156331e+03 -2.964728e+03
4.188532e+02 1.175633e+03 -2.084055e+03
4.142175e+02 1.164145e+03 -2.015464e+03
4.189250e+02 1.174649e+03 -2.084214e+03
4.142903e+02 1.163192e+03 -2.015761e+03
4.234874e+02 1.187108e+03 -2.152590e+03
4.235613e+02 1.186119e+03 -2.152724e+03
4.900755e+02 1.191861e+03 -2.150228e+03
4.861552e+02 1.180257e+03 -2.081735e+03
4.901495e+02 1.190873e+03 -2.150364e+03
4.862270e+02 1.179273e+03 -2.081897e+03
4.822333e+02 1.168639e+03 -2.013188e+03
4.823061e+02 1.167687e+03 -2.013484e+03
4.276188e+02 1.194813e+03 -2.219016e+03
4.276947e+02 1.193822e+03 -2.219125e+03
4.317504e+02 1.202518e+03 -2.285443e+03
4.318279e+02 1.201525e+03 -2.285526e+03
4.970301e+02 1.207471e+03 -2.282620e+03
4.935527e+02 1.199666e+03 -2.216423e+03
4.971077e+02 1.206477e+03 -2.282704e+03
4.936287e+02 1.198675e+03 -2.216535e+03
4.340849e+02 1.206267e+03 -2.348385e+03
4.341638e+02 1.205272e+03 -2.348440e+03
4.364196e+02 1.210016e+03 -2.411327e+03
4.364994e+02 1.209019e+03 -2.411354e+03
5.009621e+02 1.215161e+03 -2.408163e+03
4.989960e+02 1.211316e+03 -2.345391e+03
5.010419e+02 1.214165e+03 -2.408191e+03
4.990749e+02 1.210321e+03 -2.345448e+03
4.368270e+02 1.210007e+03 -2.471281e+03
4.369072e+02 1.209010e+03 -2.471279e+03
4.372343e+02 1.209998e+03 -2.531234e+03
4.373150e+02 1.209001e+03 -2.531205e+03
5.016466e+02 1.215354e+03 -2.528210e+03
5.013043e+02 1.215258e+03 -2.468187e+03
5.017274e+02 1.214358e+03 -2.528184e+03
5.013847e+02 1.214261e+03 -2.468187e+03
4.365936e+02 1.206704e+03 -2.590650e+03
4.366747e+02 1.205709e+03 -2.590595e+03
4.359527e+02 1.203410e+03 -2.650064e+03
4.360345e+02 1.202417e+03 -2.649987e+03
5.005593e+02 1.208997e+03 -2.647427e+03
5.011031e+02 1.212176e+03 -2.587820e+03
5.006413e+02 1.208003e+03 -2.647353e+03
5.011842e+02 1.211180e+03 -2.587767e+03
4.353072e+02 1.197367e+03 -2.711309e+03
4.353900e+02 1.196375e+03 -2.711210e+03
4.346615e+02 1.191324e+03 -2.772551e+03
4.347457e+02 1.190334e+03 -2.772436e+03
4.994957e+02 1.197145e+03 -2.770591e+03
5.000276e+02 1.203071e+03 -2.709010e+03
4.995801e+02 1.196155e+03 -2.770477e+03
5.001106e+02 1.202079e+03 -2.708914e+03
4.343396e+02 1.182828e+03 -2.836136e+03
4.344255e+02 1.181840e+03 -2.836003e+03
4.340176e+02 1.174331e+03 -2.899720e+03
4.341054e+02 1.173347e+03 -2.899570e+03
4.990466e+02 1.180342e+03 -2.898895e+03
4.992713e+02 1.188743e+03 -2.834743e+03
4.991346e+02 1.179356e+03 -2.898747e+03
4.993572e+02 1.187756e+03 -2.834612e+03
4.337468e+02 1.163347e+03 -2.964858e+03
4.338366e+02 1.162365e+03 -2.964691e+03
4.334765e+02 1.152364e+03 -3.029987e+03
4.335673e+02 1.151382e+03 -3.029821e+03
4.986794e+02 1.158422e+03 -3.030735e+03
4.988628e+02 1.169381e+03 -2.964819e+03
4.987704e+02 1.157440e+03 -3.030571e+03
4.989527e+02 1.168399e+03 -2.964655e+03
5.529711e+02 1.184853e+03 -2.079487e+03
5.496189e+02 1.173093e+03 -2.010933e+03
5.530429e+02 1.183869e+03 -2.079651e+03
5.496918e+02 1.172139e+03 -2.011227e+03
5.563217e+02 1.196600e+03 -2.147989e+03
5.563957e+02 1.195613e+03 -2.148128e+03
6.225679e+02 1.201340e+03 -2.145750e+03
6.197870e+02 1.189449e+03 -2.077239e+03
6.226419e+02 1.200352e+03 -2.145892e+03
6.198589e+02 1.188466e+03 -2.077406e+03
6.170046e+02 1.177546e+03 -2.008678e+03
6.170774e+02 1.176592e+03 -2.008970e+03
5.592348e+02 1.204519e+03 -2.214104e+03
5.593107e+02 1.203529e+03 -2.214218e+03
5.621480e+02 1.212438e+03 -2.280221e+03
5.622256e+02 1.211445e+03 -2.280307e+03
6.272658e+02 1.217406e+03 -2.277822e+03
6.249168e+02 1.209373e+03 -2.211785e+03
6.273436e+02 1.216412e+03 -2.277910e+03
6.249928e+02 1.208382e+03 -2.211902e+03
5.637862e+02 1.216376e+03 -2.342969e+03
5.638652e+02 1.215381e+03 -2.343028e+03
5.654246e+02 1.220314e+03 -2.405718e+03
5.655045e+02 1.219317e+03 -2.405749e+03
6.298871e+02 1.225466e+03 -2.403274e+03
6.285764e+02 1.221436e+03 -2.340547e+03
6.299671e+02 1.224470e+03 -2.403306e+03
6.286554e+02 1.220441e+03 -2.340609e+03
5.657094e+02 1.220493e+03 -2.465918e+03
5.657899e+02 1.219497e+03 -2.465920e+03
5.659943e+02 1.220673e+03 -2.526116e+03
5.660752e+02 1.219676e+03 -2.526092e+03
6.303420e+02 1.225991e+03 -2.524023e+03
6.301146e+02 1.225729e+03 -2.463649e+03
6.304230e+02 1.224995e+03 -2.523999e+03
6.301950e+02 1.224732e+03 -2.463652e+03
5.655444e+02 1.217577e+03 -2.586024e+03
5.656256e+02 1.216582e+03 -2.585972e+03
5.650942e+02 1.214482e+03 -2.645928e+03
5.651763e+02 1.213488e+03 -2.645856e+03
6.296291e+02 1.219967e+03 -2.644430e+03
6.299856e+02 1.222979e+03 -2.584228e+03
6.297113e+02 1.218973e+03 -2.644358e+03
6.300671e+02 1.221984e+03 -2.584177e+03
5.646621e+02 1.208649e+03 -2.707854e+03
5.647452e+02 1.207657e+03 -2.707761e+03
5.642298e+02 1.202817e+03 -2.769778e+03
5.643143e+02 1.201826e+03 -2.769668e+03
6.289639e+02 1.208488e+03 -2.768966e+03
6.292966e+02 1.214228e+03 -2.706699e+03
6.290485e+02 1.207498e+03 -2.768858e+03
6.293798e+02 1.213235e+03 -2.706607e+03
5.640654e+02 1.194514e+03 -2.834320e+03
5.641514e+02 1.193526e+03 -2.834193e+03
5.639007e+02 1.186211e+03 -2.898863e+03
5.639888e+02 1.185226e+03 -2.898717e+03
6.287548e+02 1.192081e+03 -2.898830e+03
6.288595e+02 1.200285e+03 -2.833898e+03
6.288430e+02 1.191095e+03 -2.898688e+03
6.289456e+02 1.199296e+03 -2.833773e+03
5.637729e+02 1.175334e+03 -2.965176e+03
5.638629e+02 1.174351e+03 -2.965013e+03
5.636456e+02 1.164458e+03 -3.031480e+03
5.637365e+02 1.163475e+03 -3.031318e+03
6.286117e+02 1.170493e+03 -3.032225e+03
6.286830e+02 1.181286e+03 -2.965532e+03
6.287027e+02 1.169511e+03 -3.032065e+03
6.287731e+02 1.180304e+03 -2.965372e+03
6.865248e+02 1.194034e+03 -2.074972e+03
6.843321e+02 1.181994e+03 -2.006425e+03
6.865968e+02 1.193051e+03 -2.075141e+03
6.844048e+02 1.181041e+03 -2.006716e+03
6.887161e+02 1.206061e+03 -2.143470e+03
6.887902e+02 1.205074e+03 -2.143615e+03
7.548644e+02 1.210782e+03 -2.141191e+03
7.532626e+02 1.198619e+03 -2.072705e+03
7.549384e+02 1.209796e+03 -2.141337e+03
7.533347e+02 1.197636e+03 -2.072876e+03
7.516595e+02 1.186443e+03 -2.004172e+03
7.517323e+02 1.185489e+03 -2.004462e+03
6.905133e+02 1.214216e+03 -2.209501e+03
6.905892e+02 1.213226e+03 -2.209619e+03
6.923105e+02 1.222371e+03 -2.275532e+03
6.923882e+02 1.221378e+03 -2.275623e+03
7.573552e+02 1.227336e+03 -2.273242e+03
7.561097e+02 1.219059e+03 -2.207216e+03
7.574328e+02 1.226344e+03 -2.273336e+03
7.561857e+02 1.218070e+03 -2.207337e+03
6.933034e+02 1.226499e+03 -2.338428e+03
6.933824e+02 1.225505e+03 -2.338491e+03
6.942964e+02 1.230628e+03 -2.401325e+03
6.943764e+02 1.229631e+03 -2.401359e+03
7.587057e+02 1.235789e+03 -2.399376e+03
7.580304e+02 1.231563e+03 -2.336309e+03
7.587857e+02 1.234793e+03 -2.399412e+03
7.581093e+02 1.230568e+03 -2.336374e+03
6.944684e+02 1.230955e+03 -2.462093e+03
6.945489e+02 1.229958e+03 -2.462098e+03
6.946403e+02 1.231281e+03 -2.522860e+03
6.947214e+02 1.230285e+03 -2.522838e+03
7.589386e+02 1.236571e+03 -2.521698e+03
7.588222e+02 1.236180e+03 -2.460538e+03
7.590198e+02 1.235575e+03 -2.521676e+03
7.589027e+02 1.235184e+03 -2.460543e+03
6.943736e+02 1.228318e+03 -2.583521e+03
6.944551e+02 1.227323e+03 -2.583472e+03
6.941066e+02 1.225356e+03 -2.644179e+03
6.941890e+02 1.224361e+03 -2.644110e+03
7.585842e+02 1.230744e+03 -2.643929e+03
7.587615e+02 1.233658e+03 -2.582815e+03
7.586666e+02 1.229750e+03 -2.643861e+03
7.588431e+02 1.232662e+03 -2.582767e+03
6.938618e+02 1.219686e+03 -2.706790e+03
6.939452e+02 1.218693e+03 -2.706700e+03
6.936169e+02 1.214016e+03 -2.769399e+03
6.937015e+02 1.213025e+03 -2.769291e+03
7.582698e+02 1.219543e+03 -2.769831e+03
7.584270e+02 1.225144e+03 -2.706881e+03
7.583546e+02 1.218553e+03 -2.769725e+03
7.585106e+02 1.224151e+03 -2.706792e+03
6.935477e+02 1.205920e+03 -2.834496e+03
6.936340e+02 1.204932e+03 -2.834372e+03
6.934783e+02 1.197825e+03 -2.899593e+03
6.935666e+02 1.196838e+03 -2.899452e+03
7.582018e+02 1.203568e+03 -2.900356e+03
7.582358e+02 1.211556e+03 -2.835093e+03
7.582902e+02 1.202582e+03 -2.900216e+03
7.583224e+02 1.210567e+03 -2.834971e+03
6.934418e+02 1.187168e+03 -2.966285e+03
6.935319e+02 1.186185e+03 -2.966127e+03
6.934057e+02 1.176514e+03 -3.032968e+03
6.934969e+02 1.175530e+03 -3.032810e+03
7.581998e+02 1.182534e+03 -3.033711e+03
7.582005e+02 1.193050e+03 -2.967038e+03
7.582910e+02 1.181550e+03 -3.033555e+03
7.582909e+02 1.192067e+03 -2.966881e+03
8.203633e+02 1.203181e+03 -2.070138e+03
8.195616e+02 1.190930e+03 -2.001899e+03
8.204354e+02 1.202198e+03 -2.070312e+03
8.196343e+02 1.189976e+03 -2.002189e+03
8.211637e+02 1.215419e+03 -2.138331e+03
8.212377e+02 1.214433e+03 -2.138480e+03
8.875000e+02 1.220057e+03 -2.135472e+03
8.875000e+02 1.207744e+03 -2.067571e+03
8.875000e+02 1.219069e+03 -2.135622e+03
8.875000e+02 1.206759e+03 -2.067747e+03
8.875000e+02 1.195419e+03 -1.999626e+03
8.875000e+02 1.194461e+03 -1.999916e+03
8.217859e+02 1.223829e+03 -2.204361e+03
8.218618e+02 1.222840e+03 -2.204485e+03
8.224082e+02 1.232240e+03 -2.270393e+03
8.224858e+02 1.231247e+03 -2.270489e+03
8.875000e+02 1.237145e+03 -2.267545e+03
8.875000e+02 1.228601e+03 -2.201507e+03
8.875000e+02 1.236149e+03 -2.267641e+03
8.875000e+02 1.227609e+03 -2.201633e+03
8.227455e+02 1.236597e+03 -2.334033e+03
8.228243e+02 1.235603e+03 -2.334099e+03
8.230829e+02 1.240955e+03 -2.397673e+03
8.231628e+02 1.239958e+03 -2.397709e+03
8.875000e+02 1.246122e+03 -2.395969e+03
8.875000e+02 1.241633e+03 -2.331757e+03
8.875000e+02 1.245122e+03 -2.396007e+03
8.875000e+02 1.240636e+03 -2.331824e+03
8.231410e+02 1.241394e+03 -2.459705e+03
8.232215e+02 1.240397e+03 -2.459711e+03
8.231990e+02 1.241832e+03 -2.521735e+03
8.232802e+02 1.240836e+03 -2.521715e+03
8.875000e+02 1.247095e+03 -2.521773e+03
8.875000e+02 1.246608e+03 -2.458872e+03
8.875000e+02 1.246095e+03 -2.521753e+03
8.875000e+02 1.245609e+03 -2.458879e+03
8.231103e+02 1.238921e+03 -2.583624e+03
8.231920e+02 1.237925e+03 -2.583577e+03
8.230214e+02 1.236010e+03 -2.645510e+03
8.231040e+02 1.235015e+03 -2.645443e+03
8.875000e+02 1.241277e+03 -2.647092e+03
8.875000e+02 1.244186e+03 -2.584434e+03
8.875000e+02 1.240279e+03 -2.647024e+03
8.875000e+02 1.243187e+03 -2.584387e+03
8.229425e+02 1.230449e+03 -2.708775e+03
8.230263e+02 1.229456e+03 -2.708687e+03
8.228636e+02 1.224888e+03 -2.772038e+03
8.229486e+02 1.223897e+03 -2.771934e+03
8.875000e+02 1.230234e+03 -2.774246e+03
8.875000e+02 1.235756e+03 -2.710670e+03
8.875000e+02 1.229240e+03 -2.774142e+03
8.875000e+02 1.234759e+03 -2.710582e+03
8.228462e+02 1.217026e+03 -2.837116e+03
8.229329e+02 1.216037e+03 -2.836996e+03
8.228287e+02 1.209164e+03 -2.902194e+03
8.229173e+02 1.208178e+03 -2.902057e+03
8.875000e+02 1.214762e+03 -2.904034e+03
8.875000e+02 1.222498e+03 -2.839139e+03
8.875000e+02 1.213772e+03 -2.903896e+03
8.875000e+02 1.221506e+03 -2.839020e+03
8.228276e+02 1.198851e+03 -2.968327e+03
8.229181e+02 1.197867e+03 -2.968173e+03
8.228270e+02 1.188538e+03 -3.034452e+03
8.229184e+02 1.187555e+03 -3.034298e+03
8.875000e+02 1.194545e+03 -3.035194e+03
8.875000e+02 1.204653e+03 -2.969618e+03
8.875000e+02 1.193557e+03 -3.035040e+03
8.875000e+02 1.203665e+03 -2.969464e+03
1.671244e+03 1.177781e+03 -2.303543e+03
1.701285e+03 1.109745e+03 -2.312938e+03
1.710676e+03 1.102335e+03 -2.236454e+03
1.680586e+03 1.170161e+03 -2.232866e+03
1.670668e+03 1.176963e+03 -2.303553e+03
1.700374e+03 1.109336e+03 -2.312890e+03
1.709766e+03 1.101926e+03 -2.236380e+03
1.680011e+03 1.169343e+03 -2.232878e+03
1.731189e+03 1.041822e+03 -2.322308e+03
1.740629e+03 1.034618e+03 -2.240009e+03
1.730217e+03 1.041596e+03 -2.322252e+03
1.739658e+03 1.034400e+03 -2.239915e+03
1.750073e+03 1.027406e+03 -2.157678e+03
1.720068e+03 1.094923e+03 -2.159955e+03
1.749095e+03 1.027212e+03 -2.157610e+03
1.719157e+03 1.094518e+03 -2.159885e+03
1.689929e+03 1.162540e+03 -2.162186e+03
1.689353e+03 1.161724e+03 -2.162206e+03
1.727815e+03 1.084255e+03 -2.078739e+03
1.702008e+03 1.151639e+03 -2.094801e+03
1.726889e+03 1.083884e+03 -2.078666e+03
1.701415e+03 1.150834e+03 -2.094825e+03
1.753486e+03 1.016982e+03 -2.062613e+03
1.752499e+03 1.016822e+03 -2.062572e+03
1.756896e+03 1.006563e+03 -1.967532e+03
1.735558e+03 1.073597e+03 -1.997461e+03
1.755906e+03 1.006427e+03 -1.967550e+03
1.734625e+03 1.073239e+03 -1.997510e+03
1.714081e+03 1.140729e+03 -2.027329e+03
1.713483e+03 1.139953e+03 -2.027531e+03
1.734777e+03 1.044749e+03 -1.930116e+03
1.714065e+03 1.102196e+03 -1.950793e+03
1.733871e+03 1.044368e+03 -1.930299e+03
1.713499e+03 1.101459e+03 -1.951163e+03
1.755359e+03 9.873565e+02 -1.909396e+03
1.754372e+03 9.872224e+02 -1.909478e+03
1.753823e+03 9.681554e+02 -1.851286e+03
1.734002e+03 1.015902e+03 -1.862828e+03
1.752837e+03 9.680124e+02 -1.851380e+03
1.733110e+03 1.015496e+03 -1.863031e+03
1.714059e+03 1.063684e+03 -1.874335e+03
1.713505e+03 1.062944e+03 -1.874717e+03
1.733221e+03 9.913874e+02 -1.812688e+03
1.714056e+03 1.034000e+03 -1.818060e+03
1.732341e+03 9.909667e+02 -1.812909e+03
1.713508e+03 1.033260e+03 -1.818450e+03
1.752272e+03 9.487971e+02 -1.807292e+03
1.751287e+03 9.486511e+02 -1.807392e+03
1.750721e+03 9.294312e+02 -1.763291e+03
1.732443e+03 9.668659e+02 -1.762549e+03
1.749737e+03 9.292974e+02 -1.763411e+03
1.731568e+03 9.664444e+02 -1.762786e+03
1.714056e+03 1.004311e+03 -1.761780e+03
1.713508e+03 1.003581e+03 -1.762188e+03
1.730788e+03 9.450018e+02 -1.721465e+03
1.714057e+03 9.774755e+02 -1.716292e+03
1.729914e+03 9.445860e+02 -1.721716e+03
1.713507e+03 9.767558e+02 -1.716716e+03
1.747412e+03 9.125315e+02 -1.726609e+03
1.746428e+03 9.124128e+02 -1.726746e+03
1.744102e+03 8.956299e+02 -1.689926e+03
1.729136e+03 9.231315e+02 -1.680383e+03
1.743120e+03 8.955301e+02 -1.690082e+03
1.728257e+03 9.227338e+02 -1.680645e+03
1.714061e+03 9.506360e+02 -1.670802e+03
1.713503e+03 9.499346e+02 -1.671246e+03
1.726037e+03 9.007616e+02 -1.641210e+03
1.714067e+03 9.240010e+02 -1.631588e+03
1.725146e+03 9.003921e+02 -1.641477e+03
1.713497e+03 9.233216e+02 -1.632049e+03
1.737891e+03 8.775328e+02 -1.650780e+03
1.736911e+03 8.774520e+02 -1.650957e+03
1.731682e+03 8.594401e+02 -1.611648e+03
1.722942e+03 8.783872e+02 -1.602051e+03
1.730700e+03 8.593695e+02 -1.611818e+03
1.722031e+03 8.780549e+02 -1.602295e+03
1.714079e+03 8.973680e+02 -1.592384e+03
1.713485e+03 8.967066e+02 -1.592842e+03
1.720599e+03 8.609022e+02 -1.570054e+03
1.714090e+03 8.733898e+02 -1.558504e+03
1.719670e+03 8.606047e+02 -1.570275e+03
1.713474e+03 8.727463e+02 -1.558959e+03
1.726979e+03 8.484745e+02 -1.581514e+03
1.725995e+03 8.484031e+02 -1.581682e+03
1.722277e+03 8.374917e+02 -1.551386e+03
1.718270e+03 8.433616e+02 -1.538073e+03
1.721289e+03 8.374539e+02 -1.551540e+03
1.717295e+03 8.432100e+02 -1.538240e+03
1.714117e+03 8.494022e+02 -1.524636e+03
1.713447e+03 8.487954e+02 -1.525064e+03
1.733545e+03 9.697019e+02 -2.327395e+03
1.739722e+03 9.628266e+02 -2.247983e+03
1.732548e+03 9.696656e+02 -2.327341e+03
1.738727e+03 9.628082e+02 -2.247889e+03
1.735889e+03 8.976296e+02 -2.332473e+03
1.738803e+03 8.910893e+02 -2.255942e+03
1.734891e+03 8.976874e+02 -2.332439e+03
1.737807e+03 8.911622e+02 -2.255879e+03
1.741716e+03 8.845374e+02 -2.179386e+03
1.745901e+03 9.559371e+02 -2.168537e+03
1.740724e+03 8.846486e+02 -2.179344e+03
1.744903e+03 9.559649e+02 -2.168472e+03
1.725080e+03 8.273496e+02 -2.336279e+03
1.726536e+03 8.242689e+02 -2.263567e+03
1.724092e+03 8.275005e+02 -2.336259e+03
1.725551e+03 8.244318e+02 -2.263528e+03
1.727991e+03 8.211791e+02 -2.190839e+03
1.727011e+03 8.213722e+02 -2.190814e+03
1.747335e+03 9.470279e+02 -2.082894e+03
1.746338e+03 9.470936e+02 -2.082861e+03
1.741175e+03 8.771491e+02 -2.103172e+03
1.740186e+03 8.772900e+02 -2.103153e+03
1.740634e+03 8.697649e+02 -2.026964e+03
1.748769e+03 9.381220e+02 -1.997260e+03
1.739648e+03 8.699273e+02 -2.026956e+03
1.747773e+03 9.382191e+02 -1.997241e+03
1.727720e+03 8.176637e+02 -2.120082e+03
1.726743e+03 8.178775e+02 -2.120072e+03
1.727449e+03 8.141533e+02 -2.049330e+03
1.726474e+03 8.143778e+02 -2.049326e+03
1.747047e+03 9.247434e+02 -1.938679e+03
1.746055e+03 9.248656e+02 -1.938673e+03
1.738729e+03 8.622303e+02 -1.967914e+03
1.737745e+03 8.624088e+02 -1.967916e+03
1.736824e+03 8.547010e+02 -1.908872e+03
1.745327e+03 9.113714e+02 -1.880108e+03
1.735842e+03 8.548850e+02 -1.908868e+03
1.744336e+03 9.115055e+02 -1.880095e+03
1.726496e+03 8.105636e+02 -1.988009e+03
1.725523e+03 8.107948e+02 -1.988011e+03
1.725544e+03 8.069779e+02 -1.926693e+03
1.724571e+03 8.072077e+02 -1.926692e+03
1.743737e+03 8.975992e+02 -1.832166e+03
1.742748e+03 8.977464e+02 -1.832147e+03
1.735196e+03 8.465260e+02 -1.856976e+03
1.734215e+03 8.467170e+02 -1.856967e+03
1.733567e+03 8.383471e+02 -1.805073e+03
1.742146e+03 8.838214e+02 -1.784216e+03
1.732589e+03 8.385529e+02 -1.805073e+03
1.741161e+03 8.839929e+02 -1.784208e+03
1.724730e+03 8.030526e+02 -1.871837e+03
1.723757e+03 8.032833e+02 -1.871834e+03
1.723916e+03 7.991246e+02 -1.816978e+03
1.722944e+03 7.993615e+02 -1.816979e+03
1.739189e+03 8.711477e+02 -1.740707e+03
1.738208e+03 8.713403e+02 -1.740712e+03
1.730965e+03 8.299075e+02 -1.754736e+03
1.729989e+03 8.301242e+02 -1.754747e+03
1.728364e+03 8.214715e+02 -1.704398e+03
1.736233e+03 8.584774e+02 -1.697194e+03
1.727388e+03 8.216919e+02 -1.704422e+03
1.735254e+03 8.586843e+02 -1.697220e+03
1.722615e+03 7.950616e+02 -1.764003e+03
1.721644e+03 7.952997e+02 -1.764011e+03
1.721315e+03 7.910020e+02 -1.711028e+03
1.720343e+03 7.912346e+02 -1.711044e+03
1.731624e+03 8.460782e+02 -1.654745e+03
1.730648e+03 8.462878e+02 -1.654796e+03
1.725359e+03 8.147671e+02 -1.658653e+03
1.724383e+03 8.149802e+02 -1.658692e+03
1.722357e+03 8.080718e+02 -1.612913e+03
1.727018e+03 8.336895e+02 -1.612302e+03
1.721375e+03 8.082594e+02 -1.612957e+03
1.726039e+03 8.338809e+02 -1.612366e+03
1.719814e+03 7.878102e+02 -1.660456e+03
1.718839e+03 7.880266e+02 -1.660479e+03
1.718315e+03 7.846261e+02 -1.609886e+03
1.717333e+03 7.848109e+02 -1.609912e+03
1.723621e+03 8.265986e+02 -1.576484e+03
1.722636e+03 8.267548e+02 -1.576564e+03
1.720264e+03 8.048396e+02 -1.571424e+03
1.719276e+03 8.049895e+02 -1.571475e+03
1.718171e+03 8.016119e+02 -1.529941e+03
1.720224e+03 8.195202e+02 -1.540669e+03
1.717177e+03 8.017151e+02 -1.529987e+03
1.719233e+03 8.196161e+02 -1.540758e+03
1.717271e+03 7.831789e+02 -1.560703e+03
1.716281e+03 7.833235e+02 -1.560731e+03
1.716225e+03 7.817313e+02 -1.511526e+03
1.715231e+03 7.818366e+02 -1.511545e+03
1.715254e+03 7.829935e+02 -1.458772e+03
1.714256e+03 7.830530e+02 -1.458781e+03
1.714166e+03 7.845547e+02 -1.405885e+03
1.713398e+03 7.839704e+02 -1.406150e+03
1.714160e+03 8.061388e+02 -1.456523e+03
1.716227e+03 8.037380e+02 -1.493306e+03
1.713404e+03 8.055694e+02 -1.456847e+03
1.715229e+03 8.037796e+02 -1.493343e+03
1.717253e+03 8.235171e+02 -1.515698e+03
1.716257e+03 8.235275e+02 -1.515783e+03
1.714149e+03 8.277550e+02 -1.490573e+03
1.713415e+03 8.271979e+02 -1.490962e+03
1.724845e+03 8.286876e+02 -2.401903e+03
1.723856e+03 8.288362e+02 -2.401901e+03
1.735418e+03 9.006573e+02 -2.400457e+03
1.734419e+03 9.007112e+02 -2.400451e+03
1.734947e+03 9.036886e+02 -2.468454e+03
1.724609e+03 8.300277e+02 -2.467536e+03
1.733947e+03 9.037314e+02 -2.468450e+03
1.723620e+03 8.301698e+02 -2.467534e+03
1.731887e+03 9.729654e+02 -2.395681e+03
1.730888e+03 9.729238e+02 -2.395668e+03
1.728342e+03 1.045320e+03 -2.390905e+03
1.727370e+03 1.045090e+03 -2.390885e+03
1.725494e+03 1.048823e+03 -2.459518e+03
1.730227e+03 9.762342e+02 -2.463985e+03
1.724524e+03 1.048579e+03 -2.459502e+03
1.729229e+03 9.761768e+02 -2.463977e+03
1.697511e+03 1.113113e+03 -2.380365e+03
1.696600e+03 1.112702e+03 -2.380342e+03
1.666542e+03 1.181020e+03 -2.369808e+03
1.665967e+03 1.180201e+03 -2.369816e+03
1.661838e+03 1.184260e+03 -2.436078e+03
1.693734e+03 1.116486e+03 -2.447802e+03
1.661268e+03 1.183438e+03 -2.436074e+03
1.692828e+03 1.116064e+03 -2.447784e+03
1.724588e+03 8.304397e+02 -2.527202e+03
1.723598e+03 8.305779e+02 -2.527201e+03
1.734904e+03 9.048441e+02 -2.528231e+03
1.733904e+03 9.048789e+02 -2.528231e+03
1.734861e+03 9.059981e+02 -2.588011e+03
1.724567e+03 8.308506e+02 -2.586868e+03
1.733861e+03 9.060279e+02 -2.588009e+03
1.723576e+03 8.309872e+02 -2.586868e+03
1.729617e+03 9.771958e+02 -2.523672e+03
1.728619e+03 9.771267e+02 -2.523668e+03
1.724316e+03 1.049587e+03 -2.519114e+03
1.723348e+03 1.049335e+03 -2.519104e+03
1.723138e+03 1.050350e+03 -2.578712e+03
1.729007e+03 9.781556e+02 -2.583361e+03
1.722172e+03 1.050092e+03 -2.578704e+03
1.728009e+03 9.780784e+02 -2.583357e+03
1.692825e+03 1.116413e+03 -2.508660e+03
1.691921e+03 1.115986e+03 -2.508647e+03
1.661198e+03 1.183349e+03 -2.498207e+03
1.660630e+03 1.182526e+03 -2.498190e+03
1.660559e+03 1.182437e+03 -2.560337e+03
1.691917e+03 1.116338e+03 -2.569520e+03
1.659991e+03 1.181615e+03 -2.560305e+03
1.691013e+03 1.115909e+03 -2.569509e+03
1.724359e+03 8.306488e+02 -2.642954e+03
1.723369e+03 8.307831e+02 -2.642952e+03
1.734446e+03 9.059116e+02 -2.642979e+03
1.733446e+03 9.059391e+02 -2.642974e+03
1.734031e+03 9.058240e+02 -2.697951e+03
1.724152e+03 8.304473e+02 -2.699040e+03
1.733031e+03 9.058514e+02 -2.697935e+03
1.723161e+03 8.305786e+02 -2.699036e+03
1.728914e+03 9.774746e+02 -2.638204e+03
1.727917e+03 9.773953e+02 -2.638199e+03
1.723368e+03 1.049074e+03 -2.633429e+03
1.722402e+03 1.048815e+03 -2.633424e+03
1.723598e+03 1.047797e+03 -2.688150e+03
1.728821e+03 9.767910e+02 -2.693052e+03
1.722632e+03 1.047539e+03 -2.688140e+03
1.727825e+03 9.767147e+02 -2.693036e+03
1.692648e+03 1.113526e+03 -2.626679e+03
1.691745e+03 1.113096e+03 -2.626672e+03
1.661791e+03 1.178089e+03 -2.619948e+03
1.661224e+03 1.177267e+03 -2.619901e+03
1.663023e+03 1.173741e+03 -2.679559e+03
1.693378e+03 1.110715e+03 -2.683843e+03
1.662457e+03 1.172919e+03 -2.679497e+03
1.692477e+03 1.110283e+03 -2.683830e+03
1.723154e+03 8.296737e+02 -2.754377e+03
1.722162e+03 8.297974e+02 -2.754370e+03
1.732034e+03 9.045847e+02 -2.751855e+03
1.731034e+03 9.046130e+02 -2.751828e+03
1.730036e+03 9.033452e+02 -2.805763e+03
1.722156e+03 8.289028e+02 -2.809716e+03
1.729038e+03 9.033748e+02 -2.805717e+03
1.721163e+03 8.290136e+02 -2.809702e+03
1.728116e+03 9.745519e+02 -2.747112e+03
1.727119e+03 9.744855e+02 -2.747085e+03
1.724184e+03 1.044566e+03 -2.742363e+03
1.723217e+03 1.044311e+03 -2.742347e+03
1.724770e+03 1.041334e+03 -2.796579e+03
1.727410e+03 9.723095e+02 -2.801175e+03
1.723802e+03 1.041084e+03 -2.796551e+03
1.726413e+03 9.722595e+02 -2.801130e+03
1.694311e+03 1.105677e+03 -2.740327e+03
1.693412e+03 1.105240e+03 -2.740306e+03
1.664305e+03 1.166889e+03 -2.738318e+03
1.663741e+03 1.166067e+03 -2.738238e+03
1.665587e+03 1.160037e+03 -2.797075e+03
1.695244e+03 1.100639e+03 -2.796811e+03
1.665025e+03 1.159215e+03 -2.796981e+03
1.694348e+03 1.100196e+03 -2.796782e+03
1.719752e+03 8.272913e+02 -2.866902e+03
1.718756e+03 8.273801e+02 -2.866883e+03
1.725225e+03 9.004228e+02 -2.861987e+03
1.724227e+03 9.004544e+02 -2.861924e+03
1.720412e+03 8.975006e+02 -2.918219e+03
1.717347e+03 8.256851e+02 -2.924091e+03
1.719418e+03 8.975338e+02 -2.918123e+03
1.716350e+03 8.257413e+02 -2.924060e+03
1.725193e+03 9.681356e+02 -2.858246e+03
1.724195e+03 9.681125e+02 -2.858183e+03
1.725147e+03 1.035930e+03 -2.854494e+03
1.724177e+03 1.035689e+03 -2.854454e+03
1.725518e+03 1.030520e+03 -2.912471e+03
1.722972e+03 9.639574e+02 -2.915345e+03
1.724558e+03 1.030300e+03 -2.912295e+03
1.721981e+03 9.639698e+02 -2.915209e+03
1.696038e+03 1.093489e+03 -2.855118e+03
1.695144e+03 1.093041e+03 -2.855079e+03
1.666800e+03 1.151131e+03 -2.855778e+03
1.666240e+03 1.150310e+03 -2.855669e+03
1.668010e+03 1.142223e+03 -2.914503e+03
1.696826e+03 1.086335e+03 -2.913484e+03
1.667458e+03 1.141407e+03 -2.914335e+03
1.695946e+03 1.085890e+03 -2.913318e+03
1.711873e+03 8.231543e+02 -2.985936e+03
1.710874e+03 8.231548e+02 -2.985892e+03
1.709461e+03 8.927436e+02 -2.980605e+03
1.708470e+03 8.927384e+02 -2.980473e+03
1.698511e+03 8.879865e+02 -3.042974e+03
1.706398e+03 8.206149e+02 -3.047776e+03
1.697521e+03 8.879431e+02 -3.042840e+03
1.705400e+03 8.205768e+02 -3.047730e+03
1.707169e+03 9.564379e+02 -2.977006e+03
1.706192e+03 9.564286e+02 -2.976794e+03
1.704863e+03 1.020219e+03 -2.973415e+03
1.703929e+03 1.020032e+03 -2.973108e+03
1.684222e+03 1.009927e+03 -3.034293e+03
1.691373e+03 9.489265e+02 -3.038631e+03
1.683286e+03 1.009755e+03 -3.033987e+03
1.690397e+03 9.488793e+02 -3.038416e+03
1.687253e+03 1.076021e+03 -2.971909e+03
1.686367e+03 1.075655e+03 -2.971624e+03
1.669512e+03 1.131943e+03 -2.970385e+03
1.668936e+03 1.131157e+03 -2.970158e+03
1.671018e+03 1.121665e+03 -3.026238e+03
1.677691e+03 1.065711e+03 -3.030272e+03
1.670410e+03 1.120905e+03 -3.026010e+03
1.676777e+03 1.065415e+03 -3.029992e+03
1.640807e+03 1.145641e+03 -2.024835e+03
1.631012e+03 1.156665e+03 -2.092897e+03
1.640735e+03 1.144690e+03 -2.025137e+03
1.630941e+03 1.155679e+03 -2.093045e+03
1.567796e+03 1.150466e+03 -2.022392e+03
1.560277e+03 1.161600e+03 -2.091054e+03
1.567724e+03 1.149514e+03 -2.022692e+03
1.560206e+03 1.160615e+03 -2.091204e+03
1.552760e+03 1.172720e+03 -2.159653e+03
1.621219e+03 1.167673e+03 -2.160894e+03
1.552686e+03 1.171730e+03 -2.159779e+03
1.621145e+03 1.166684e+03 -2.161018e+03
1.498350e+03 1.155054e+03 -2.020068e+03
1.491901e+03 1.166306e+03 -2.088740e+03
1.498278e+03 1.154103e+03 -2.020367e+03
1.491829e+03 1.165320e+03 -2.088893e+03
1.428904e+03 1.159643e+03 -2.017744e+03
1.423525e+03 1.171011e+03 -2.086427e+03
1.428832e+03 1.158691e+03 -2.018042e+03
1.423453e+03 1.170026e+03 -2.086582e+03
1.418147e+03 1.182364e+03 -2.155050e+03
1.485453e+03 1.177542e+03 -2.157352e+03
1.418073e+03 1.181376e+03 -2.155182e+03
1.485380e+03 1.176553e+03 -2.157480e+03
1.360861e+03 1.164140e+03 -2.015467e+03
1.356200e+03 1.175637e+03 -2.084106e+03
1.360788e+03 1.163187e+03 -2.015764e+03
1.356128e+03 1.174652e+03 -2.084265e+03
1.292817e+03 1.168636e+03 -2.013190e+03
1.288874e+03 1.180262e+03 -2.081786e+03
1.292745e+03 1.167684e+03 -2.013486e+03
1.288803e+03 1.179278e+03 -2.081947e+03
1.284933e+03 1.191874e+03 -2.150327e+03
1.351540e+03 1.187119e+03 -2.152689e+03
1.284859e+03 1.190886e+03 -2.150463e+03
1.351466e+03 1.186131e+03 -2.152822e+03
1.225412e+03 1.173091e+03 -2.010934e+03
1.222043e+03 1.184859e+03 -2.079539e+03
1.225339e+03 1.172137e+03 -2.011229e+03
1.221971e+03 1.183876e+03 -2.079703e+03
1.158006e+03 1.177545e+03 -2.008679e+03
1.155211e+03 1.189457e+03 -2.077292e+03
1.157934e+03 1.176591e+03 -2.008971e+03
1.155139e+03 1.188473e+03 -2.077458e+03
1.152417e+03 1.201356e+03 -2.145854e+03
1.218675e+03 1.196615e+03 -2.148091e+03
1.152343e+03 1.200368e+03 -2.145996e+03
1.218601e+03 1.195627e+03 -2.148229e+03
1.090712e+03 1.181991e+03 -2.006427e+03
1.088494e+03 1.194039e+03 -2.075015e+03
1.090640e+03 1.181038e+03 -2.006718e+03
1.088422e+03 1.193056e+03 -2.075184e+03
1.023418e+03 1.186438e+03 -2.004175e+03
1.021777e+03 1.198621e+03 -2.072738e+03
1.023346e+03 1.185484e+03 -2.004465e+03
1.021705e+03 1.197638e+03 -2.072909e+03
1.020137e+03 1.210791e+03 -2.141254e+03
1.086277e+03 1.206073e+03 -2.143554e+03
1.020063e+03 1.209805e+03 -2.141400e+03
1.086203e+03 1.205087e+03 -2.143698e+03
9.554774e+02 1.190928e+03 -2.001901e+03
9.546565e+02 1.203182e+03 -2.070154e+03
9.554046e+02 1.189973e+03 -2.002190e+03
9.545845e+02 1.202199e+03 -2.070328e+03
9.538370e+02 1.215424e+03 -2.138362e+03
9.537630e+02 1.214437e+03 -2.138512e+03
1.613248e+03 1.175235e+03 -2.230194e+03
1.613171e+03 1.174243e+03 -2.230293e+03
1.546159e+03 1.180221e+03 -2.227565e+03
1.546082e+03 1.179230e+03 -2.227665e+03
1.539557e+03 1.187723e+03 -2.295477e+03
1.605276e+03 1.182796e+03 -2.299495e+03
1.539479e+03 1.186729e+03 -2.295551e+03
1.605198e+03 1.181802e+03 -2.299567e+03
1.479744e+03 1.185101e+03 -2.224699e+03
1.479669e+03 1.184109e+03 -2.224803e+03
1.413330e+03 1.189980e+03 -2.221833e+03
1.413255e+03 1.188989e+03 -2.221940e+03
1.408514e+03 1.197596e+03 -2.288617e+03
1.474035e+03 1.192660e+03 -2.292047e+03
1.408436e+03 1.196602e+03 -2.288697e+03
1.473958e+03 1.191665e+03 -2.292124e+03
1.347386e+03 1.194832e+03 -2.219219e+03
1.347310e+03 1.193841e+03 -2.219328e+03
1.281441e+03 1.199684e+03 -2.216605e+03
1.281366e+03 1.198694e+03 -2.216716e+03
1.277950e+03 1.207495e+03 -2.282884e+03
1.343232e+03 1.202545e+03 -2.285751e+03
1.277872e+03 1.206501e+03 -2.282968e+03
1.343154e+03 1.201552e+03 -2.285832e+03
1.215754e+03 1.204538e+03 -2.214271e+03
1.215678e+03 1.203547e+03 -2.214385e+03
1.150066e+03 1.209391e+03 -2.211937e+03
1.149990e+03 1.208400e+03 -2.212054e+03
1.147715e+03 1.217426e+03 -2.278022e+03
1.212832e+03 1.212460e+03 -2.280453e+03
1.147637e+03 1.216432e+03 -2.278110e+03
1.212755e+03 1.211467e+03 -2.280539e+03
1.084477e+03 1.214230e+03 -2.209618e+03
1.084401e+03 1.213240e+03 -2.209737e+03
1.018887e+03 1.219069e+03 -2.207299e+03
1.018812e+03 1.218079e+03 -2.207421e+03
1.017638e+03 1.227346e+03 -2.273346e+03
1.082676e+03 1.222386e+03 -2.275684e+03
1.017560e+03 1.226354e+03 -2.273440e+03
1.082599e+03 1.221393e+03 -2.275775e+03
9.532127e+02 1.223834e+03 -2.204403e+03
9.531368e+02 1.222845e+03 -2.204527e+03
9.525883e+02 1.232245e+03 -2.270445e+03
9.525107e+02 1.231252e+03 -2.270541e+03
1.601119e+03 1.186141e+03 -2.364831e+03
1.601040e+03 1.185145e+03 -2.364875e+03
1.535944e+03 1.191173e+03 -2.359870e+03
1.535865e+03 1.190177e+03 -2.359918e+03
1.532331e+03 1.194622e+03 -2.424265e+03
1.596962e+03 1.189485e+03 -2.430167e+03
1.532251e+03 1.193626e+03 -2.424283e+03
1.596882e+03 1.188488e+03 -2.430183e+03
1.470874e+03 1.196209e+03 -2.355929e+03
1.470795e+03 1.195214e+03 -2.355979e+03
1.405804e+03 1.201246e+03 -2.351988e+03
1.405725e+03 1.200250e+03 -2.352041e+03
1.403094e+03 1.204895e+03 -2.415360e+03
1.467712e+03 1.199759e+03 -2.419812e+03
1.403014e+03 1.203899e+03 -2.415384e+03
1.467633e+03 1.198762e+03 -2.419834e+03
1.340894e+03 1.206291e+03 -2.348882e+03
1.340815e+03 1.205296e+03 -2.348937e+03
1.275983e+03 1.211337e+03 -2.345776e+03
1.275905e+03 1.210341e+03 -2.345833e+03
1.274017e+03 1.215178e+03 -2.408669e+03
1.338555e+03 1.210037e+03 -2.412014e+03
1.273937e+03 1.214182e+03 -2.408697e+03
1.338476e+03 1.209040e+03 -2.412041e+03
1.211195e+03 1.216394e+03 -2.343286e+03
1.211116e+03 1.215399e+03 -2.343345e+03
1.146407e+03 1.221451e+03 -2.340795e+03
1.146327e+03 1.220457e+03 -2.340857e+03
1.145098e+03 1.225477e+03 -2.403570e+03
1.209557e+03 1.220328e+03 -2.406119e+03
1.145018e+03 1.224481e+03 -2.403602e+03
1.209478e+03 1.219331e+03 -2.406150e+03
1.081685e+03 1.226511e+03 -2.338612e+03
1.081606e+03 1.225516e+03 -2.338675e+03
1.016963e+03 1.231570e+03 -2.336429e+03
1.016885e+03 1.230576e+03 -2.336494e+03
1.016289e+03 1.235794e+03 -2.399512e+03
1.080693e+03 1.230636e+03 -2.401541e+03
1.016209e+03 1.234798e+03 -2.399548e+03
1.080614e+03 1.229639e+03 -2.401575e+03
9.522514e+02 1.236601e+03 -2.334093e+03
9.521726e+02 1.235606e+03 -2.334159e+03
9.519145e+02 1.240957e+03 -2.397741e+03
9.518345e+02 1.239961e+03 -2.397777e+03
1.596352e+03 1.188798e+03 -2.491608e+03
1.596272e+03 1.187801e+03 -2.491595e+03
1.531749e+03 1.194160e+03 -2.485010e+03
1.531670e+03 1.193164e+03 -2.484999e+03
1.531168e+03 1.193698e+03 -2.545754e+03
1.595741e+03 1.188111e+03 -2.553049e+03
1.531088e+03 1.192702e+03 -2.545716e+03
1.595662e+03 1.187115e+03 -2.553007e+03
1.467193e+03 1.199452e+03 -2.480296e+03
1.467113e+03 1.198456e+03 -2.480289e+03
1.402636e+03 1.204744e+03 -2.475582e+03
1.402556e+03 1.203748e+03 -2.475578e+03
1.402178e+03 1.204593e+03 -2.535804e+03
1.466673e+03 1.199146e+03 -2.540779e+03
1.402098e+03 1.203597e+03 -2.535772e+03
1.466593e+03 1.198149e+03 -2.540744e+03
1.338160e+03 1.210000e+03 -2.472201e+03
1.338079e+03 1.209004e+03 -2.472199e+03
1.273683e+03 1.215256e+03 -2.468820e+03
1.273603e+03 1.214260e+03 -2.468820e+03
1.273349e+03 1.215334e+03 -2.528970e+03
1.337764e+03 1.209964e+03 -2.532387e+03
1.273269e+03 1.214338e+03 -2.528944e+03
1.337683e+03 1.208967e+03 -2.532358e+03
1.209280e+03 1.220493e+03 -2.466403e+03
1.209200e+03 1.219496e+03 -2.466405e+03
1.144877e+03 1.225730e+03 -2.463986e+03
1.144796e+03 1.224733e+03 -2.463989e+03
1.144655e+03 1.225982e+03 -2.524401e+03
1.209002e+03 1.220658e+03 -2.526686e+03
1.144575e+03 1.224986e+03 -2.524377e+03
1.208922e+03 1.219662e+03 -2.526660e+03
1.080526e+03 1.230956e+03 -2.462336e+03
1.080446e+03 1.229959e+03 -2.462340e+03
1.016176e+03 1.236181e+03 -2.460685e+03
1.016095e+03 1.235185e+03 -2.460691e+03
1.016063e+03 1.236568e+03 -2.521857e+03
1.080359e+03 1.231275e+03 -2.523129e+03
1.015981e+03 1.235572e+03 -2.521835e+03
1.080278e+03 1.230279e+03 -2.523106e+03
9.518580e+02 1.241394e+03 -2.459778e+03
9.517775e+02 1.240397e+03 -2.459785e+03
9.518016e+02 1.241831e+03 -2.521815e+03
9.517204e+02 1.240834e+03 -2.521794e+03
1.596841e+03 1.184030e+03 -2.612458e+03
1.596761e+03 1.183036e+03 -2.612389e+03
1.532134e+03 1.189885e+03 -2.604955e+03
1.532054e+03 1.188891e+03 -2.604891e+03
1.533101e+03 1.186072e+03 -2.664154e+03
1.597941e+03 1.179949e+03 -2.671865e+03
1.533019e+03 1.185080e+03 -2.664068e+03
1.597859e+03 1.178957e+03 -2.671774e+03
1.467530e+03 1.195512e+03 -2.600026e+03
1.467449e+03 1.194518e+03 -2.599965e+03
1.402926e+03 1.201140e+03 -2.595098e+03
1.402845e+03 1.200144e+03 -2.595039e+03
1.403674e+03 1.197686e+03 -2.654389e+03
1.468387e+03 1.191879e+03 -2.659271e+03
1.403592e+03 1.196692e+03 -2.654309e+03
1.468306e+03 1.190886e+03 -2.659189e+03
1.338414e+03 1.206637e+03 -2.591858e+03
1.338333e+03 1.205641e+03 -2.591802e+03
1.273902e+03 1.212134e+03 -2.588618e+03
1.273821e+03 1.211138e+03 -2.588565e+03
1.274455e+03 1.208933e+03 -2.648263e+03
1.339064e+03 1.203309e+03 -2.651326e+03
1.274373e+03 1.207939e+03 -2.648189e+03
1.338983e+03 1.202316e+03 -2.651249e+03
1.209462e+03 1.217547e+03 -2.586617e+03
1.209381e+03 1.216551e+03 -2.586565e+03
1.145022e+03 1.222960e+03 -2.584616e+03
1.144941e+03 1.221964e+03 -2.584566e+03
1.145389e+03 1.219937e+03 -2.644829e+03
1.209922e+03 1.214435e+03 -2.646546e+03
1.145307e+03 1.218943e+03 -2.644757e+03
1.209840e+03 1.213441e+03 -2.646473e+03
1.080634e+03 1.228305e+03 -2.583797e+03
1.080553e+03 1.227309e+03 -2.583748e+03
1.016247e+03 1.233650e+03 -2.582978e+03
1.016165e+03 1.232654e+03 -2.582930e+03
1.016431e+03 1.230731e+03 -2.644096e+03
1.080910e+03 1.225334e+03 -2.644462e+03
1.016349e+03 1.229737e+03 -2.644028e+03
1.080828e+03 1.224340e+03 -2.644393e+03
9.518939e+02 1.238917e+03 -2.583706e+03
9.518121e+02 1.237921e+03 -2.583659e+03
9.519863e+02 1.236003e+03 -2.645594e+03
9.519037e+02 1.235009e+03 -2.645526e+03
1.599085e+03 1.173287e+03 -2.731176e+03
1.599002e+03 1.172297e+03 -2.731064e+03
1.534105e+03 1.179601e+03 -2.724016e+03
1.534023e+03 1.178610e+03 -2.723908e+03
1.535110e+03 1.173129e+03 -2.783875e+03
1.600229e+03 1.166625e+03 -2.790485e+03
1.535026e+03 1.172141e+03 -2.783751e+03
1.600145e+03 1.165636e+03 -2.790356e+03
1.469266e+03 1.185557e+03 -2.719570e+03
1.469184e+03 1.184566e+03 -2.719466e+03
1.404428e+03 1.191514e+03 -2.715125e+03
1.404345e+03 1.190522e+03 -2.715024e+03
1.405182e+03 1.185342e+03 -2.775859e+03
1.470146e+03 1.179236e+03 -2.779867e+03
1.405098e+03 1.184352e+03 -2.775741e+03
1.470062e+03 1.178246e+03 -2.779746e+03
1.339711e+03 1.197256e+03 -2.712452e+03
1.339628e+03 1.196264e+03 -2.712353e+03
1.274994e+03 1.202997e+03 -2.709779e+03
1.274912e+03 1.202006e+03 -2.709682e+03
1.275534e+03 1.197062e+03 -2.771292e+03
1.340358e+03 1.191202e+03 -2.773575e+03
1.275450e+03 1.196072e+03 -2.771178e+03
1.340274e+03 1.190212e+03 -2.773460e+03
1.210366e+03 1.208595e+03 -2.708425e+03
1.210282e+03 1.207602e+03 -2.708331e+03
1.145737e+03 1.214192e+03 -2.707072e+03
1.145653e+03 1.213199e+03 -2.706979e+03
1.146084e+03 1.208446e+03 -2.769313e+03
1.210809e+03 1.202754e+03 -2.770302e+03
1.146000e+03 1.207456e+03 -2.769203e+03
1.210725e+03 1.201764e+03 -2.770191e+03
1.081168e+03 1.219660e+03 -2.707055e+03
1.081085e+03 1.218667e+03 -2.706964e+03
1.016600e+03 1.225128e+03 -2.707038e+03
1.016516e+03 1.224135e+03 -2.706949e+03
1.016768e+03 1.219524e+03 -2.769978e+03
1.081426e+03 1.213985e+03 -2.769645e+03
1.016684e+03 1.218534e+03 -2.769872e+03
1.081342e+03 1.212995e+03 -2.769538e+03
9.520709e+02 1.230441e+03 -2.708854e+03
9.519871e+02 1.229448e+03 -2.708766e+03
9.521555e+02 1.224878e+03 -2.772111e+03
9.520705e+02 1.223888e+03 -2.772008e+03
1.601195e+03 1.157812e+03 -2.850273e+03
1.601110e+03 1.156826e+03 -2.850127e+03
1.535827e+03 1.164411e+03 -2.844748e+03
1.535742e+03 1.163425e+03 -2.844605e+03
1.536545e+03 1.155693e+03 -2.905619e+03
1.602161e+03 1.149000e+03 -2.910060e+03
1.536457e+03 1.154709e+03 -2.905461e+03
1.602074e+03 1.148016e+03 -2.909899e+03
1.470710e+03 1.170595e+03 -2.841648e+03
1.470624e+03 1.169608e+03 -2.841510e+03
1.405593e+03 1.176779e+03 -2.838549e+03
1.405507e+03 1.175792e+03 -2.838414e+03
1.406004e+03 1.168216e+03 -2.901239e+03
1.471274e+03 1.161955e+03 -2.903429e+03
1.405916e+03 1.167232e+03 -2.901087e+03
1.471187e+03 1.160970e+03 -2.903274e+03
1.340680e+03 1.182725e+03 -2.836921e+03
1.340594e+03 1.181737e+03 -2.836788e+03
1.275767e+03 1.188670e+03 -2.835292e+03
1.275681e+03 1.187683e+03 -2.835162e+03
1.276000e+03 1.180279e+03 -2.899293e+03
1.341002e+03 1.174247e+03 -2.900266e+03
1.275912e+03 1.179293e+03 -2.899145e+03
1.340914e+03 1.173263e+03 -2.900116e+03
1.210988e+03 1.194458e+03 -2.834734e+03
1.210902e+03 1.193469e+03 -2.834605e+03
1.146209e+03 1.200245e+03 -2.834175e+03
1.146122e+03 1.199256e+03 -2.834049e+03
1.146333e+03 1.192043e+03 -2.899038e+03
1.211167e+03 1.186161e+03 -2.899165e+03
1.146245e+03 1.191057e+03 -2.898894e+03
1.211078e+03 1.185175e+03 -2.899020e+03
1.081514e+03 1.205891e+03 -2.834693e+03
1.081428e+03 1.204902e+03 -2.834570e+03
1.016820e+03 1.211537e+03 -2.835212e+03
1.016733e+03 1.210548e+03 -2.835090e+03
1.016871e+03 1.203549e+03 -2.900447e+03
1.081602e+03 1.197796e+03 -2.899742e+03
1.016783e+03 1.202563e+03 -2.900307e+03
1.081514e+03 1.196810e+03 -2.899601e+03
9.521816e+02 1.217017e+03 -2.837175e+03
9.520949e+02 1.216028e+03 -2.837055e+03
9.522078e+02 1.209155e+03 -2.902240e+03
9.521192e+02 1.208168e+03 -2.902102e+03
1.603228e+03 1.138474e+03 -2.968521e+03
1.603139e+03 1.137494e+03 -2.968345e+03
1.537188e+03 1.144908e+03 -2.966682e+03
1.537098e+03 1.143928e+03 -2.966508e+03
1.537830e+03 1.134125e+03 -3.027737e+03
1.604295e+03 1.127950e+03 -3.026975e+03
1.537740e+03 1.133145e+03 -3.027563e+03
1.604204e+03 1.126970e+03 -3.026799e+03
1.471759e+03 1.151086e+03 -2.965963e+03
1.471669e+03 1.150105e+03 -2.965792e+03
1.406330e+03 1.157264e+03 -2.965244e+03
1.406241e+03 1.156282e+03 -2.965075e+03
1.406656e+03 1.146313e+03 -3.029240e+03
1.472243e+03 1.140219e+03 -3.028489e+03
1.406566e+03 1.145331e+03 -3.029072e+03
1.472153e+03 1.139238e+03 -3.028317e+03
1.341260e+03 1.163305e+03 -2.965131e+03
1.341170e+03 1.162324e+03 -2.964964e+03
1.276189e+03 1.169347e+03 -2.965018e+03
1.276100e+03 1.168365e+03 -2.964853e+03
1.276378e+03 1.158417e+03 -3.030734e+03
1.341517e+03 1.152365e+03 -3.029987e+03
1.276288e+03 1.157435e+03 -3.030570e+03
1.341427e+03 1.151383e+03 -3.029821e+03
1.211317e+03 1.175304e+03 -2.965326e+03
1.211227e+03 1.174321e+03 -2.965164e+03
1.146445e+03 1.181260e+03 -2.965635e+03
1.146354e+03 1.180277e+03 -2.965474e+03
1.146556e+03 1.170478e+03 -3.032223e+03
1.211467e+03 1.164448e+03 -3.031479e+03
1.146464e+03 1.169496e+03 -3.032063e+03
1.211376e+03 1.163465e+03 -3.031316e+03
1.081682e+03 1.187146e+03 -2.966358e+03
1.081592e+03 1.186163e+03 -2.966200e+03
1.016920e+03 1.193033e+03 -2.967082e+03
1.016830e+03 1.192049e+03 -2.966926e+03
1.016969e+03 1.182518e+03 -3.033709e+03
1.081762e+03 1.176498e+03 -3.032966e+03
1.016877e+03 1.181534e+03 -3.033553e+03
1.081671e+03 1.175515e+03 -3.032808e+03
9.522327e+02 1.198842e+03 -2.968350e+03
9.521423e+02 1.197858e+03 -2.968195e+03
9.522572e+02 1.188530e+03 -3.034451e+03
9.521658e+02 1.187547e+03 -3.034297e+03
1.330455e+02 1.109639e+03 -1.952628e+03
1.331223e+02 1.108748e+03 -1.953074e+03
2.049115e+02 1.116387e+03 -1.953288e+03
2.049882e+02 1.115493e+03 -1.953730e+03
2.025621e+02 1.082331e+03 -1.884254e+03
1.318696e+02 1.073663e+03 -1.880491e+03
2.026439e+02 1.081441e+03 -1.884702e+03
1.319513e+02 1.072776e+03 -1.880944e+03
2.743758e+02 1.121902e+03 -1.951997e+03
2.744523e+02 1.121006e+03 -1.952434e+03
3.438400e+02 1.127418e+03 -1.950705e+03
3.439165e+02 1.126519e+03 -1.951138e+03
3.414775e+02 1.095211e+03 -1.883735e+03
2.720198e+02 1.088771e+03 -1.883994e+03
3.415593e+02 1.094315e+03 -1.884173e+03
2.721016e+02 1.087878e+03 -1.884438e+03
4.121112e+02 1.132440e+03 -1.948645e+03
4.121877e+02 1.131540e+03 -1.949073e+03
4.803825e+02 1.137463e+03 -1.946585e+03
4.804589e+02 1.136560e+03 -1.947008e+03
4.785308e+02 1.106310e+03 -1.880043e+03
4.100042e+02 1.100760e+03 -1.881889e+03
4.786126e+02 1.105410e+03 -1.880471e+03
4.100859e+02 1.099863e+03 -1.882322e+03
5.480746e+02 1.142301e+03 -1.944248e+03
5.481511e+02 1.141396e+03 -1.944667e+03
6.157668e+02 1.147139e+03 -1.941911e+03
6.158433e+02 1.146232e+03 -1.942326e+03
6.145282e+02 1.116754e+03 -1.875203e+03
5.465295e+02 1.111532e+03 -1.877623e+03
6.146100e+02 1.115850e+03 -1.875623e+03
5.466113e+02 1.110630e+03 -1.878047e+03
6.833507e+02 1.151593e+03 -1.938738e+03
6.834272e+02 1.150685e+03 -1.939148e+03
7.509346e+02 1.156048e+03 -1.935565e+03
7.510111e+02 1.155137e+03 -1.935970e+03
7.502088e+02 1.125673e+03 -1.867013e+03
6.823685e+02 1.121214e+03 -1.871108e+03
7.502908e+02 1.124765e+03 -1.867423e+03
6.824504e+02 1.120307e+03 -1.871523e+03
8.191980e+02 1.159649e+03 -1.930319e+03
8.192744e+02 1.158736e+03 -1.930720e+03
8.874995e+02 1.163250e+03 -1.925072e+03
8.874995e+02 1.162334e+03 -1.925472e+03
8.874990e+02 1.131101e+03 -1.850570e+03
8.188334e+02 1.128387e+03 -1.858793e+03
8.874990e+02 1.130187e+03 -1.850976e+03
8.189154e+02 1.127476e+03 -1.859198e+03
1.313482e+02 1.043200e+03 -1.821765e+03
1.314352e+02 1.042317e+03 -1.822226e+03
2.015219e+02 1.051677e+03 -1.824231e+03
2.016090e+02 1.050790e+03 -1.824687e+03
2.004817e+02 1.021019e+03 -1.764203e+03
1.308269e+02 1.012733e+03 -1.763033e+03
2.005741e+02 1.020143e+03 -1.764677e+03
1.309190e+02 1.011862e+03 -1.763514e+03
2.708367e+02 1.058228e+03 -1.823318e+03
2.709238e+02 1.057339e+03 -1.823767e+03
3.401515e+02 1.064780e+03 -1.822404e+03
3.402386e+02 1.063888e+03 -1.822848e+03
3.388255e+02 1.034346e+03 -1.761067e+03
2.696536e+02 1.027682e+03 -1.762635e+03
3.389179e+02 1.033464e+03 -1.761529e+03
2.697460e+02 1.026804e+03 -1.763103e+03
4.087432e+02 1.070542e+03 -1.820118e+03
4.088302e+02 1.069648e+03 -1.820557e+03
4.773348e+02 1.076305e+03 -1.817833e+03
4.774219e+02 1.075408e+03 -1.818266e+03
4.761388e+02 1.046297e+03 -1.755617e+03
4.074822e+02 1.040322e+03 -1.758342e+03
4.762312e+02 1.045409e+03 -1.756067e+03
4.075745e+02 1.039436e+03 -1.758798e+03
5.454818e+02 1.081794e+03 -1.815089e+03
5.455688e+02 1.080895e+03 -1.815519e+03
6.136286e+02 1.087283e+03 -1.812346e+03
6.137158e+02 1.086382e+03 -1.812771e+03
6.127291e+02 1.057810e+03 -1.749484e+03
5.444340e+02 1.052053e+03 -1.752550e+03
6.128215e+02 1.056916e+03 -1.749924e+03
5.445263e+02 1.051163e+03 -1.752996e+03
6.816139e+02 1.092253e+03 -1.808498e+03
6.817012e+02 1.091350e+03 -1.808917e+03
7.495992e+02 1.097223e+03 -1.804649e+03
7.496865e+02 1.096318e+03 -1.805064e+03
7.489898e+02 1.068771e+03 -1.742280e+03
6.808593e+02 1.063290e+03 -1.745882e+03
7.490820e+02 1.067873e+03 -1.742710e+03
6.809519e+02 1.062395e+03 -1.746317e+03
8.185276e+02 1.100991e+03 -1.798011e+03
8.186147e+02 1.100083e+03 -1.798422e+03
8.874994e+02 1.104759e+03 -1.791372e+03
8.874994e+02 1.103848e+03 -1.791782e+03
8.874998e+02 1.078416e+03 -1.732169e+03
8.182220e+02 1.073593e+03 -1.737226e+03
8.874998e+02 1.077510e+03 -1.732593e+03
8.183137e+02 1.072692e+03 -1.737650e+03
1.305781e+02 9.846486e+02 -1.714441e+03
1.306757e+02 9.837892e+02 -1.714942e+03
1.999869e+02 9.920206e+02 -1.713041e+03
2.000848e+02 9.911566e+02 -1.713534e+03
1.994912e+02 9.630204e+02 -1.661876e+03
1.303283e+02 9.565617e+02 -1.665846e+03
1.995964e+02 9.621720e+02 -1.662394e+03
1.304335e+02 9.557189e+02 -1.666373e+03
2.690468e+02 9.982975e+02 -1.709848e+03
2.691448e+02 9.974294e+02 -1.710335e+03
3.381067e+02 1.004574e+03 -1.706656e+03
3.382048e+02 1.003702e+03 -1.707136e+03
3.373872e+02 9.748009e+02 -1.652243e+03
2.684392e+02 9.689108e+02 -1.657059e+03
3.374924e+02 9.739425e+02 -1.652745e+03
2.685444e+02 9.680571e+02 -1.657570e+03
4.067706e+02 1.010424e+03 -1.702769e+03
4.068687e+02 1.009549e+03 -1.703243e+03
4.754345e+02 1.016274e+03 -1.698882e+03
4.755326e+02 1.015396e+03 -1.699349e+03
4.747296e+02 9.862507e+02 -1.642146e+03
4.060584e+02 9.805259e+02 -1.647194e+03
4.748346e+02 9.853833e+02 -1.642632e+03
4.061635e+02 9.796628e+02 -1.647689e+03
5.438031e+02 1.022124e+03 -1.695042e+03
5.439013e+02 1.021242e+03 -1.695504e+03
6.121717e+02 1.027974e+03 -1.691202e+03
6.122699e+02 1.027089e+03 -1.691658e+03
6.116140e+02 9.981371e+02 -1.632920e+03
5.431718e+02 9.921939e+02 -1.637533e+03
6.117186e+02 9.972615e+02 -1.633392e+03
5.432766e+02 9.913224e+02 -1.638012e+03
6.803966e+02 1.033792e+03 -1.687320e+03
6.804948e+02 1.032904e+03 -1.687770e+03
7.486217e+02 1.039610e+03 -1.683438e+03
7.487194e+02 1.038720e+03 -1.683883e+03
7.482536e+02 1.010450e+03 -1.624597e+03
6.799335e+02 1.004293e+03 -1.628759e+03
7.483568e+02 1.009566e+03 -1.625055e+03
6.800380e+02 1.003414e+03 -1.629223e+03
8.180365e+02 1.045578e+03 -1.679812e+03
8.181334e+02 1.044685e+03 -1.680250e+03
8.874993e+02 1.051547e+03 -1.676182e+03
8.874994e+02 1.050649e+03 -1.676621e+03
8.874989e+02 1.024680e+03 -1.620197e+03
8.178510e+02 1.017564e+03 -1.622399e+03
8.874989e+02 1.023786e+03 -1.620647e+03
8.179531e+02 1.016677e+03 -1.622849e+03
1.302051e+02 9.291420e+02 -1.624386e+03
1.303184e+02 9.283167e+02 -1.624939e+03
1.992488e+02 9.347158e+02 -1.617990e+03
1.993622e+02 9.338837e+02 -1.618533e+03
1.990059e+02 9.064176e+02 -1.574115e+03
1.300812e+02 9.017284e+02 -1.582936e+03
1.991285e+02 9.055890e+02 -1.574661e+03
1.302040e+02 9.009083e+02 -1.583495e+03
2.681354e+02 9.400005e+02 -1.611056e+03
2.682488e+02 9.391621e+02 -1.611589e+03
3.370220e+02 9.452851e+02 -1.604122e+03
3.371353e+02 9.444406e+02 -1.604645e+03
3.366563e+02 9.157760e+02 -1.556012e+03
2.678311e+02 9.110969e+02 -1.565063e+03
3.367787e+02 9.149320e+02 -1.556534e+03
2.679536e+02 9.102604e+02 -1.565598e+03
4.056965e+02 9.506726e+02 -1.597282e+03
4.058097e+02 9.498224e+02 -1.597796e+03
4.743710e+02 9.560600e+02 -1.590442e+03
4.744841e+02 9.552043e+02 -1.590947e+03
4.740121e+02 9.258762e+02 -1.538750e+03
4.053342e+02 9.208262e+02 -1.547381e+03
4.741339e+02 9.250184e+02 -1.539250e+03
4.054563e+02 9.199751e+02 -1.547892e+03
5.428603e+02 9.618770e+02 -1.584326e+03
5.429731e+02 9.610160e+02 -1.584822e+03
6.113497e+02 9.676938e+02 -1.578210e+03
6.114621e+02 9.668278e+02 -1.578698e+03
6.110851e+02 9.372573e+02 -1.523513e+03
5.425485e+02 9.315668e+02 -1.531132e+03
6.112059e+02 9.363873e+02 -1.523991e+03
5.426700e+02 9.307028e+02 -1.531620e+03
6.797314e+02 9.740234e+02 -1.573078e+03
6.798435e+02 9.731525e+02 -1.573557e+03
7.481139e+02 9.803529e+02 -1.567946e+03
7.482242e+02 9.794772e+02 -1.568416e+03
7.479736e+02 9.502625e+02 -1.511307e+03
6.795290e+02 9.437599e+02 -1.517410e+03
7.480922e+02 9.493817e+02 -1.511765e+03
6.796494e+02 9.428845e+02 -1.517878e+03
8.177802e+02 9.875369e+02 -1.564598e+03
8.178890e+02 9.866569e+02 -1.565060e+03
8.875001e+02 9.947225e+02 -1.561247e+03
8.875001e+02 9.938350e+02 -1.561708e+03
8.875013e+02 9.647714e+02 -1.502309e+03
8.177086e+02 9.575161e+02 -1.506810e+03
8.875013e+02 9.638776e+02 -1.502757e+03
8.178256e+02 9.566305e+02 -1.507259e+03
1.300211e+02 8.766911e+02 -1.546048e+03
1.301548e+02 8.758765e+02 -1.546612e+03
1.988912e+02 8.801774e+02 -1.534030e+03
1.990248e+02 8.793527e+02 -1.534580e+03
1.987786e+02 8.539480e+02 -1.493962e+03
1.299629e+02 8.516640e+02 -1.509174e+03
1.989190e+02 8.531056e+02 -1.494482e+03
1.301039e+02 8.508345e+02 -1.509714e+03
2.676915e+02 8.843350e+02 -1.522545e+03
2.678249e+02 8.835009e+02 -1.523080e+03
3.364919e+02 8.884925e+02 -1.511060e+03
3.366249e+02 8.876492e+02 -1.511581e+03
3.363295e+02 8.612197e+02 -1.466126e+03
2.675539e+02 8.575841e+02 -1.480044e+03
3.364691e+02 8.603557e+02 -1.466610e+03
2.676942e+02 8.567304e+02 -1.480546e+03
4.051812e+02 8.933304e+02 -1.500370e+03
4.053138e+02 8.924787e+02 -1.500877e+03
4.738706e+02 8.981681e+02 -1.489680e+03
4.740026e+02 8.973085e+02 -1.490174e+03
4.737311e+02 8.704702e+02 -1.440629e+03
4.050302e+02 8.658452e+02 -1.453378e+03
4.738693e+02 8.695884e+02 -1.441079e+03
4.051693e+02 8.649718e+02 -1.453844e+03
5.424477e+02 9.037488e+02 -1.480150e+03
5.425791e+02 9.028819e+02 -1.480631e+03
6.110249e+02 9.093293e+02 -1.470619e+03
6.111555e+02 9.084556e+02 -1.471088e+03
6.109666e+02 8.814109e+02 -1.417744e+03
5.423487e+02 8.759407e+02 -1.429187e+03
6.111032e+02 8.805143e+02 -1.418166e+03
5.424864e+02 8.750512e+02 -1.429622e+03
6.795355e+02 9.156420e+02 -1.462469e+03
6.796654e+02 9.147622e+02 -1.462926e+03
7.480469e+02 9.219546e+02 -1.454319e+03
7.481745e+02 9.210690e+02 -1.454765e+03
7.481217e+02 8.936558e+02 -1.397350e+03
6.795438e+02 8.875335e+02 -1.407547e+03
7.482553e+02 8.927472e+02 -1.397746e+03
6.796796e+02 8.866306e+02 -1.407956e+03
8.177432e+02 9.293225e+02 -1.448573e+03
8.178687e+02 9.284318e+02 -1.449010e+03
8.875012e+02 9.366925e+02 -1.442824e+03
8.875012e+02 9.357925e+02 -1.443259e+03
8.875010e+02 9.086222e+02 -1.383358e+03
8.177788e+02 9.011377e+02 -1.390357e+03
8.875012e+02 9.076988e+02 -1.383742e+03
8.179108e+02 9.002243e+02 -1.390741e+03
1.299380e+02 8.294150e+02 -1.471424e+03
1.300898e+02 8.285718e+02 -1.471940e+03
1.987349e+02 8.310737e+02 -1.452568e+03
1.988849e+02 8.302150e+02 -1.453059e+03
1.986970e+02 8.082107e+02 -1.411197e+03
1.299200e+02 8.071791e+02 -1.433698e+03
1.988450e+02 8.073131e+02 -1.411613e+03
1.300689e+02 8.062960e+02 -1.434142e+03
2.675064e+02 8.349372e+02 -1.436465e+03
2.676558e+02 8.340657e+02 -1.436933e+03
3.362784e+02 8.388000e+02 -1.420362e+03
3.364263e+02 8.379170e+02 -1.420807e+03
3.362317e+02 8.163885e+02 -1.374617e+03
2.674638e+02 8.123001e+02 -1.392908e+03
3.363791e+02 8.154701e+02 -1.374985e+03
2.676126e+02 8.113911e+02 -1.393298e+03
4.049944e+02 8.437990e+02 -1.405831e+03
4.051414e+02 8.429061e+02 -1.406257e+03
4.737105e+02 8.487974e+02 -1.391300e+03
4.738563e+02 8.478957e+02 -1.391707e+03
4.736940e+02 8.271305e+02 -1.341989e+03
4.049626e+02 8.217598e+02 -1.358304e+03
4.738392e+02 8.261971e+02 -1.342317e+03
4.051094e+02 8.208333e+02 -1.358650e+03
5.423750e+02 8.544466e+02 -1.377647e+03
5.425198e+02 8.535370e+02 -1.378036e+03
6.110396e+02 8.600954e+02 -1.363993e+03
6.111832e+02 8.591788e+02 -1.364367e+03
6.111167e+02 8.387842e+02 -1.310258e+03
5.424053e+02 8.329575e+02 -1.326124e+03
6.112591e+02 8.378390e+02 -1.310552e+03
5.425492e+02 8.320179e+02 -1.326434e+03
6.796771e+02 8.662482e+02 -1.351179e+03
6.798196e+02 8.653252e+02 -1.351536e+03
7.483153e+02 8.724007e+02 -1.338363e+03
7.484552e+02 8.714719e+02 -1.338707e+03
7.485126e+02 8.511485e+02 -1.279391e+03
6.798145e+02 8.449665e+02 -1.294825e+03
7.486514e+02 8.501937e+02 -1.279653e+03
6.799554e+02 8.440162e+02 -1.295102e+03
8.178741e+02 8.798907e+02 -1.329534e+03
8.180121e+02 8.789574e+02 -1.329866e+03
8.875008e+02 8.873838e+02 -1.320699e+03
8.875010e+02 8.864398e+02 -1.321030e+03
8.875007e+02 8.661472e+02 -1.258054e+03
8.179726e+02 8.586461e+02 -1.268725e+03
8.875007e+02 8.651790e+02 -1.258304e+03
8.181101e+02 8.576881e+02 -1.268976e+03
1.299162e+02 7.877882e+02 -1.383251e+03
1.300652e+02 7.868717e+02 -1.383623e+03
1.986898e+02 7.909325e+02 -1.360813e+03
1.988371e+02 7.900030e+02 -1.361150e+03
1.986832e+02 7.736526e+02 -1.310434e+03
1.299136e+02 7.683981e+02 -1.332819e+03
1.988286e+02 7.726946e+02 -1.310682e+03
1.300602e+02 7.674465e+02 -1.333089e+03
2.674588e+02 7.961750e+02 -1.341803e+03
2.676064e+02 7.952355e+02 -1.342112e+03
3.362288e+02 8.014162e+02 -1.322791e+03
3.363748e+02 8.004693e+02 -1.323077e+03
3.362263e+02 7.864396e+02 -1.270962e+03
2.674544e+02 7.800463e+02 -1.290699e+03
3.363701e+02 7.854728e+02 -1.271172e+03
2.675997e+02 7.790835e+02 -1.290926e+03
4.049795e+02 8.074810e+02 -1.304921e+03
4.051247e+02 8.065278e+02 -1.305186e+03
4.737307e+02 8.135452e+02 -1.287050e+03
4.738741e+02 8.125869e+02 -1.287296e+03
4.737675e+02 7.999549e+02 -1.232102e+03
4.049968e+02 7.931974e+02 -1.251532e+03
4.739089e+02 7.989817e+02 -1.232284e+03
4.051396e+02 7.922271e+02 -1.251728e+03
5.424742e+02 8.199047e+02 -1.269004e+03
5.426162e+02 8.189417e+02 -1.269233e+03
6.112177e+02 8.262639e+02 -1.250958e+03
6.113583e+02 8.252969e+02 -1.251171e+03
6.113185e+02 8.137381e+02 -1.191646e+03
5.425431e+02 8.068466e+02 -1.211874e+03
6.114577e+02 8.127603e+02 -1.191802e+03
5.426832e+02 8.058709e+02 -1.212043e+03
6.799686e+02 8.327402e+02 -1.231497e+03
6.801079e+02 8.317696e+02 -1.231693e+03
7.487203e+02 8.392164e+02 -1.212036e+03
7.488567e+02 8.382423e+02 -1.212216e+03
7.489271e+02 8.272784e+02 -1.144663e+03
6.801224e+02 8.205082e+02 -1.168154e+03
7.490629e+02 8.262968e+02 -1.144797e+03
6.802607e+02 8.195286e+02 -1.168300e+03
8.180771e+02 8.469971e+02 -1.200238e+03
8.182120e+02 8.460209e+02 -1.200408e+03
8.875006e+02 8.547815e+02 -1.188436e+03
8.875006e+02 8.537957e+02 -1.188603e+03
8.875005e+02 8.434102e+02 -1.118797e+03
8.181805e+02 8.353422e+02 -1.131732e+03
8.875005e+02 8.424180e+02 -1.118923e+03
8.183150e+02 8.343595e+02 -1.131858e+03
1.299100e+02 7.571842e+02 -1.264793e+03
1.300440e+02 7.562072e+02 -1.264960e+03
1.986682e+02 7.640703e+02 -1.247679e+03
1.988038e+02 7.630917e+02 -1.247835e+03
1.986474e+02 7.544804e+02 -1.184899e+03
1.298986e+02 7.459610e+02 -1.196740e+03
1.987848e+02 7.534964e+02 -1.185013e+03
1.300355e+02 7.449773e+02 -1.196858e+03
2.674360e+02 7.712256e+02 -1.228715e+03
2.675732e+02 7.702457e+02 -1.228860e+03
3.362049e+02 7.783810e+02 -1.209750e+03
3.363414e+02 7.773995e+02 -1.209885e+03
3.361794e+02 7.703168e+02 -1.148515e+03
2.674133e+02 7.623986e+02 -1.166707e+03
3.363168e+02 7.693318e+02 -1.148621e+03
2.675509e+02 7.614141e+02 -1.166817e+03
4.049769e+02 7.856375e+02 -1.189789e+03
4.051128e+02 7.846547e+02 -1.189914e+03
4.737492e+02 7.928940e+02 -1.169827e+03
4.738840e+02 7.919099e+02 -1.169944e+03
4.737265e+02 7.858285e+02 -1.107529e+03
4.049529e+02 7.780726e+02 -1.128022e+03
4.738635e+02 7.848427e+02 -1.107627e+03
4.050902e+02 7.770873e+02 -1.128124e+03
5.425230e+02 8.001982e+02 -1.148979e+03
5.426569e+02 7.992130e+02 -1.149086e+03
6.112969e+02 8.075023e+02 -1.128129e+03
6.114298e+02 8.065162e+02 -1.128230e+03
6.112702e+02 8.012624e+02 -1.064588e+03
5.424984e+02 7.935455e+02 -1.086059e+03
6.114070e+02 8.002762e+02 -1.064682e+03
5.426352e+02 7.925594e+02 -1.086154e+03
6.800798e+02 8.147461e+02 -1.105522e+03
6.802117e+02 8.137593e+02 -1.105616e+03
7.488624e+02 8.219899e+02 -1.082915e+03
7.489940e+02 8.210024e+02 -1.083002e+03
7.487932e+02 8.166979e+02 -1.021141e+03
6.800315e+02 8.089802e+02 -1.042865e+03
7.489296e+02 8.157115e+02 -1.021233e+03
6.801685e+02 8.079938e+02 -1.042957e+03
8.181483e+02 8.300558e+02 -1.067858e+03
8.182801e+02 8.290680e+02 -1.067941e+03
8.875002e+02 8.381260e+02 -1.052799e+03
8.875001e+02 8.371294e+02 -1.052881e+03
8.874998e+02 8.328391e+02 -9.867735e+02
8.181125e+02 8.247662e+02 -1.003958e+03
8.874998e+02 8.318435e+02 -9.868669e+02
8.182487e+02 8.237798e+02 -1.004049e+03
1.298596e+02 7.415123e+02 -1.134106e+03
1.299924e+02 7.405236e+02 -1.134174e+03
1.985676e+02 7.498597e+02 -1.123052e+03
1.987005e+02 7.488711e+02 -1.123123e+03
1.984868e+02 7.452369e+02 -1.061184e+03
1.298204e+02 7.370615e+02 -1.071449e+03
1.986172e+02 7.442479e+02 -1.061254e+03
1.299495e+02 7.360720e+02 -1.071513e+03
2.673177e+02 7.576083e+02 -1.103788e+03
2.674505e+02 7.566199e+02 -1.103862e+03
3.360676e+02 7.653569e+02 -1.084524e+03
3.362007e+02 7.643687e+02 -1.084600e+03
3.359536e+02 7.603951e+02 -1.020515e+03
2.672200e+02 7.528160e+02 -1.040849e+03
3.360868e+02 7.594075e+02 -1.020597e+03
2.673522e+02 7.518277e+02 -1.040926e+03
4.048218e+02 7.728918e+02 -1.063079e+03
4.049553e+02 7.719038e+02 -1.063156e+03
4.735759e+02 7.804266e+02 -1.041633e+03
4.737099e+02 7.794389e+02 -1.041713e+03
4.734229e+02 7.750230e+02 -9.757215e+02
4.046882e+02 7.677091e+02 -9.981184e+02
4.735587e+02 7.740368e+02 -9.758153e+02
4.048228e+02 7.667221e+02 -9.982060e+02
5.423244e+02 7.878378e+02 -1.019383e+03
5.424592e+02 7.868503e+02 -1.019465e+03
6.110728e+02 7.952489e+02 -9.971319e+02
6.112085e+02 7.942618e+02 -9.972178e+02
6.108735e+02 7.892337e+02 -9.296612e+02
5.421482e+02 7.821284e+02 -9.526915e+02
6.110119e+02 7.882491e+02 -9.297682e+02
5.422853e+02 7.811429e+02 -9.527916e+02
6.798063e+02 8.025354e+02 -9.744340e+02
6.799430e+02 8.015489e+02 -9.745241e+02
7.485403e+02 8.098219e+02 -9.517358e+02
7.486769e+02 8.088359e+02 -9.518307e+02
7.482857e+02 8.029444e+02 -8.823187e+02
6.795793e+02 7.960890e+02 -9.059900e+02
7.484259e+02 8.019618e+02 -8.824403e+02
6.797192e+02 7.951055e+02 -9.061042e+02
8.179861e+02 8.170191e+02 -9.302053e+02
8.181225e+02 8.160335e+02 -9.303056e+02
8.875000e+02 8.242209e+02 -9.086755e+02
8.875000e+02 8.232264e+02 -9.087798e+02
8.875002e+02 8.156014e+02 -8.305674e+02
8.178577e+02 8.092703e+02 -8.564425e+02
8.875002e+02 8.146106e+02 -8.307028e+02
8.179983e+02 8.082888e+02 -8.565721e+02
1.297586e+02 7.331514e+02 -1.012295e+03
1.298823e+02 7.321610e+02 -1.012356e+03
1.983602e+02 7.408461e+02 -1.001978e+03
1.984855e+02 7.398564e+02 -1.002047e+03
1.982325e+02 7.364543e+02 -9.427611e+02
1.296957e+02 7.292403e+02 -9.531279e+02
1.983549e+02 7.354659e+02 -9.428517e+02
1.298160e+02 7.282511e+02 -9.532124e+02
2.670647e+02 7.476326e+02 -9.795090e+02
2.671924e+02 7.466439e+02 -9.795871e+02
3.357694e+02 7.544191e+02 -9.570395e+02
3.358992e+02 7.534314e+02 -9.571273e+02
3.355843e+02 7.484420e+02 -8.935558e+02
2.669080e+02 7.424482e+02 -9.181591e+02
3.357125e+02 7.474564e+02 -8.936658e+02
2.670341e+02 7.414611e+02 -9.182581e+02
4.044613e+02 7.609277e+02 -9.334493e+02
4.045932e+02 7.599413e+02 -9.335470e+02
4.731531e+02 7.674362e+02 -9.098589e+02
4.732872e+02 7.664512e+02 -9.099668e+02
4.728834e+02 7.598487e+02 -8.439916e+02
4.042338e+02 7.541454e+02 -8.687737e+02
4.730156e+02 7.588663e+02 -8.441230e+02
4.043641e+02 7.531613e+02 -8.688944e+02
5.418379e+02 7.737546e+02 -8.862249e+02
5.419740e+02 7.727710e+02 -8.863429e+02
6.105226e+02 7.800730e+02 -8.625909e+02
6.106609e+02 7.790909e+02 -8.627191e+02
6.101728e+02 7.709120e+02 -7.955195e+02
5.415281e+02 7.653804e+02 -8.197555e+02
6.103088e+02 7.699330e+02 -7.956711e+02
5.416622e+02 7.643996e+02 -8.198971e+02
6.791948e+02 7.862534e+02 -8.391719e+02
6.793352e+02 7.852731e+02 -8.393102e+02
7.478676e+02 7.924339e+02 -8.157528e+02
7.480090e+02 7.914552e+02 -8.159013e+02
7.474517e+02 7.819238e+02 -7.491893e+02
6.788119e+02 7.764179e+02 -7.723543e+02
7.475899e+02 7.809482e+02 -7.493599e+02
6.789497e+02 7.754406e+02 -7.725156e+02
8.176496e+02 7.980762e+02 -7.902898e+02
8.177921e+02 7.970992e+02 -7.904489e+02
8.875035e+02 8.037239e+02 -7.648284e+02
8.875034e+02 8.027378e+02 -7.649948e+02
8.875067e+02 7.918469e+02 -6.990948e+02
8.174443e+02 7.868828e+02 -7.241413e+02
8.875067e+02 7.908645e+02 -6.992814e+02
8.175832e+02 7.859089e+02 -7.243214e+02
1.296681e+02 7.222535e+02 -8.903247e+02
1.297864e+02 7.212664e+02 -8.904324e+02
1.981767e+02 7.293149e+02 -8.810031e+02
1.982965e+02 7.283284e+02 -8.811149e+02
1.981193e+02 7.221741e+02 -8.192384e+02
1.296395e+02 7.152653e+02 -8.275147e+02
1.982397e+02 7.211923e+02 -8.193848e+02
1.297580e+02 7.142830e+02 -8.276593e+02
2.667964e+02 7.343973e+02 -8.554409e+02
2.669198e+02 7.334123e+02 -8.555609e+02
3.354167e+02 7.394796e+02 -8.298767e+02
3.355425e+02 7.384963e+02 -8.300088e+02
3.352474e+02 7.305158e+02 -7.661926e+02
2.666829e+02 7.263451e+02 -7.927167e+02
3.353742e+02 7.295376e+02 -7.663568e+02
2.668074e+02 7.253648e+02 -7.928696e+02
4.040214e+02 7.442994e+02 -8.042818e+02
4.041493e+02 7.433180e+02 -8.044254e+02
4.726260e+02 7.491191e+02 -7.786871e+02
4.727562e+02 7.481398e+02 -7.788418e+02
4.723671e+02 7.383883e+02 -7.133787e+02
4.038073e+02 7.344521e+02 -7.397855e+02
4.724983e+02 7.374145e+02 -7.135645e+02
4.039362e+02 7.334760e+02 -7.399608e+02
5.412291e+02 7.539156e+02 -7.542041e+02
5.413612e+02 7.529382e+02 -7.543693e+02
6.098320e+02 7.587120e+02 -7.297214e+02
6.099664e+02 7.577366e+02 -7.298965e+02
6.094901e+02 7.465108e+02 -6.639200e+02
5.409286e+02 7.424495e+02 -6.886492e+02
6.096251e+02 7.455414e+02 -6.641252e+02
5.410617e+02 7.414780e+02 -6.888450e+02
6.784484e+02 7.637569e+02 -7.072461e+02
6.785845e+02 7.627835e+02 -7.074302e+02
7.470654e+02 7.688020e+02 -6.847710e+02
7.472020e+02 7.678302e+02 -6.849637e+02
7.466782e+02 7.556790e+02 -6.203494e+02
6.780838e+02 7.510948e+02 -6.421345e+02
7.468150e+02 7.547134e+02 -6.205708e+02
6.782204e+02 7.501275e+02 -6.423482e+02
8.172530e+02 7.738830e+02 -6.627401e+02
8.173899e+02 7.729130e+02 -6.629410e+02
8.875091e+02 7.789690e+02 -6.407103e+02
8.875092e+02 7.779907e+02 -6.409172e+02
8.875116e+02 7.660901e+02 -5.823224e+02
8.170608e+02 7.608821e+02 -6.013355e+02
8.875116e+02 7.651179e+02 -5.825564e+02
8.171974e+02 7.599181e+02 -6.015640e+02
1.296167e+02 7.037166e+02 -7.652499e+02
1.297373e+02 7.027405e+02 -7.654312e+02
1.980749e+02 7.108648e+02 -7.580903e+02
1.981973e+02 7.098888e+02 -7.582709e+02
1.980300e+02 6.995548e+02 -6.969426e+02
1.295937e+02 6.921675e+02 -7.029871e+02
1.981554e+02 6.985860e+02 -6.971566e+02
1.297170e+02 6.911984e+02 -7.032011e+02
2.665949e+02 7.141357e+02 -7.306217e+02
2.667209e+02 7.131612e+02 -7.308075e+02
3.351156e+02 7.174061e+02 -7.031503e+02
3.352438e+02 7.164340e+02 -7.033468e+02
3.349825e+02 7.042954e+02 -6.401070e+02
2.665058e+02 7.019254e+02 -6.685262e+02
3.351147e+02 7.033314e+02 -6.403378e+02
2.666355e+02 7.009584e+02 -6.687458e+02
4.036395e+02 7.204756e+02 -6.759996e+02
4.037698e+02 7.195059e+02 -6.762063e+02
4.721633e+02 7.235450e+02 -6.488489e+02
4.722958e+02 7.225779e+02 -6.490657e+02
4.719580e+02 7.087004e+02 -5.843166e+02
4.034703e+02 7.064979e+02 -6.122117e+02
4.720948e+02 7.077426e+02 -5.845694e+02
4.036047e+02 7.055370e+02 -6.124537e+02
5.407005e+02 7.268504e+02 -6.236227e+02
5.408348e+02 7.258856e+02 -6.238489e+02
6.092376e+02 7.301558e+02 -5.983968e+02
6.093738e+02 7.291934e+02 -5.986318e+02
6.089833e+02 7.137989e+02 -5.328696e+02
5.404707e+02 7.112497e+02 -5.585930e+02
6.091243e+02 7.128473e+02 -5.331424e+02
5.406095e+02 7.102949e+02 -5.588560e+02
6.778250e+02 7.341770e+02 -5.764018e+02
6.779627e+02 7.332168e+02 -5.766447e+02
7.464131e+02 7.381985e+02 -5.544072e+02
7.465508e+02 7.372400e+02 -5.546571e+02
7.461461e+02 7.207155e+02 -4.884594e+02
6.775643e+02 7.172571e+02 -5.106643e+02
7.462885e+02 7.197691e+02 -4.887490e+02
6.777068e+02 7.163083e+02 -5.109459e+02
8.169263e+02 7.431699e+02 -5.358597e+02
8.170637e+02 7.422130e+02 -5.361155e+02
8.875080e+02 7.481464e+02 -5.173124e+02
8.875081e+02 7.471810e+02 -5.175736e+02
8.875044e+02 7.301999e+02 -4.522952e+02
8.167900e+02 7.254551e+02 -4.703771e+02
8.875046e+02 7.292469e+02 -4.525980e+02
8.169318e+02 7.245106e+02 -4.706737e+02
1.295977e+02 6.771515e+02 -6.445079e+02
1.297229e+02 6.761905e+02 -6.447543e+02
1.980388e+02 6.840520e+02 -6.367355e+02
1.981664e+02 6.830915e+02 -6.369826e+02
1.980476e+02 6.685491e+02 -5.765299e+02
1.296013e+02 6.621354e+02 -5.860303e+02
1.981774e+02 6.675971e+02 -5.768071e+02
1.297291e+02 6.611827e+02 -5.863059e+02
2.664691e+02 6.853726e+02 -6.074859e+02
2.666017e+02 6.844143e+02 -6.077392e+02
3.349007e+02 6.866925e+02 -5.782334e+02
3.350357e+02 6.857377e+02 -5.784986e+02
3.348192e+02 6.690893e+02 -5.163611e+02
2.664329e+02 6.688196e+02 -5.464469e+02
3.349564e+02 6.681443e+02 -5.166581e+02
2.665674e+02 6.678703e+02 -5.467312e+02
4.033689e+02 6.878607e+02 -5.496993e+02
4.035064e+02 6.869097e+02 -5.499761e+02
4.718371e+02 6.890289e+02 -5.211652e+02
4.719771e+02 6.880816e+02 -5.214536e+02
4.717167e+02 6.693570e+02 -4.580149e+02
4.032680e+02 6.692232e+02 -4.871880e+02
4.718589e+02 6.684210e+02 -4.583367e+02
4.034076e+02 6.682826e+02 -4.874974e+02
5.403743e+02 6.905043e+02 -4.946048e+02
5.405163e+02 6.895609e+02 -4.949044e+02
6.089114e+02 6.919797e+02 -4.680446e+02
6.090556e+02 6.910401e+02 -4.683549e+02
6.088397e+02 6.701601e+02 -4.032207e+02
5.402782e+02 6.697586e+02 -4.306177e+02
6.089867e+02 6.692333e+02 -4.035663e+02
5.404228e+02 6.688271e+02 -4.309516e+02
6.775414e+02 6.943295e+02 -4.446589e+02
6.776874e+02 6.933933e+02 -4.449789e+02
7.461725e+02 6.966794e+02 -4.212735e+02
7.463182e+02 6.957464e+02 -4.216025e+02
7.461986e+02 6.726425e+02 -3.540882e+02
6.775187e+02 6.714012e+02 -3.786543e+02
7.463482e+02 6.717245e+02 -3.544554e+02
6.776679e+02 6.704790e+02 -3.790110e+02
8.167962e+02 7.002039e+02 -4.013925e+02
8.169412e+02 6.992735e+02 -4.017292e+02
8.874919e+02 7.037340e+02 -3.815117e+02
8.874922e+02 7.027950e+02 -3.818556e+02
8.874795e+02 6.772671e+02 -3.107283e+02
8.168019e+02 6.749517e+02 -3.324080e+02
8.874797e+02 6.763441e+02 -3.111131e+02
8.169511e+02 6.740374e+02 -3.327845e+02
1.296521e+02 6.426742e+02 -5.259706e+02
1.297816e+02 6.417305e+02 -5.262750e+02
1.981502e+02 6.492337e+02 -5.174594e+02
1.982813e+02 6.482911e+02 -5.177664e+02
1.982531e+02 6.299175e+02 -4.583878e+02
1.297038e+02 6.232119e+02 -4.659090e+02
1.983849e+02 6.289859e+02 -4.587268e+02
1.298332e+02 6.222793e+02 -4.662460e+02
2.664954e+02 6.482767e+02 -4.866338e+02
2.666311e+02 6.473374e+02 -4.869489e+02
3.348416e+02 6.473188e+02 -4.558055e+02
3.349799e+02 6.463845e+02 -4.561340e+02
3.348634e+02 6.255471e+02 -3.952486e+02
2.665575e+02 6.277329e+02 -4.268199e+02
3.350040e+02 6.246259e+02 -3.956112e+02
2.666952e+02 6.268053e+02 -4.271673e+02
4.033269e+02 6.462239e+02 -4.260162e+02
4.034676e+02 6.452948e+02 -4.263580e+02
4.718122e+02 6.451290e+02 -3.962270e+02
4.719553e+02 6.442051e+02 -3.965819e+02
4.719062e+02 6.208987e+02 -3.344359e+02
4.033848e+02 6.232230e+02 -3.648423e+02
4.720532e+02 6.199915e+02 -3.348303e+02
4.035286e+02 6.223086e+02 -3.652207e+02
5.404568e+02 6.441075e+02 -3.678422e+02
5.406023e+02 6.431891e+02 -3.682102e+02
6.091014e+02 6.430859e+02 -3.394576e+02
6.092494e+02 6.421732e+02 -3.398384e+02
6.093604e+02 6.160076e+02 -2.756885e+02
5.406333e+02 6.184533e+02 -3.050623e+02
6.095148e+02 6.151172e+02 -2.761165e+02
5.407840e+02 6.175542e+02 -3.054733e+02
6.779179e+02 6.426317e+02 -3.133344e+02
6.780680e+02 6.417245e+02 -3.137275e+02
7.467350e+02 6.421775e+02 -2.872113e+02
7.468861e+02 6.412758e+02 -2.876164e+02
7.472669e+02 6.117051e+02 -2.203236e+02
6.783134e+02 6.138565e+02 -2.480062e+02
7.474285e+02 6.108345e+02 -2.207882e+02
6.784719e+02 6.129757e+02 -2.484522e+02
8.170677e+02 6.428118e+02 -2.639562e+02
8.172190e+02 6.419150e+02 -2.643719e+02
8.874760e+02 6.434528e+02 -2.407017e+02
8.874763e+02 6.425476e+02 -2.411268e+02
8.874731e+02 6.096281e+02 -1.706583e+02
8.173281e+02 6.106623e+02 -1.954902e+02
8.874723e+02 6.087615e+02 -1.711573e+02
8.174923e+02 6.098023e+02 -1.959735e+02
1.295957e+02 6.000539e+02 -4.083397e+02
1.297254e+02 5.991336e+02 -4.087087e+02
1.980373e+02 6.066995e+02 -4.010137e+02
1.981691e+02 6.057802e+02 -4.013843e+02
1.978173e+02 5.834725e+02 -3.436227e+02
1.294868e+02 5.768888e+02 -3.507567e+02
1.979575e+02 5.825835e+02 -3.440587e+02
1.296185e+02 5.759949e+02 -3.511850e+02
2.663866e+02 6.036821e+02 -3.704187e+02
2.665245e+02 6.027673e+02 -3.707984e+02
3.347374e+02 6.006632e+02 -3.398198e+02
3.348783e+02 5.997560e+02 -3.402164e+02
3.346019e+02 5.757650e+02 -2.843682e+02
2.662076e+02 5.796199e+02 -3.139979e+02
3.347621e+02 5.749004e+02 -2.848444e+02
2.663618e+02 5.787408e+02 -3.144491e+02
4.032411e+02 5.971508e+02 -3.099187e+02
4.033853e+02 5.962523e+02 -3.103332e+02
4.717448e+02 5.936381e+02 -2.800172e+02
4.718923e+02 5.927490e+02 -2.804504e+02
4.715699e+02 5.663556e+02 -2.255674e+02
4.030860e+02 5.710611e+02 -2.549685e+02
4.717449e+02 5.655284e+02 -2.261016e+02
4.032534e+02 5.702136e+02 -2.554723e+02
5.404207e+02 5.895649e+02 -2.508470e+02
5.405721e+02 5.886866e+02 -2.513003e+02
6.090966e+02 5.854912e+02 -2.216761e+02
6.092519e+02 5.846248e+02 -2.221509e+02
6.088146e+02 5.549404e+02 -1.676227e+02
5.401922e+02 5.606491e+02 -1.965958e+02
6.090072e+02 5.541668e+02 -1.682263e+02
5.403761e+02 5.598465e+02 -1.971632e+02
6.780032e+02 5.809865e+02 -1.937703e+02
6.781629e+02 5.801342e+02 -1.942684e+02
7.469103e+02 5.764811e+02 -1.658637e+02
7.470734e+02 5.756444e+02 -1.663867e+02
7.465314e+02 5.412057e+02 -1.113531e+02
6.776721e+02 5.480743e+02 -1.394884e+02
7.467406e+02 5.405057e+02 -1.120359e+02
6.778748e+02 5.473350e+02 -1.401306e+02
8.171441e+02 5.724161e+02 -1.405470e+02
8.173105e+02 5.715970e+02 -1.410960e+02
8.874636e+02 5.683612e+02 -1.152329e+02
8.874620e+02 5.675394e+02 -1.158027e+02
8.874531e+02 5.270312e+02 -5.974822e+01
8.169370e+02 5.341095e+02 -8.555010e+01
8.874527e+02 5.263804e+02 -6.050752e+01
8.171519e+02 5.334520e+02 -8.627227e+01
1.294488e+02 5.404466e+02 -2.873607e+02
1.295735e+02 5.395818e+02 -2.878472e+02
1.977355e+02 5.420502e+02 -2.740035e+02
1.978732e+02 5.411952e+02 -2.745035e+02
1.976365e+02 5.005746e+02 -2.043269e+02
1.293897e+02 5.039571e+02 -2.239111e+02
1.978061e+02 4.998602e+02 -2.050057e+02
1.295496e+02 5.032159e+02 -2.245630e+02
2.660579e+02 5.374564e+02 -2.489292e+02
2.662144e+02 5.366172e+02 -2.494501e+02
3.343863e+02 5.328593e+02 -2.238491e+02
3.345496e+02 5.320425e+02 -2.244025e+02
3.341590e+02 4.898886e+02 -1.632725e+02
2.658962e+02 4.952335e+02 -1.838010e+02
3.343488e+02 4.892496e+02 -1.640181e+02
2.660790e+02 4.945530e+02 -1.845106e+02
4.027947e+02 5.268506e+02 -1.989507e+02
4.029667e+02 5.260616e+02 -1.995404e+02
4.712031e+02 5.208390e+02 -1.740503e+02
4.713838e+02 5.200836e+02 -1.746803e+02
4.708278e+02 4.752513e+02 -1.224882e+02
4.024928e+02 4.825711e+02 -1.428802e+02
4.710312e+02 4.747099e+02 -1.233040e+02
4.026906e+02 4.819786e+02 -1.436612e+02
5.397702e+02 5.131467e+02 -1.497360e+02
5.399620e+02 5.124332e+02 -1.504099e+02
6.083377e+02 5.054501e+02 -1.254201e+02
6.085399e+02 5.047872e+02 -1.261410e+02
6.078599e+02 4.558968e+02 -8.319706e+01
5.393433e+02 4.655751e+02 -1.028421e+02
6.080735e+02 4.554706e+02 -8.407616e+01
5.395529e+02 4.650892e+02 -1.036906e+02
6.771929e+02 4.958130e+02 -1.021525e+02
6.774073e+02 4.952105e+02 -1.029212e+02
7.460502e+02 4.861713e+02 -7.888488e+01
7.462727e+02 4.856385e+02 -7.970138e+01
7.455778e+02 4.311031e+02 -4.642712e+01
6.767180e+02 4.435006e+02 -6.481127e+01
7.457960e+02 4.308051e+02 -4.735640e+01
6.769356e+02 4.431372e+02 -6.571710e+01
8.167036e+02 4.756092e+02 -5.764750e+01
8.169324e+02 4.751509e+02 -5.850638e+01
8.874746e+02 4.650706e+02 -3.640951e+01
8.874745e+02 4.646399e+02 -3.731199e+01
8.874962e+02 4.031100e+02 -1.310484e+01
8.164832e+02 4.170972e+02 -2.976900e+01
8.874962e+02 4.028994e+02 -1.408242e+01
8.166999e+02 4.168616e+02 -3.071639e+01
1.294631e+02 4.567334e+02 -1.910414e+02
1.296360e+02 4.561471e+02 -1.918328e+02
1.977908e+02 4.519689e+02 -1.747360e+02
1.979714e+02 4.514326e+02 -1.755604e+02
1.979507e+02 4.033231e+02 -1.451584e+02
1.295420e+02 4.094534e+02 -1.581714e+02
1.981311e+02 4.030451e+02 -1.461018e+02
1.297169e+02 4.091346e+02 -1.591029e+02
2.661470e+02 4.443094e+02 -1.576506e+02
2.663372e+02 4.438304e+02 -1.585076e+02
3.345046e+02 4.366466e+02 -1.405659e+02
3.347016e+02 4.362314e+02 -1.414540e+02
3.348564e+02 3.833980e+02 -1.178921e+02
2.664028e+02 3.933620e+02 -1.315250e+02
3.350482e+02 3.832198e+02 -1.188571e+02
2.665904e+02 3.931310e+02 -1.324797e+02
4.029583e+02 4.263944e+02 -1.237273e+02
4.031623e+02 4.260458e+02 -1.246421e+02
4.714132e+02 4.161414e+02 -1.068911e+02
4.716217e+02 4.158609e+02 -1.078280e+02
4.720051e+02 3.570547e+02 -9.133419e+01
4.034303e+02 3.702268e+02 -1.046124e+02
4.722057e+02 3.569887e+02 -9.231163e+01
4.036274e+02 3.701038e+02 -1.055851e+02
5.400379e+02 4.033983e+02 -9.090345e+01
5.402504e+02 4.031839e+02 -9.185682e+01
6.086634e+02 3.906564e+02 -7.491830e+01
6.088783e+02 3.905057e+02 -7.588323e+01
6.094711e+02 3.254541e+02 -6.667643e+01
5.407379e+02 3.412545e+02 -7.900452e+01
6.096789e+02 3.255027e+02 -6.765341e+01
5.409425e+02 3.412456e+02 -7.998331e+01
6.777031e+02 3.763737e+02 -6.005893e+01
6.779193e+02 3.762810e+02 -6.103087e+01
7.467436e+02 3.620934e+02 -4.520124e+01
7.469596e+02 3.620540e+02 -4.617682e+01
7.479109e+02 2.931123e+02 -4.400430e+01
6.786903e+02 3.092832e+02 -5.533967e+01
7.481217e+02 2.932743e+02 -4.496830e+01
6.789010e+02 3.093885e+02 -5.631155e+01
8.170683e+02 3.497671e+02 -3.109744e+01
8.172816e+02 3.497710e+02 -3.207441e+01
8.874981e+02 3.374532e+02 -1.698295e+01
8.874985e+02 3.374755e+02 -1.798270e+01
8.875002e+02 2.717980e+02 -2.088816e+01
8.176540e+02 2.824496e+02 -3.245250e+01
8.875006e+02 2.720500e+02 -2.185588e+01
8.178627e+02 2.826677e+02 -3.340582e+01
1.295869e+02 3.537322e+02 -1.577600e+02
1.297619e+02 3.537126e+02 -1.587444e+02
1.980411e+02 3.459413e+02 -1.461483e+02
1.982205e+02 3.459467e+02 -1.471320e+02
1.981269e+02 2.885804e+02 -1.471749e+02
1.296276e+02 2.980431e+02 -1.573877e+02
1.983145e+02 2.888274e+02 -1.481255e+02
1.298110e+02 2.982585e+02 -1.583468e+02
2.665330e+02 3.347878e+02 -1.347501e+02
2.667180e+02 3.348240e+02 -1.357322e+02
3.350264e+02 3.236316e+02 -1.233524e+02
3.352139e+02 3.237040e+02 -1.243319e+02
3.351896e+02 2.638594e+02 -1.288489e+02
2.666576e+02 2.762219e+02 -1.380108e+02
3.353864e+02 2.641940e+02 -1.297705e+02
2.668511e+02 2.765087e+02 -1.389491e+02
4.036505e+02 3.100453e+02 -1.128042e+02
4.038415e+02 3.101570e+02 -1.137794e+02
4.722754e+02 2.964574e+02 -1.022570e+02
4.724682e+02 2.966116e+02 -1.032260e+02
4.725369e+02 2.358263e+02 -1.132232e+02
4.038625e+02 2.498439e+02 -1.210348e+02
4.727395e+02 2.362683e+02 -1.140970e+02
4.040637e+02 2.502301e+02 -1.219350e+02
5.410406e+02 2.813495e+02 -9.297802e+01
5.412362e+02 2.815491e+02 -9.393819e+01
6.098073e+02 2.662400e+02 -8.370030e+01
6.100026e+02 2.664882e+02 -8.464912e+01
6.101342e+02 2.069725e+02 -1.007808e+02
5.413344e+02 2.213996e+02 -1.070009e+02
6.103356e+02 2.075271e+02 -1.015882e+02
5.415387e+02 2.218975e+02 -1.078437e+02
6.789021e+02 2.509370e+02 -7.616538e+01
6.790978e+02 2.512384e+02 -7.709856e+01
7.480023e+02 2.356315e+02 -6.863196e+01
7.481876e+02 2.359911e+02 -6.954650e+01
7.480806e+02 1.780913e+02 -9.333560e+01
6.791046e+02 1.925322e+02 -9.705671e+01
7.482666e+02 1.787673e+02 -9.404872e+01
6.793039e+02 1.931469e+02 -9.781995e+01
8.177082e+02 2.230322e+02 -6.400004e+01
8.178819e+02 2.234578e+02 -6.488814e+01
8.874947e+02 2.104443e+02 -5.935731e+01
8.874955e+02 2.109132e+02 -6.024059e+01
8.874900e+02 1.490482e+02 -9.790716e+01
8.177454e+02 1.635650e+02 -9.562995e+01
8.874896e+02 1.498188e+02 -9.854460e+01
8.179180e+02 1.642978e+02 -9.628809e+01
1.296129e+02 2.517318e+02 -1.816881e+02
1.297894e+02 2.521715e+02 -1.825688e+02
1.980954e+02 2.435809e+02 -1.732296e+02
1.982732e+02 2.440563e+02 -1.740912e+02
1.980716e+02 1.985727e+02 -1.993327e+02
1.296057e+02 2.054055e+02 -2.060380e+02
1.982242e+02 1.992939e+02 -2.000085e+02
1.297601e+02 2.060995e+02 -2.067413e+02
2.665660e+02 2.330690e+02 -1.670091e+02
2.667465e+02 2.335901e+02 -1.678433e+02
3.350373e+02 2.225528e+02 -1.607933e+02
3.352191e+02 2.231281e+02 -1.615908e+02
3.348949e+02 1.812603e+02 -1.927753e+02
2.664821e+02 1.899175e+02 -1.960521e+02
3.350419e+02 1.820481e+02 -1.933735e+02
2.666342e+02 1.906700e+02 -1.966929e+02
4.036876e+02 2.114760e+02 -1.561033e+02
4.038715e+02 2.121087e+02 -1.568556e+02
4.723391e+02 2.003981e+02 -1.514181e+02
4.725228e+02 2.010905e+02 -1.521157e+02
4.721554e+02 1.650137e+02 -1.896238e+02
4.035251e+02 1.731366e+02 -1.911985e+02
4.722920e+02 1.658689e+02 -1.901236e+02
4.036670e+02 1.739589e+02 -1.917496e+02
5.411566e+02 1.897261e+02 -1.475575e+02
5.413395e+02 1.904745e+02 -1.481950e+02
6.099783e+02 1.790555e+02 -1.436996e+02
6.101520e+02 1.798572e+02 -1.442715e+02
6.098353e+02 1.512078e+02 -1.865885e+02
5.409941e+02 1.581099e+02 -1.881061e+02
6.099555e+02 1.521180e+02 -1.869847e+02
5.411250e+02 1.589943e+02 -1.885542e+02
6.788533e+02 1.680303e+02 -1.450674e+02
6.790191e+02 1.688840e+02 -1.455610e+02
7.477287e+02 1.570081e+02 -1.464393e+02
7.478859e+02 1.579079e+02 -1.468464e+02
7.473891e+02 1.360094e+02 -1.994538e+02
6.786124e+02 1.436078e+02 -1.930204e+02
7.474929e+02 1.369640e+02 -1.997332e+02
6.787240e+02 1.445418e+02 -1.933597e+02
8.175741e+02 1.466238e+02 -1.514607e+02
8.177234e+02 1.475572e+02 -1.517869e+02
8.874906e+02 1.362448e+02 -1.564588e+02
8.874897e+02 1.372013e+02 -1.567506e+02
8.874907e+02 1.235228e+02 -2.148829e+02
8.174178e+02 1.297648e+02 -2.071760e+02
8.874903e+02 1.245024e+02 -2.150843e+02
8.175137e+02 1.307345e+02 -2.074011e+02
1.296361e+02 1.814647e+02 -2.543979e+02
1.297541e+02 1.823465e+02 -2.548544e+02
1.981138e+02 1.763715e+02 -2.487097e+02
1.982307e+02 1.772699e+02 -2.491331e+02
1.981552e+02 1.542381e+02 -2.980067e+02
1.296649e+02 1.575938e+02 -3.026835e+02
1.982380e+02 1.551781e+02 -2.983377e+02
1.297496e+02 1.585235e+02 -3.030418e+02
2.665813e+02 1.699826e+02 -2.462884e+02
2.666979e+02 1.708976e+02 -2.466747e+02
3.350523e+02 1.635934e+02 -2.438692e+02
3.351615e+02 1.645255e+02 -2.442143e+02
3.352068e+02 1.459848e+02 -2.948742e+02
2.666801e+02 1.501114e+02 -2.964399e+02
3.352840e+02 1.469446e+02 -2.951440e+02
2.667619e+02 1.510614e+02 -2.967414e+02
4.036697e+02 1.571532e+02 -2.445779e+02
4.037720e+02 1.581002e+02 -2.448825e+02
4.722873e+02 1.507143e+02 -2.452857e+02
4.723824e+02 1.516735e+02 -2.455517e+02
4.724115e+02 1.364587e+02 -3.008594e+02
4.038089e+02 1.412215e+02 -2.978670e+02
4.724805e+02 1.374343e+02 -3.010680e+02
4.038825e+02 1.421897e+02 -2.981058e+02
5.410394e+02 1.449206e+02 -2.476613e+02
5.411273e+02 1.458895e+02 -2.478925e+02
6.097905e+02 1.391281e+02 -2.500347e+02
6.098733e+02 1.401042e+02 -2.502354e+02
6.097379e+02 1.270764e+02 -3.134060e+02
5.410748e+02 1.317672e+02 -3.071333e+02
6.097989e+02 1.280624e+02 -3.135610e+02
5.411396e+02 1.327487e+02 -3.073139e+02
6.785311e+02 1.332299e+02 -2.574927e+02
6.786100e+02 1.342118e+02 -2.576651e+02
7.472732e+02 1.273322e+02 -2.649503e+02
7.473452e+02 1.283190e+02 -2.650951e+02
7.471508e+02 1.186680e+02 -3.303987e+02
6.784440e+02 1.228721e+02 -3.219025e+02
7.472040e+02 1.196610e+02 -3.305051e+02
6.785018e+02 1.238618e+02 -3.220329e+02
8.173693e+02 1.225099e+02 -2.731072e+02
8.174339e+02 1.235006e+02 -2.732274e+02
8.874942e+02 1.176880e+02 -2.812570e+02
8.874937e+02 1.186819e+02 -2.813668e+02
8.874975e+02 1.118587e+02 -3.476032e+02
8.173132e+02 1.152633e+02 -3.390041e+02
8.874973e+02 1.128559e+02 -3.476772e+02
8.173616e+02 1.162585e+02 -3.390880e+02
1.297022e+02 1.426320e+02 -3.620917e+02
1.297570e+02 1.435974e+02 -3.623465e+02
1.982147e+02 1.394020e+02 -3.622424e+02
1.982678e+02 1.403727e+02 -3.624767e+02
1.982685e+02 1.245777e+02 -4.264435e+02
1.297332e+02 1.276842e+02 -4.214620e+02
1.983033e+02 1.255555e+02 -4.266503e+02
1.297707e+02 1.286574e+02 -4.216891e+02
2.667648e+02 1.358131e+02 -3.656198e+02
2.668169e+02 1.367887e+02 -3.658331e+02
3.353154e+02 1.322245e+02 -3.689972e+02
3.353655e+02 1.332045e+02 -3.691894e+02
3.354206e+02 1.184714e+02 -4.430946e+02
2.668444e+02 1.215245e+02 -4.347690e+02
3.354504e+02 1.194572e+02 -4.432604e+02
2.668770e+02 1.225064e+02 -4.349554e+02
4.039153e+02 1.287072e+02 -3.747413e+02
4.039638e+02 1.296912e+02 -3.749126e+02
4.725158e+02 1.251901e+02 -3.804855e+02
4.725615e+02 1.261778e+02 -3.806357e+02
4.726192e+02 1.139255e+02 -4.600949e+02
4.040198e+02 1.161984e+02 -4.515947e+02
4.726434e+02 1.149173e+02 -4.602201e+02
4.040470e+02 1.171873e+02 -4.517403e+02
5.411509e+02 1.220815e+02 -3.879041e+02
5.411942e+02 1.230721e+02 -3.880336e+02
6.097862e+02 1.189730e+02 -3.953228e+02
6.098267e+02 1.199663e+02 -3.954314e+02
6.098351e+02 1.108718e+02 -4.772279e+02
5.412272e+02 1.123986e+02 -4.686614e+02
6.098539e+02 1.118680e+02 -4.773135e+02
5.412486e+02 1.133927e+02 -4.687668e+02
6.784418e+02 1.164588e+02 -4.038406e+02
6.784796e+02 1.174542e+02 -4.039288e+02
7.470978e+02 1.139447e+02 -4.123585e+02
7.471322e+02 1.149419e+02 -4.124262e+02
7.470438e+02 1.092230e+02 -4.943039e+02
6.784406e+02 1.100472e+02 -4.857685e+02
7.470614e+02 1.102212e+02 -4.943617e+02
6.784565e+02 1.110448e+02 -4.858350e+02
8.172913e+02 1.121558e+02 -4.208800e+02
8.173224e+02 1.131541e+02 -4.209278e+02
8.874988e+02 1.103670e+02 -4.293964e+02
8.874986e+02 1.113662e+02 -4.294345e+02
8.875001e+02 1.088763e+02 -5.111717e+02
8.172665e+02 1.090497e+02 -5.027379e+02
8.874999e+02 1.098755e+02 -5.112097e+02
8.172861e+02 1.100483e+02 -5.027856e+02
1.298319e+02 1.172976e+02 -4.751899e+02
1.298538e+02 1.182774e+02 -4.753891e+02
1.984578e+02 1.158452e+02 -4.775025e+02
1.984777e+02 1.168288e+02 -4.776817e+02
1.986433e+02 1.071155e+02 -5.285477e+02
1.299268e+02 1.069143e+02 -5.289038e+02
1.986559e+02 1.080993e+02 -5.287269e+02
1.299408e+02 1.078941e+02 -5.291031e+02
2.670461e+02 1.144193e+02 -4.814873e+02
2.670640e+02 1.154064e+02 -4.816467e+02
3.356347e+02 1.129936e+02 -4.854723e+02
3.356501e+02 1.139838e+02 -4.856114e+02
3.358445e+02 1.075180e+02 -5.278366e+02
2.672438e+02 1.073167e+02 -5.281920e+02
3.358541e+02 1.085082e+02 -5.279758e+02
2.672551e+02 1.083038e+02 -5.283515e+02
4.042175e+02 1.119580e+02 -4.895444e+02
4.042305e+02 1.129507e+02 -4.896639e+02
4.728002e+02 1.109226e+02 -4.936165e+02
4.728109e+02 1.119175e+02 -4.937165e+02
4.729766e+02 1.079212e+02 -5.271255e+02
4.044106e+02 1.077195e+02 -5.274811e+02
4.729830e+02 1.089162e+02 -5.272255e+02
4.044185e+02 1.087123e+02 -5.276006e+02
5.413813e+02 1.102602e+02 -4.977215e+02
5.413897e+02 1.112569e+02 -4.978027e+02
6.099623e+02 1.095980e+02 -5.018265e+02
6.099686e+02 1.105961e+02 -5.018890e+02
6.100847e+02 1.083252e+02 -5.264135e+02
5.415307e+02 1.081231e+02 -5.267695e+02
6.100881e+02 1.093232e+02 -5.264761e+02
5.415355e+02 1.091198e+02 -5.268508e+02
6.785363e+02 1.092870e+02 -5.059183e+02
6.785405e+02 1.102859e+02 -5.059630e+02
7.471090e+02 1.089762e+02 -5.100048e+02
7.471138e+02 1.099755e+02 -5.100424e+02
7.471691e+02 1.087300e+02 -5.256956e+02
6.786274e+02 1.085274e+02 -5.260573e+02
7.471713e+02 1.097292e+02 -5.257332e+02
6.786292e+02 1.095264e+02 -5.261019e+02
1.641980e+03 1.109267e+03 -1.951899e+03
1.641904e+03 1.108375e+03 -1.952345e+03
1.643154e+03 1.072921e+03 -1.879031e+03
1.643072e+03 1.072033e+03 -1.879485e+03
1.572485e+03 1.082085e+03 -1.883766e+03
1.570140e+03 1.116262e+03 -1.953045e+03
1.572403e+03 1.081195e+03 -1.884214e+03
1.570064e+03 1.115368e+03 -1.953487e+03
1.643670e+03 1.042809e+03 -1.821000e+03
1.643583e+03 1.041926e+03 -1.821462e+03
1.644187e+03 1.012694e+03 -1.762964e+03
1.644094e+03 1.011822e+03 -1.763445e+03
1.574545e+03 1.021008e+03 -1.764188e+03
1.573515e+03 1.051548e+03 -1.823980e+03
1.574453e+03 1.020132e+03 -1.764662e+03
1.573428e+03 1.050662e+03 -1.824435e+03
1.644434e+03 9.848674e+02 -1.714787e+03
1.644337e+03 9.840078e+02 -1.715289e+03
1.644683e+03 9.570387e+02 -1.666608e+03
1.644578e+03 9.561957e+02 -1.667135e+03
1.575532e+03 9.633734e+02 -1.662460e+03
1.575038e+03 9.921916e+02 -1.713325e+03
1.575426e+03 9.625248e+02 -1.662978e+03
1.574940e+03 9.913275e+02 -1.713819e+03
1.644806e+03 9.295880e+02 -1.625071e+03
1.644693e+03 9.287625e+02 -1.625624e+03
1.644929e+03 9.021434e+02 -1.583544e+03
1.644807e+03 9.013233e+02 -1.584102e+03
1.576015e+03 9.068437e+02 -1.574760e+03
1.575773e+03 9.351054e+02 -1.618605e+03
1.575893e+03 9.060151e+02 -1.575306e+03
1.575660e+03 9.342731e+02 -1.619147e+03
1.644989e+03 8.770318e+02 -1.546561e+03
1.644855e+03 8.762172e+02 -1.547125e+03
1.645046e+03 8.519303e+02 -1.509593e+03
1.644906e+03 8.511009e+02 -1.510134e+03
1.576240e+03 8.543535e+02 -1.494617e+03
1.576129e+03 8.805932e+02 -1.534680e+03
1.576100e+03 8.535113e+02 -1.495137e+03
1.575995e+03 8.797686e+02 -1.535230e+03
1.645070e+03 8.297034e+02 -1.471955e+03
1.644918e+03 8.288604e+02 -1.472471e+03
1.645087e+03 8.074896e+02 -1.434340e+03
1.644938e+03 8.066068e+02 -1.434786e+03
1.576317e+03 8.086907e+02 -1.412233e+03
1.576282e+03 8.315164e+02 -1.453414e+03
1.576169e+03 8.077939e+02 -1.412649e+03
1.576131e+03 8.306583e+02 -1.453904e+03
1.645085e+03 7.880523e+02 -1.384034e+03
1.644937e+03 7.871361e+02 -1.384407e+03
1.645083e+03 7.686153e+02 -1.333741e+03
1.644936e+03 7.676650e+02 -1.334015e+03
1.576310e+03 7.740878e+02 -1.312281e+03
1.576314e+03 7.913902e+02 -1.362253e+03
1.576164e+03 7.731308e+02 -1.312531e+03
1.576166e+03 7.904614e+02 -1.362594e+03
1.645086e+03 7.578418e+02 -1.270682e+03
1.644949e+03 7.568666e+02 -1.270856e+03
1.645095e+03 7.470596e+02 -1.207599e+03
1.644956e+03 7.460768e+02 -1.207721e+03
1.576338e+03 7.549792e+02 -1.189991e+03
1.576322e+03 7.645371e+02 -1.251148e+03
1.576200e+03 7.539958e+02 -1.190107e+03
1.576184e+03 7.635597e+02 -1.251307e+03
1.645122e+03 7.421379e+02 -1.141002e+03
1.644991e+03 7.411492e+02 -1.141075e+03
1.645152e+03 7.372135e+02 -1.074384e+03
1.645023e+03 7.362242e+02 -1.074450e+03
1.576458e+03 7.451954e+02 -1.060444e+03
1.576397e+03 7.500885e+02 -1.125228e+03
1.576328e+03 7.442066e+02 -1.060516e+03
1.576265e+03 7.491000e+02 -1.125301e+03
1.645215e+03 7.331055e+02 -1.012326e+03
1.645091e+03 7.321151e+02 -1.012387e+03
1.645279e+03 7.289963e+02 -9.502532e+02
1.645158e+03 7.280072e+02 -9.503387e+02
1.576716e+03 7.360429e+02 -9.380618e+02
1.576587e+03 7.406197e+02 -9.992590e+02
1.576594e+03 7.350547e+02 -9.381534e+02
1.576461e+03 7.396301e+02 -9.993286e+02
1.645319e+03 7.218007e+02 -8.866687e+02
1.645200e+03 7.208139e+02 -8.867783e+02
1.645359e+03 7.146038e+02 -8.230776e+02
1.645241e+03 7.136218e+02 -8.232245e+02
1.576878e+03 7.217608e+02 -8.164734e+02
1.576797e+03 7.289025e+02 -8.772707e+02
1.576758e+03 7.207792e+02 -8.166216e+02
1.576676e+03 7.279163e+02 -8.773844e+02
1.645381e+03 7.030594e+02 -7.615707e+02
1.645261e+03 7.020838e+02 -7.617543e+02
1.645403e+03 6.915148e+02 -7.000661e+02
1.645280e+03 6.905461e+02 -7.002818e+02
1.576964e+03 6.989963e+02 -6.944233e+02
1.576921e+03 7.103788e+02 -7.554480e+02
1.576838e+03 6.980279e+02 -6.946387e+02
1.576798e+03 7.094033e+02 -7.556305e+02
1.645399e+03 6.765639e+02 -6.421517e+02
1.645274e+03 6.756031e+02 -6.423993e+02
1.645395e+03 6.616128e+02 -5.842388e+02
1.645267e+03 6.606603e+02 -5.845153e+02
1.576945e+03 6.678347e+02 -5.740967e+02
1.576954e+03 6.834156e+02 -6.342592e+02
1.576815e+03 6.668831e+02 -5.743749e+02
1.576827e+03 6.824554e+02 -6.345076e+02
1.645359e+03 6.421038e+02 -5.242253e+02
1.645230e+03 6.411603e+02 -5.245304e+02
1.645323e+03 6.225937e+02 -4.642098e+02
1.645193e+03 6.216613e+02 -4.645474e+02
1.576800e+03 6.289173e+02 -4.556514e+02
1.576873e+03 6.483765e+02 -5.148746e+02
1.576668e+03 6.279863e+02 -4.559916e+02
1.576741e+03 6.474342e+02 -5.151827e+02
1.645428e+03 5.993977e+02 -4.067357e+02
1.645298e+03 5.984776e+02 -4.071052e+02
1.645535e+03 5.761948e+02 -3.492484e+02
1.645402e+03 5.753009e+02 -3.496763e+02
1.577225e+03 5.818760e+02 -3.401444e+02
1.577011e+03 6.054012e+02 -3.979062e+02
1.577085e+03 5.809878e+02 -3.405816e+02
1.576878e+03 6.044825e+02 -3.982783e+02
1.645570e+03 5.405037e+02 -2.871664e+02
1.645443e+03 5.396385e+02 -2.876516e+02
1.645625e+03 5.047663e+02 -2.250316e+02
1.645464e+03 5.040223e+02 -2.256798e+02
1.577392e+03 5.007180e+02 -2.044954e+02
1.577300e+03 5.413233e+02 -2.723481e+02
1.577222e+03 5.000024e+02 -2.051728e+02
1.577162e+03 5.404688e+02 -2.728490e+02
1.645557e+03 4.575884e+02 -1.917309e+02
1.645381e+03 4.569961e+02 -1.925173e+02
1.645481e+03 4.103535e+02 -1.584281e+02
1.645306e+03 4.100269e+02 -1.593568e+02
1.577095e+03 4.040679e+02 -1.453385e+02
1.577247e+03 4.524134e+02 -1.749109e+02
1.576915e+03 4.037853e+02 -1.462805e+02
1.577065e+03 4.518734e+02 -1.757327e+02
1.645454e+03 3.553658e+02 -1.576577e+02
1.645281e+03 3.553375e+02 -1.586421e+02
1.645435e+03 3.004039e+02 -1.569284e+02
1.645248e+03 3.006223e+02 -1.578862e+02
1.576996e+03 2.894374e+02 -1.469835e+02
1.577043e+03 3.467440e+02 -1.461420e+02
1.576806e+03 2.896864e+02 -1.479333e+02
1.576863e+03 3.467445e+02 -1.471259e+02
1.645433e+03 2.507681e+02 -1.837381e+02
1.645248e+03 2.512209e+02 -1.846102e+02
1.645415e+03 2.011216e+02 -2.105963e+02
1.645264e+03 2.018302e+02 -2.112856e+02
1.576973e+03 1.967346e+02 -2.015804e+02
1.576992e+03 2.430887e+02 -1.742587e+02
1.576821e+03 1.974626e+02 -2.022492e+02
1.576806e+03 2.435718e+02 -1.751145e+02
1.645359e+03 1.793974e+02 -2.563166e+02
1.645253e+03 1.802909e+02 -2.567529e+02
1.645314e+03 1.577452e+02 -3.019550e+02
1.645232e+03 1.586795e+02 -3.023022e+02
1.576804e+03 1.553268e+02 -2.940985e+02
1.576884e+03 1.759966e+02 -2.478805e+02
1.576724e+03 1.562684e+02 -2.944257e+02
1.576777e+03 1.768996e+02 -2.482964e+02
1.645287e+03 1.428539e+02 -3.611319e+02
1.645234e+03 1.438194e+02 -3.613866e+02
1.645267e+03 1.279744e+02 -4.202762e+02
1.645229e+03 1.289475e+02 -4.205035e+02
1.576731e+03 1.245778e+02 -4.264433e+02
1.576765e+03 1.399468e+02 -3.602871e+02
1.576697e+03 1.255554e+02 -4.266505e+02
1.576713e+03 1.409174e+02 -3.605219e+02
1.645169e+03 1.174428e+02 -4.745968e+02
1.645146e+03 1.184224e+02 -4.747965e+02
1.645074e+03 1.069143e+02 -5.289035e+02
1.645060e+03 1.078941e+02 -5.291034e+02
1.576358e+03 1.071156e+02 -5.285476e+02
1.576543e+03 1.158452e+02 -4.775024e+02
1.576346e+03 1.080992e+02 -5.287270e+02
1.576523e+03 1.168288e+02 -4.776818e+02
1.500695e+03 1.121856e+03 -1.951917e+03
1.500618e+03 1.120959e+03 -1.952353e+03
1.503040e+03 1.088683e+03 -1.883831e+03
1.502959e+03 1.087790e+03 -1.884274e+03
1.433596e+03 1.095281e+03 -1.883896e+03
1.431250e+03 1.127449e+03 -1.950788e+03
1.433514e+03 1.094385e+03 -1.884334e+03
1.431173e+03 1.126551e+03 -1.951220e+03
1.504212e+03 1.058222e+03 -1.823313e+03
1.504125e+03 1.057333e+03 -1.823763e+03
1.505383e+03 1.027757e+03 -1.762790e+03
1.505291e+03 1.026879e+03 -1.763257e+03
1.436221e+03 1.034507e+03 -1.761391e+03
1.434909e+03 1.064895e+03 -1.822647e+03
1.436129e+03 1.033625e+03 -1.761853e+03
1.434821e+03 1.064004e+03 -1.823090e+03
1.505986e+03 9.985082e+02 -1.710219e+03
1.505889e+03 9.976399e+02 -1.710705e+03
1.506591e+03 9.692570e+02 -1.657646e+03
1.506485e+03 9.684032e+02 -1.658156e+03
1.437650e+03 9.751404e+02 -1.652832e+03
1.436935e+03 1.004825e+03 -1.707113e+03
1.437544e+03 9.742818e+02 -1.653334e+03
1.436837e+03 1.003953e+03 -1.707592e+03
1.506894e+03 9.403924e+02 -1.611692e+03
1.506780e+03 9.395538e+02 -1.612225e+03
1.507197e+03 9.115344e+02 -1.565749e+03
1.507075e+03 9.106979e+02 -1.566283e+03
1.438379e+03 9.162249e+02 -1.556738e+03
1.438014e+03 9.456793e+02 -1.604779e+03
1.438257e+03 9.153809e+02 -1.557260e+03
1.437901e+03 9.448347e+02 -1.605303e+03
1.507336e+03 8.847703e+02 -1.523257e+03
1.507202e+03 8.839362e+02 -1.523792e+03
1.507472e+03 8.580171e+02 -1.480782e+03
1.507332e+03 8.571637e+02 -1.481284e+03
1.438704e+03 8.616802e+02 -1.466947e+03
1.438542e+03 8.889472e+02 -1.511833e+03
1.438564e+03 8.608166e+02 -1.467431e+03
1.438410e+03 8.881041e+02 -1.512355e+03
1.507516e+03 8.353830e+02 -1.437370e+03
1.507367e+03 8.345120e+02 -1.437838e+03
1.507556e+03 8.127587e+02 -1.393979e+03
1.507407e+03 8.118505e+02 -1.394371e+03
1.438794e+03 8.168258e+02 -1.375725e+03
1.438751e+03 8.392488e+02 -1.421326e+03
1.438646e+03 8.159080e+02 -1.376093e+03
1.438603e+03 8.383665e+02 -1.421772e+03
1.507549e+03 7.965818e+02 -1.343150e+03
1.507401e+03 7.956432e+02 -1.343462e+03
1.507541e+03 7.804015e+02 -1.292321e+03
1.507395e+03 7.794394e+02 -1.292552e+03
1.438771e+03 7.867148e+02 -1.272361e+03
1.438783e+03 8.017724e+02 -1.324044e+03
1.438627e+03 7.857484e+02 -1.272573e+03
1.438636e+03 8.008261e+02 -1.324332e+03
1.507555e+03 7.715691e+02 -1.231257e+03
1.507418e+03 7.705896e+02 -1.231404e+03
1.507574e+03 7.627304e+02 -1.170169e+03
1.507436e+03 7.617462e+02 -1.170280e+03
1.438810e+03 7.704815e+02 -1.150347e+03
1.438788e+03 7.786010e+02 -1.211365e+03
1.438672e+03 7.694967e+02 -1.150453e+03
1.438652e+03 7.776197e+02 -1.211502e+03
1.507657e+03 7.577620e+02 -1.105300e+03
1.507524e+03 7.567737e+02 -1.105375e+03
1.507742e+03 7.527915e+02 -1.040413e+03
1.507609e+03 7.518032e+02 -1.040489e+03
1.439025e+03 7.603875e+02 -1.020381e+03
1.438916e+03 7.654355e+02 -1.085373e+03
1.438891e+03 7.593999e+02 -1.020463e+03
1.438783e+03 7.644473e+02 -1.085449e+03
1.507898e+03 7.474694e+02 -9.776856e+02
1.507771e+03 7.464808e+02 -9.777642e+02
1.508056e+03 7.421463e+02 -9.149488e+02
1.507931e+03 7.411594e+02 -9.150489e+02
1.439396e+03 7.482497e+02 -8.918348e+02
1.439210e+03 7.543191e+02 -9.561120e+02
1.439268e+03 7.472641e+02 -8.919454e+02
1.439080e+03 7.533315e+02 -9.562001e+02
1.508184e+03 7.340745e+02 -8.527457e+02
1.508060e+03 7.330896e+02 -8.528672e+02
1.508313e+03 7.260013e+02 -7.905368e+02
1.508188e+03 7.250211e+02 -7.906912e+02
1.439746e+03 7.302414e+02 -7.645978e+02
1.439570e+03 7.392462e+02 -8.282188e+02
1.439620e+03 7.292634e+02 -7.647632e+02
1.439445e+03 7.382631e+02 -8.283518e+02
1.508401e+03 7.137333e+02 -7.285318e+02
1.508274e+03 7.127591e+02 -7.287188e+02
1.508489e+03 7.014645e+02 -6.665262e+02
1.508360e+03 7.004979e+02 -6.667470e+02
1.440014e+03 7.039322e+02 -6.386263e+02
1.439880e+03 7.170873e+02 -7.016126e+02
1.439882e+03 7.029684e+02 -6.388581e+02
1.439751e+03 7.161154e+02 -7.018101e+02
1.508525e+03 6.848610e+02 -6.055595e+02
1.508392e+03 6.839030e+02 -6.058139e+02
1.508560e+03 6.682573e+02 -5.445941e+02
1.508425e+03 6.673083e+02 -5.448794e+02
1.440174e+03 6.686791e+02 -5.150888e+02
1.440094e+03 6.863057e+02 -5.768569e+02
1.440036e+03 6.677343e+02 -5.153866e+02
1.439959e+03 6.853513e+02 -5.771230e+02
1.508513e+03 6.476550e+02 -4.847959e+02
1.508378e+03 6.467160e+02 -4.851120e+02
1.508467e+03 6.270517e+02 -4.249968e+02
1.508330e+03 6.261246e+02 -4.253455e+02
1.440133e+03 6.251850e+02 -3.943391e+02
1.440153e+03 6.469326e+02 -4.547146e+02
1.439993e+03 6.242640e+02 -3.947025e+02
1.440015e+03 6.459986e+02 -4.550439e+02
1.508637e+03 6.029423e+02 -3.686373e+02
1.508498e+03 6.020282e+02 -3.690185e+02
1.508813e+03 5.788215e+02 -3.122582e+02
1.508660e+03 5.779431e+02 -3.127111e+02
1.440398e+03 5.757649e+02 -2.843679e+02
1.440261e+03 6.004820e+02 -3.393649e+02
1.440238e+03 5.749005e+02 -2.848447e+02
1.440120e+03 5.995752e+02 -3.397622e+02
1.508965e+03 5.371289e+02 -2.481335e+02
1.508810e+03 5.362906e+02 -2.486562e+02
1.509130e+03 4.953776e+02 -1.839502e+02
1.508947e+03 4.946969e+02 -1.846598e+02
1.440865e+03 4.900341e+02 -1.634033e+02
1.440625e+03 5.329318e+02 -2.239141e+02
1.440675e+03 4.893945e+02 -1.641485e+02
1.440463e+03 5.321152e+02 -2.244681e+02
1.508887e+03 4.447193e+02 -1.577916e+02
1.508698e+03 4.442381e+02 -1.586474e+02
1.508640e+03 3.940370e+02 -1.316570e+02
1.508453e+03 3.938033e+02 -1.326110e+02
1.440184e+03 3.840041e+02 -1.179762e+02
1.440527e+03 4.370226e+02 -1.406735e+02
1.439992e+03 3.838233e+02 -1.189408e+02
1.440331e+03 4.366054e+02 -1.415609e+02
1.508508e+03 3.355851e+02 -1.346832e+02
1.508323e+03 3.356181e+02 -1.356654e+02
1.508382e+03 2.771407e+02 -1.377452e+02
1.508188e+03 2.774254e+02 -1.386840e+02
1.439767e+03 2.648412e+02 -1.285084e+02
1.439973e+03 3.244243e+02 -1.232248e+02
1.439571e+03 2.651672e+02 -1.294332e+02
1.439784e+03 3.244936e+02 -1.242045e+02
1.508369e+03 2.337756e+02 -1.662755e+02
1.508183e+03 2.342952e+02 -1.671093e+02
1.508343e+03 1.904118e+02 -1.948495e+02
1.508191e+03 1.911638e+02 -1.954910e+02
1.439711e+03 1.840870e+02 -1.881218e+02
1.439746e+03 2.244594e+02 -1.582953e+02
1.439563e+03 1.848670e+02 -1.887296e+02
1.439560e+03 2.250218e+02 -1.591012e+02
1.508282e+03 1.707170e+02 -2.437663e+02
1.508174e+03 1.716322e+02 -2.441546e+02
1.508229e+03 1.510865e+02 -2.925992e+02
1.508150e+03 1.520362e+02 -2.929021e+02
1.439654e+03 1.468459e+02 -2.911017e+02
1.439679e+03 1.654365e+02 -2.396552e+02
1.439576e+03 1.478043e+02 -2.913767e+02
1.439573e+03 1.663656e+02 -2.400097e+02
1.508191e+03 1.363008e+02 -3.636991e+02
1.508138e+03 1.372760e+02 -3.639137e+02
1.508155e+03 1.215246e+02 -4.347686e+02
1.508123e+03 1.225063e+02 -4.349558e+02
1.439579e+03 1.184715e+02 -4.430943e+02
1.439615e+03 1.326548e+02 -3.671117e+02
1.439549e+03 1.194571e+02 -4.432607e+02
1.439564e+03 1.336346e+02 -3.673050e+02
1.507954e+03 1.144193e+02 -4.814873e+02
1.507937e+03 1.154064e+02 -4.816467e+02
1.507758e+03 1.073167e+02 -5.281920e+02
1.507746e+03 1.083038e+02 -5.283515e+02
1.439157e+03 1.075180e+02 -5.278366e+02
1.439366e+03 1.129936e+02 -4.854723e+02
1.439147e+03 1.085082e+02 -5.279758e+02
1.439350e+03 1.139838e+02 -4.856114e+02
1.362958e+03 1.132451e+03 -1.948680e+03
1.362881e+03 1.131551e+03 -1.949108e+03
1.365056e+03 1.100787e+03 -1.881956e+03
1.364974e+03 1.099890e+03 -1.882390e+03
1.296516e+03 1.106294e+03 -1.880017e+03
1.294666e+03 1.137453e+03 -1.946573e+03
1.296434e+03 1.105394e+03 -1.880445e+03
1.294590e+03 1.136551e+03 -1.946996e+03
1.366309e+03 1.070635e+03 -1.820313e+03
1.366222e+03 1.069741e+03 -1.820751e+03
1.367562e+03 1.040480e+03 -1.758663e+03
1.367469e+03 1.039594e+03 -1.759119e+03
1.298902e+03 1.046452e+03 -1.755935e+03
1.297709e+03 1.076374e+03 -1.817979e+03
1.298810e+03 1.045564e+03 -1.756385e+03
1.297622e+03 1.075478e+03 -1.818412e+03
1.368270e+03 1.010669e+03 -1.703223e+03
1.368172e+03 1.009794e+03 -1.703696e+03
1.368979e+03 9.808578e+02 -1.647782e+03
1.368874e+03 9.799946e+02 -1.648275e+03
1.300308e+03 9.865751e+02 -1.642731e+03
1.299605e+03 1.016514e+03 -1.699333e+03
1.300204e+03 9.857075e+02 -1.643217e+03
1.299507e+03 1.015635e+03 -1.699801e+03
1.369342e+03 9.510628e+02 -1.597950e+03
1.369228e+03 9.502125e+02 -1.598463e+03
1.369705e+03 9.212746e+02 -1.548129e+03
1.369582e+03 9.204235e+02 -1.548640e+03
1.301030e+03 9.263241e+02 -1.539520e+03
1.300669e+03 9.564462e+02 -1.591120e+03
1.300908e+03 9.254663e+02 -1.540020e+03
1.300556e+03 9.555903e+02 -1.591624e+03
1.369856e+03 8.937705e+02 -1.501146e+03
1.369724e+03 8.929190e+02 -1.501653e+03
1.370007e+03 8.662769e+02 -1.454181e+03
1.369867e+03 8.654040e+02 -1.454649e+03
1.301309e+03 8.708732e+02 -1.441415e+03
1.301170e+03 8.985936e+02 -1.490459e+03
1.301171e+03 8.699918e+02 -1.441867e+03
1.301039e+03 8.977341e+02 -1.490952e+03
1.370037e+03 8.441849e+02 -1.406688e+03
1.369890e+03 8.432926e+02 -1.407115e+03
1.370064e+03 8.221000e+02 -1.359213e+03
1.369917e+03 8.211741e+02 -1.359562e+03
1.301334e+03 8.273737e+02 -1.342701e+03
1.301323e+03 8.491205e+02 -1.392049e+03
1.301188e+03 8.264407e+02 -1.343031e+03
1.301178e+03 8.482192e+02 -1.392458e+03
1.370035e+03 8.077495e+02 -1.305907e+03
1.369890e+03 8.067968e+02 -1.306174e+03
1.370005e+03 7.933943e+02 -1.252595e+03
1.369863e+03 7.924243e+02 -1.252791e+03
1.301240e+03 8.000735e+02 -1.232828e+03
1.301287e+03 8.137261e+02 -1.287768e+03
1.301098e+03 7.991005e+02 -1.233010e+03
1.301143e+03 8.127681e+02 -1.288017e+03
1.370020e+03 7.857947e+02 -1.190989e+03
1.369885e+03 7.848120e+02 -1.191115e+03
1.370040e+03 7.781900e+02 -1.129361e+03
1.369902e+03 7.772047e+02 -1.129462e+03
1.301269e+03 7.858985e+02 -1.108374e+03
1.301252e+03 7.929883e+02 -1.170613e+03
1.301133e+03 7.849127e+02 -1.108472e+03
1.301118e+03 7.920043e+02 -1.170729e+03
1.370165e+03 7.729587e+02 -1.063817e+03
1.370032e+03 7.719707e+02 -1.063894e+03
1.370293e+03 7.677255e+02 -9.982558e+02
1.370159e+03 7.667385e+02 -9.983436e+02
1.301562e+03 7.750634e+02 -9.761305e+02
1.301415e+03 7.804818e+02 -1.042260e+03
1.301426e+03 7.740772e+02 -9.762243e+02
1.301280e+03 7.794941e+02 -1.042340e+03
1.370522e+03 7.608764e+02 -9.330024e+02
1.370391e+03 7.598900e+02 -9.331003e+02
1.370752e+03 7.540264e+02 -8.677425e+02
1.370622e+03 7.530423e+02 -8.678635e+02
1.302108e+03 7.598030e+02 -8.436501e+02
1.301835e+03 7.674336e+02 -9.098927e+02
1.301976e+03 7.588206e+02 -8.437817e+02
1.301701e+03 7.664485e+02 -9.100006e+02
1.370969e+03 7.441487e+02 -8.032503e+02
1.370841e+03 7.431674e+02 -8.033944e+02
1.371187e+03 7.342698e+02 -7.387538e+02
1.371058e+03 7.332938e+02 -7.389296e+02
1.302628e+03 7.382981e+02 -7.129098e+02
1.302367e+03 7.490511e+02 -7.782819e+02
1.302496e+03 7.373243e+02 -7.130960e+02
1.302237e+03 7.480719e+02 -7.784369e+02
1.371354e+03 7.202685e+02 -6.750187e+02
1.371223e+03 7.192990e+02 -6.752261e+02
1.371522e+03 7.062661e+02 -6.112818e+02
1.371387e+03 7.053054e+02 -6.115244e+02
1.303029e+03 7.086001e+02 -5.839374e+02
1.302828e+03 7.234498e+02 -6.484249e+02
1.302893e+03 7.076423e+02 -5.841906e+02
1.302695e+03 7.224826e+02 -6.486420e+02
1.371613e+03 6.876234e+02 -5.488574e+02
1.371475e+03 6.866725e+02 -5.491349e+02
1.371703e+03 6.689803e+02 -4.864342e+02
1.371564e+03 6.680399e+02 -4.867441e+02
1.303233e+03 6.692815e+02 -4.577795e+02
1.303131e+03 6.889409e+02 -5.208579e+02
1.303091e+03 6.683455e+02 -4.581017e+02
1.302992e+03 6.879938e+02 -5.211467e+02
1.371643e+03 6.460274e+02 -4.254421e+02
1.371502e+03 6.450984e+02 -4.257843e+02
1.371584e+03 6.230729e+02 -3.644480e+02
1.371440e+03 6.221586e+02 -3.648266e+02
1.303035e+03 6.209605e+02 -3.345566e+02
1.303133e+03 6.451221e+02 -3.961696e+02
1.302887e+03 6.200535e+02 -3.349510e+02
1.302990e+03 6.441984e+02 -3.965248e+02
1.371743e+03 5.970758e+02 -3.097214e+02
1.371599e+03 5.961773e+02 -3.101363e+02
1.371914e+03 5.710610e+02 -2.549684e+02
1.371747e+03 5.702137e+02 -2.554724e+02
1.303430e+03 5.663555e+02 -2.255674e+02
1.303226e+03 5.936690e+02 -2.800775e+02
1.303256e+03 5.655285e+02 -2.261016e+02
1.303078e+03 5.927800e+02 -2.805108e+02
1.372220e+03 5.268603e+02 -1.989690e+02
1.372048e+03 5.260711e+02 -1.995586e+02
1.372536e+03 4.825906e+02 -1.429169e+02
1.372338e+03 4.819976e+02 -1.436976e+02
1.304206e+03 4.751445e+02 -1.224306e+02
1.303814e+03 5.207856e+02 -1.740215e+02
1.304002e+03 4.746033e+02 -1.232466e+02
1.303633e+03 5.200303e+02 -1.746516e+02
1.372082e+03 4.264538e+02 -1.237670e+02
1.371879e+03 4.261042e+02 -1.246815e+02
1.371622e+03 3.703265e+02 -1.046551e+02
1.371426e+03 3.702014e+02 -1.056275e+02
1.303060e+03 3.566477e+02 -9.133534e+01
1.303636e+03 4.158842e+02 -1.068628e+02
1.302860e+03 3.565807e+02 -9.231272e+01
1.303428e+03 4.156039e+02 -1.077998e+02
1.371351e+03 3.106489e+02 -1.125925e+02
1.371159e+03 3.107577e+02 -1.135679e+02
1.371086e+03 2.509557e+02 -1.205663e+02
1.370885e+03 2.513296e+02 -1.214720e+02
1.302403e+03 2.370671e+02 -1.126270e+02
1.302728e+03 2.968718e+02 -1.019611e+02
1.302201e+03 2.374951e+02 -1.135080e+02
1.302534e+03 2.970235e+02 -1.029304e+02
1.371085e+03 2.135226e+02 -1.528781e+02
1.370900e+03 2.141361e+02 -1.536457e+02
1.371072e+03 1.761107e+02 -1.852213e+02
1.370926e+03 1.769215e+02 -1.857879e+02
1.302431e+03 1.681333e+02 -1.823245e+02
1.302423e+03 2.025824e+02 -1.474664e+02
1.302291e+03 1.689771e+02 -1.828425e+02
1.302240e+03 2.032539e+02 -1.481846e+02
1.371057e+03 1.590412e+02 -2.396086e+02
1.370952e+03 1.599835e+02 -2.399263e+02
1.371048e+03 1.420255e+02 -2.939073e+02
1.370973e+03 1.429918e+02 -2.941532e+02
1.302441e+03 1.372052e+02 -2.967135e+02
1.302433e+03 1.526461e+02 -2.395631e+02
1.302371e+03 1.381792e+02 -2.969291e+02
1.302334e+03 1.536013e+02 -2.398417e+02
1.371013e+03 1.291088e+02 -3.727627e+02
1.370964e+03 1.300927e+02 -3.729350e+02
1.370980e+03 1.161984e+02 -4.515945e+02
1.370953e+03 1.171873e+02 -4.517405e+02
1.302381e+03 1.139255e+02 -4.600947e+02
1.302411e+03 1.255631e+02 -3.784138e+02
1.302357e+03 1.149173e+02 -4.602203e+02
1.302364e+03 1.265505e+02 -3.785650e+02
1.370782e+03 1.119580e+02 -4.895444e+02
1.370770e+03 1.129507e+02 -4.896639e+02
1.370589e+03 1.077195e+02 -5.274810e+02
1.370582e+03 1.087123e+02 -5.276006e+02
1.302022e+03 1.079212e+02 -5.271254e+02
1.302199e+03 1.109226e+02 -4.936164e+02
1.302016e+03 1.089162e+02 -5.272254e+02
1.302189e+03 1.119175e+02 -4.937165e+02
1.226958e+03 1.142257e+03 -1.944158e+03
1.226882e+03 1.141352e+03 -1.944577e+03
1.228505e+03 1.111446e+03 -1.877441e+03
1.228424e+03 1.110543e+03 -1.877865e+03
1.160495e+03 1.116597e+03 -1.874865e+03
1.159250e+03 1.147060e+03 -1.941743e+03
1.160413e+03 1.115693e+03 -1.875285e+03
1.159174e+03 1.146153e+03 -1.942157e+03
1.229553e+03 1.081804e+03 -1.815110e+03
1.229465e+03 1.080905e+03 -1.815539e+03
1.230600e+03 1.052160e+03 -1.752773e+03
1.230507e+03 1.051270e+03 -1.753218e+03
1.162297e+03 1.057869e+03 -1.749611e+03
1.161396e+03 1.087234e+03 -1.812241e+03
1.162205e+03 1.056975e+03 -1.750051e+03
1.161309e+03 1.086333e+03 -1.812665e+03
1.231232e+03 1.022341e+03 -1.695455e+03
1.231134e+03 1.021460e+03 -1.695916e+03
1.231864e+03 9.925217e+02 -1.638136e+03
1.231760e+03 9.916501e+02 -1.638614e+03
1.163420e+03 9.984683e+02 -1.633540e+03
1.162859e+03 1.028169e+03 -1.691576e+03
1.163316e+03 9.975927e+02 -1.634012e+03
1.162760e+03 1.027284e+03 -1.692031e+03
1.232180e+03 9.622786e+02 -1.585049e+03
1.232068e+03 9.614175e+02 -1.585545e+03
1.232497e+03 9.320422e+02 -1.531974e+03
1.232375e+03 9.311782e+02 -1.532463e+03
1.163963e+03 9.377602e+02 -1.524428e+03
1.163692e+03 9.681109e+02 -1.578978e+03
1.163843e+03 9.368902e+02 -1.524906e+03
1.163579e+03 9.672448e+02 -1.579465e+03
1.232597e+03 9.041822e+02 -1.480969e+03
1.232465e+03 9.033155e+02 -1.481450e+03
1.232695e+03 8.763320e+02 -1.429982e+03
1.232557e+03 8.754429e+02 -1.430419e+03
1.164080e+03 8.817905e+02 -1.418549e+03
1.164023e+03 9.097705e+02 -1.471479e+03
1.163944e+03 8.808943e+02 -1.418971e+03
1.163892e+03 9.088971e+02 -1.471948e+03
1.232660e+03 8.547398e+02 -1.378347e+03
1.232515e+03 8.538306e+02 -1.378737e+03
1.232620e+03 8.331527e+02 -1.326728e+03
1.232477e+03 8.322133e+02 -1.327039e+03
1.163907e+03 8.389313e+02 -1.310754e+03
1.163996e+03 8.603588e+02 -1.364644e+03
1.163765e+03 8.379863e+02 -1.311048e+03
1.163852e+03 8.594424e+02 -1.365017e+03
1.232542e+03 8.200459e+02 -1.269592e+03
1.232401e+03 8.190832e+02 -1.269822e+03
1.232465e+03 8.069339e+02 -1.212445e+03
1.232324e+03 8.059583e+02 -1.212615e+03
1.163690e+03 8.137940e+02 -1.192062e+03
1.163798e+03 8.263654e+02 -1.251414e+03
1.163550e+03 8.128164e+02 -1.192220e+03
1.163658e+03 8.253986e+02 -1.251628e+03
1.232480e+03 8.002677e+02 -1.149582e+03
1.232346e+03 7.992826e+02 -1.149691e+03
1.232499e+03 7.935972e+02 -1.086695e+03
1.232363e+03 7.926113e+02 -1.086791e+03
1.163729e+03 8.012960e+02 -1.065016e+03
1.163707e+03 8.075471e+02 -1.128552e+03
1.163593e+03 8.003098e+02 -1.065110e+03
1.163574e+03 8.065610e+02 -1.128652e+03
1.232669e+03 7.878784e+02 -1.019843e+03
1.232535e+03 7.868909e+02 -1.019926e+03
1.232842e+03 7.821578e+02 -9.529761e+02
1.232704e+03 7.811723e+02 -9.530762e+02
1.164121e+03 7.892521e+02 -9.298214e+02
1.163924e+03 7.952749e+02 -9.974260e+02
1.163983e+03 7.882675e+02 -9.299284e+02
1.163789e+03 7.942878e+02 -9.975119e+02
1.233155e+03 7.737396e+02 -8.861679e+02
1.233019e+03 7.727560e+02 -8.862859e+02
1.233469e+03 7.653209e+02 -8.193567e+02
1.233334e+03 7.643401e+02 -8.194985e+02
1.164829e+03 7.708387e+02 -7.950634e+02
1.164476e+03 7.800455e+02 -8.624430e+02
1.164693e+03 7.698597e+02 -7.952152e+02
1.164337e+03 7.790635e+02 -8.625712e+02
1.233763e+03 7.538305e+02 -7.537307e+02
1.233631e+03 7.528532e+02 -7.538961e+02
1.234060e+03 7.423390e+02 -6.881012e+02
1.233926e+03 7.413674e+02 -6.882973e+02
1.165492e+03 7.463799e+02 -6.632929e+02
1.165160e+03 7.586099e+02 -7.291798e+02
1.165356e+03 7.454105e+02 -6.634983e+02
1.165025e+03 7.576345e+02 -7.293551e+02
1.234275e+03 7.267102e+02 -6.230408e+02
1.234141e+03 7.257455e+02 -6.232674e+02
1.234492e+03 7.110798e+02 -5.579773e+02
1.234353e+03 7.101251e+02 -5.582406e+02
1.165955e+03 7.135595e+02 -5.320174e+02
1.165722e+03 7.299706e+02 -5.976570e+02
1.165813e+03 7.126079e+02 -5.322904e+02
1.165586e+03 7.290083e+02 -5.978925e+02
1.234562e+03 6.904147e+02 -4.942622e+02
1.234420e+03 6.894713e+02 -4.945620e+02
1.234632e+03 6.697493e+02 -4.305482e+02
1.234487e+03 6.688179e+02 -4.308822e+02
1.166031e+03 6.702171e+02 -4.033170e+02
1.165993e+03 6.918885e+02 -4.676666e+02
1.165883e+03 6.692903e+02 -4.036626e+02
1.165848e+03 6.909489e+02 -4.679771e+02
1.234438e+03 6.442935e+02 -3.681885e+02
1.234292e+03 6.433751e+02 -3.685563e+02
1.234246e+03 6.188346e+02 -3.058242e+02
1.234095e+03 6.179354e+02 -3.062350e+02
1.165457e+03 6.167083e+02 -2.770916e+02
1.165743e+03 6.434648e+02 -3.402074e+02
1.165303e+03 6.158177e+02 -2.775192e+02
1.165594e+03 6.425519e+02 -3.405878e+02
1.234519e+03 5.897556e+02 -2.512279e+02
1.234368e+03 5.888772e+02 -2.516812e+02
1.234808e+03 5.606490e+02 -1.965957e+02
1.234624e+03 5.598466e+02 -1.971633e+02
1.166185e+03 5.549404e+02 -1.676226e+02
1.165812e+03 5.858416e+02 -2.223778e+02
1.165993e+03 5.541668e+02 -1.682264e+02
1.165657e+03 5.849750e+02 -2.228521e+02
1.235240e+03 5.130025e+02 -1.496763e+02
1.235048e+03 5.122894e+02 -1.503506e+02
1.235677e+03 4.652866e+02 -1.027229e+02
1.235467e+03 4.648016e+02 -1.035719e+02
1.167147e+03 4.554267e+02 -8.301639e+01
1.166666e+03 5.052151e+02 -1.253296e+02
1.166933e+03 4.550019e+02 -8.389613e+01
1.166463e+03 5.045528e+02 -1.260511e+02
1.234987e+03 4.029039e+02 -9.085986e+01
1.234774e+03 4.026908e+02 -9.181350e+01
1.234291e+03 3.405553e+02 -7.903649e+01
1.234086e+03 3.405459e+02 -8.001536e+01
1.165521e+03 3.244631e+02 -6.673927e+01
1.166336e+03 3.899250e+02 -7.485946e+01
1.165313e+03 3.245109e+02 -6.771637e+01
1.166121e+03 3.897763e+02 -7.582462e+01
1.233937e+03 2.817733e+02 -9.252878e+01
1.233740e+03 2.819701e+02 -9.348937e+01
1.233590e+03 2.229502e+02 -1.060669e+02
1.233387e+03 2.234353e+02 -1.069175e+02
1.164776e+03 2.088324e+02 -9.950963e+01
1.165143e+03 2.666733e+02 -8.309748e+01
1.164574e+03 2.093764e+02 -1.003243e+02
1.164949e+03 2.669181e+02 -8.404729e+01
1.233657e+03 1.915902e+02 -1.442231e+02
1.233477e+03 1.923208e+02 -1.448818e+02
1.233712e+03 1.602807e+02 -1.823802e+02
1.233579e+03 1.611559e+02 -1.828453e+02
1.164991e+03 1.524293e+02 -1.824374e+02
1.164889e+03 1.805986e+02 -1.409844e+02
1.164869e+03 1.533335e+02 -1.828466e+02
1.164716e+03 1.813872e+02 -1.415745e+02
1.233768e+03 1.462200e+02 -2.435503e+02
1.233675e+03 1.471859e+02 -2.437916e+02
1.233830e+03 1.321975e+02 -3.046361e+02
1.233764e+03 1.331777e+02 -3.048223e+02
1.165219e+03 1.271903e+02 -3.125581e+02
1.165102e+03 1.397949e+02 -2.475364e+02
1.165157e+03 1.281757e+02 -3.127161e+02
1.165016e+03 1.407695e+02 -2.477427e+02
1.233802e+03 1.222964e+02 -3.866565e+02
1.233757e+03 1.232869e+02 -3.867868e+02
1.233773e+03 1.123986e+02 -4.686612e+02
1.233751e+03 1.133927e+02 -4.687670e+02
1.165164e+03 1.108718e+02 -4.772278e+02
1.165192e+03 1.190299e+02 -3.948993e+02
1.165146e+03 1.118680e+02 -4.773136e+02
1.165151e+03 1.200230e+02 -3.950085e+02
1.233618e+03 1.102602e+02 -4.977215e+02
1.233609e+03 1.112569e+02 -4.978027e+02
1.233467e+03 1.081231e+02 -5.267695e+02
1.233463e+03 1.091198e+02 -5.268507e+02
1.164913e+03 1.083252e+02 -5.264135e+02
1.165036e+03 1.095980e+02 -5.018265e+02
1.164909e+03 1.093232e+02 -5.264761e+02
1.165030e+03 1.105961e+02 -5.018890e+02
1.091688e+03 1.151608e+03 -1.938780e+03
1.091612e+03 1.150699e+03 -1.939190e+03
1.092665e+03 1.121245e+03 -1.871190e+03
1.092583e+03 1.120339e+03 -1.871605e+03
1.024835e+03 1.125893e+03 -1.867515e+03
1.024126e+03 1.156155e+03 -1.935817e+03
1.024753e+03 1.124985e+03 -1.867925e+03
1.024050e+03 1.155245e+03 -1.936223e+03
1.093414e+03 1.092290e+03 -1.808584e+03
1.093327e+03 1.091386e+03 -1.809003e+03
1.094163e+03 1.063331e+03 -1.745972e+03
1.094071e+03 1.062436e+03 -1.746407e+03
1.026029e+03 1.068794e+03 -1.742333e+03
1.025432e+03 1.097345e+03 -1.804926e+03
1.025937e+03 1.067896e+03 -1.742763e+03
1.025345e+03 1.096439e+03 -1.805342e+03
1.094629e+03 1.034007e+03 -1.687736e+03
1.094531e+03 1.033119e+03 -1.688185e+03
1.095096e+03 1.004682e+03 -1.629499e+03
1.094991e+03 1.003802e+03 -1.629964e+03
1.026771e+03 1.010896e+03 -1.625458e+03
1.026400e+03 1.039845e+03 -1.683895e+03
1.026667e+03 1.010012e+03 -1.625916e+03
1.026302e+03 1.038954e+03 -1.684340e+03
1.095307e+03 9.744927e+02 -1.573963e+03
1.095195e+03 9.736218e+02 -1.574441e+03
1.095519e+03 9.443100e+02 -1.518438e+03
1.095398e+03 9.434345e+02 -1.518907e+03
1.027073e+03 9.508596e+02 -1.512449e+03
1.026922e+03 9.808745e+02 -1.568947e+03
1.026955e+03 9.499790e+02 -1.512907e+03
1.026811e+03 9.799988e+02 -1.569418e+03
1.095508e+03 9.160969e+02 -1.463377e+03
1.095378e+03 9.152173e+02 -1.463835e+03
1.095496e+03 8.878933e+02 -1.408335e+03
1.095360e+03 8.869907e+02 -1.408743e+03
1.026911e+03 8.939958e+02 -1.398120e+03
1.026993e+03 9.224231e+02 -1.455274e+03
1.026777e+03 8.930874e+02 -1.398516e+03
1.026865e+03 9.215378e+02 -1.455722e+03
1.095351e+03 8.664781e+02 -1.351747e+03
1.095208e+03 8.655554e+02 -1.352106e+03
1.095202e+03 8.450666e+02 -1.295175e+03
1.095061e+03 8.441165e+02 -1.295453e+03
1.026496e+03 8.512017e+02 -1.279595e+03
1.026705e+03 8.725972e+02 -1.338851e+03
1.026358e+03 8.502469e+02 -1.279859e+03
1.026566e+03 8.716687e+02 -1.339194e+03
1.095042e+03 8.328042e+02 -1.231776e+03
1.094902e+03 8.318337e+02 -1.231973e+03
1.094882e+03 8.205362e+02 -1.168363e+03
1.094743e+03 8.195566e+02 -1.168508e+03
1.026073e+03 8.272784e+02 -1.144663e+03
1.026284e+03 8.392430e+02 -1.212138e+03
1.025937e+03 8.262968e+02 -1.144797e+03
1.026148e+03 8.382689e+02 -1.212319e+03
1.094922e+03 8.147714e+02 -1.105771e+03
1.094790e+03 8.137846e+02 -1.105865e+03
1.094968e+03 8.090028e+02 -1.043154e+03
1.094831e+03 8.080165e+02 -1.043246e+03
1.026206e+03 8.167096e+02 -1.021291e+03
1.026137e+03 8.219957e+02 -1.082990e+03
1.026070e+03 8.157232e+02 -1.021383e+03
1.026006e+03 8.210083e+02 -1.083077e+03
1.095192e+03 8.025506e+02 -9.746121e+02
1.095055e+03 8.015640e+02 -9.747021e+02
1.095417e+03 7.960967e+02 -9.060572e+02
1.095277e+03 7.951132e+02 -9.061713e+02
1.026712e+03 8.029414e+02 -8.822927e+02
1.026458e+03 8.098263e+02 -9.517979e+02
1.026572e+03 8.019588e+02 -8.824145e+02
1.026322e+03 8.088402e+02 -9.518927e+02
1.095804e+03 7.861856e+02 -8.387982e+02
1.095663e+03 7.852053e+02 -8.389366e+02
1.096189e+03 7.762745e+02 -7.715398e+02
1.096051e+03 7.752974e+02 -7.717013e+02
1.027548e+03 7.817105e+02 -7.480163e+02
1.027131e+03 7.923258e+02 -8.151534e+02
1.027410e+03 7.807349e+02 -7.481873e+02
1.026990e+03 7.913470e+02 -8.153020e+02
1.096544e+03 7.635418e+02 -7.061942e+02
1.096407e+03 7.625684e+02 -7.063787e+02
1.096899e+03 7.508079e+02 -6.408453e+02
1.096763e+03 7.498407e+02 -6.410593e+02
1.028306e+03 7.552361e+02 -6.183980e+02
1.027927e+03 7.684739e+02 -6.832088e+02
1.028170e+03 7.542707e+02 -6.186200e+02
1.027790e+03 7.675022e+02 -6.834020e+02
1.097134e+03 7.338346e+02 -5.750857e+02
1.096996e+03 7.328746e+02 -5.753292e+02
1.097370e+03 7.168593e+02 -5.093216e+02
1.097228e+03 7.159105e+02 -5.096036e+02
1.028785e+03 7.201592e+02 -4.866262e+02
1.028545e+03 7.376988e+02 -5.525148e+02
1.028643e+03 7.192130e+02 -4.869164e+02
1.028407e+03 7.367407e+02 -5.527655e+02
1.097344e+03 6.941314e+02 -4.439588e+02
1.097197e+03 6.931954e+02 -4.442791e+02
1.097317e+03 6.714031e+02 -3.785970e+02
1.097167e+03 6.704808e+02 -3.789535e+02
1.028602e+03 6.725893e+02 -3.538774e+02
1.028693e+03 6.963746e+02 -4.202513e+02
1.028452e+03 6.716711e+02 -3.542440e+02
1.028548e+03 6.954417e+02 -4.205807e+02
1.096822e+03 6.435139e+02 -3.149725e+02
1.096671e+03 6.426063e+02 -3.153647e+02
1.096330e+03 6.156190e+02 -2.513394e+02
1.096172e+03 6.147375e+02 -2.517844e+02
1.027203e+03 6.145294e+02 -2.255872e+02
1.027900e+03 6.435631e+02 -2.897378e+02
1.027041e+03 6.136576e+02 -2.260496e+02
1.027749e+03 6.426606e+02 -2.901413e+02
1.096818e+03 5.818681e+02 -1.954372e+02
1.096660e+03 5.810148e+02 -1.959342e+02
1.097328e+03 5.480743e+02 -1.394884e+02
1.097125e+03 5.473350e+02 -1.401306e+02
1.028469e+03 5.412060e+02 -1.113534e+02
1.027824e+03 5.778937e+02 -1.684963e+02
1.028259e+03 5.405054e+02 -1.120356e+02
1.027662e+03 5.770555e+02 -1.690166e+02
1.097806e+03 4.955012e+02 -1.020662e+02
1.097592e+03 4.948999e+02 -1.028358e+02
1.098281e+03 4.428774e+02 -6.463922e+01
1.098063e+03 4.425155e+02 -6.554572e+01
1.029413e+03 4.303268e+02 -4.626379e+01
1.028946e+03 4.857827e+02 -7.880289e+01
1.029195e+03 4.300304e+02 -4.719357e+01
1.028722e+03 4.852516e+02 -7.962029e+01
1.097296e+03 3.757243e+02 -6.000200e+01
1.097079e+03 3.756335e+02 -6.097406e+01
1.096308e+03 3.086091e+02 -5.539753e+01
1.096098e+03 3.087137e+02 -5.636965e+01
1.027094e+03 2.927552e+02 -4.405723e+01
1.028254e+03 3.615261e+02 -4.514618e+01
1.026884e+03 2.929164e+02 -4.502149e+01
1.028039e+03 3.614883e+02 -4.612186e+01
1.096068e+03 2.512690e+02 -7.565711e+01
1.095874e+03 2.515673e+02 -7.659165e+01
1.095839e+03 1.938718e+02 -9.598033e+01
1.095638e+03 1.944781e+02 -9.675000e+01
1.026895e+03 1.789103e+02 -9.245434e+01
1.026987e+03 2.358622e+02 -6.821840e+01
1.026709e+03 1.795807e+02 -9.317242e+01
1.026804e+03 2.362191e+02 -6.913434e+01
1.096063e+03 1.691344e+02 -1.427944e+02
1.095895e+03 1.699790e+02 -1.433027e+02
1.096276e+03 1.444733e+02 -1.895574e+02
1.096163e+03 1.454036e+02 -1.899064e+02
1.027561e+03 1.365192e+02 -1.966789e+02
1.027235e+03 1.576731e+02 -1.446090e+02
1.027457e+03 1.374718e+02 -1.969647e+02
1.027076e+03 1.585679e+02 -1.450262e+02
1.096398e+03 1.337202e+02 -2.552360e+02
1.096316e+03 1.347013e+02 -2.554114e+02
1.096524e+03 1.229883e+02 -3.208495e+02
1.096465e+03 1.239778e+02 -3.209815e+02
1.027828e+03 1.187867e+02 -3.291401e+02
1.027692e+03 1.276461e+02 -2.629345e+02
1.027774e+03 1.197795e+02 -3.292477e+02
1.027618e+03 1.286325e+02 -2.630812e+02
1.096542e+03 1.165168e+02 -4.033144e+02
1.096504e+03 1.175122e+02 -4.034028e+02
1.096559e+03 1.100472e+02 -4.857685e+02
1.096543e+03 1.110448e+02 -4.858350e+02
1.027956e+03 1.092230e+02 -4.943039e+02
1.027891e+03 1.140041e+02 -4.117294e+02
1.027938e+03 1.102212e+02 -4.943617e+02
1.027857e+03 1.150011e+02 -4.117973e+02
1.096462e+03 1.092870e+02 -5.059183e+02
1.096458e+03 1.102859e+02 -5.059630e+02
1.096370e+03 1.085274e+02 -5.260573e+02
1.096368e+03 1.095264e+02 -5.261019e+02
1.027828e+03 1.087300e+02 -5.256956e+02
1.027889e+03 1.089762e+02 -5.100048e+02
1.027826e+03 1.097292e+02 -5.257332e+02
1.027885e+03 1.099755e+02 -5.100424e+02
9.558319e+02 1.159702e+03 -1.930445e+03
9.557556e+02 1.158790e+03 -1.930847e+03
9.561875e+02 1.128497e+03 -1.859044e+03
9.561055e+02 1.127586e+03 -1.859449e+03
9.564875e+02 1.101052e+03 -1.798150e+03
9.564004e+02 1.100144e+03 -1.798561e+03
9.567873e+02 1.073604e+03 -1.737252e+03
9.566955e+02 1.072704e+03 -1.737677e+03
9.569737e+02 1.045695e+03 -1.680040e+03
9.568767e+02 1.044802e+03 -1.680479e+03
9.571600e+02 1.017787e+03 -1.622829e+03
9.570579e+02 1.016900e+03 -1.623280e+03
9.572377e+02 9.877978e+02 -1.565099e+03
9.571289e+02 9.869176e+02 -1.565561e+03
9.573160e+02 9.578146e+02 -1.507381e+03
9.571993e+02 9.569292e+02 -1.507830e+03
9.572778e+02 9.295567e+02 -1.449051e+03
9.571524e+02 9.286662e+02 -1.449488e+03
9.572385e+02 9.013077e+02 -1.390741e+03
9.571066e+02 9.003944e+02 -1.391127e+03
9.571371e+02 8.799890e+02 -1.329778e+03
9.569993e+02 8.790558e+02 -1.330109e+03
9.570325e+02 8.586727e+02 -1.268827e+03
9.568952e+02 8.577147e+02 -1.269079e+03
9.569257e+02 8.470104e+02 -1.200289e+03
9.567909e+02 8.460342e+02 -1.200459e+03
9.568200e+02 8.353422e+02 -1.131732e+03
9.566855e+02 8.343595e+02 -1.131858e+03
9.568517e+02 8.300587e+02 -1.067895e+03
9.567199e+02 8.290710e+02 -1.067978e+03
9.568870e+02 8.247721e+02 -1.004033e+03
9.567508e+02 8.237856e+02 -1.004124e+03
9.570132e+02 8.170212e+02 -9.302364e+02
9.568768e+02 8.160357e+02 -9.303366e+02
9.571414e+02 8.092688e+02 -8.564295e+02
9.570008e+02 8.082873e+02 -8.565592e+02
9.573533e+02 7.980221e+02 -7.899900e+02
9.572107e+02 7.970452e+02 -7.901493e+02
9.575623e+02 7.867761e+02 -7.235548e+02
9.574234e+02 7.858023e+02 -7.237351e+02
9.577523e+02 7.737189e+02 -6.619590e+02
9.576153e+02 7.727490e+02 -6.621602e+02
9.579431e+02 7.606606e+02 -6.003597e+02
9.578065e+02 7.596968e+02 -6.005887e+02
9.580606e+02 7.429201e+02 -5.349133e+02
9.579234e+02 7.419634e+02 -5.351699e+02
9.581801e+02 7.251769e+02 -4.694604e+02
9.580384e+02 7.242326e+02 -4.697575e+02
9.581286e+02 7.000515e+02 -4.008812e+02
9.579840e+02 6.991212e+02 -4.012184e+02
9.580777e+02 6.749252e+02 -3.323026e+02
9.579289e+02 6.740106e+02 -3.326788e+02
9.577255e+02 6.435048e+02 -2.652197e+02
9.575752e+02 6.426072e+02 -2.656341e+02
9.573800e+02 6.120747e+02 -1.981226e+02
9.572147e+02 6.112136e+02 -1.986036e+02
9.576872e+02 5.731228e+02 -1.418642e+02
9.575186e+02 5.723021e+02 -1.424101e+02
9.580162e+02 5.341098e+02 -8.555052e+01
9.578007e+02 5.334517e+02 -8.627185e+01
9.582689e+02 4.754147e+02 -5.760649e+01
9.580396e+02 4.749577e+02 -5.846585e+01
9.585085e+02 4.167089e+02 -2.968732e+01
9.582917e+02 4.164744e+02 -3.063499e+01
9.579288e+02 3.494832e+02 -3.106988e+01
9.577160e+02 3.494883e+02 -3.204696e+01
9.573488e+02 2.822710e+02 -3.247892e+01
9.571406e+02 2.824888e+02 -3.343246e+01
9.572814e+02 2.231478e+02 -6.379305e+01
9.571092e+02 2.235716e+02 -6.468227e+01
9.572322e+02 1.639745e+02 -9.518899e+01
9.570596e+02 1.647045e+02 -9.585027e+01
9.573980e+02 1.469561e+02 -1.505452e+02
9.572477e+02 1.478874e+02 -1.508771e+02
9.575479e+02 1.300197e+02 -2.057884e+02
9.574516e+02 1.309884e+02 -2.060170e+02
9.576071e+02 1.226669e+02 -2.720993e+02
9.575418e+02 1.236574e+02 -2.722205e+02
9.576736e+02 1.153226e+02 -3.383747e+02
9.576248e+02 1.163178e+02 -3.384594e+02
9.577020e+02 1.121854e+02 -4.205654e+02
9.576707e+02 1.131838e+02 -4.206134e+02
9.577334e+02 1.090497e+02 -5.027378e+02
9.577136e+02 1.100483e+02 -5.027857e+02
3.000000e+02 0.000000e+00 -3.000000e+01
3.000000e+02 0.000000e+00 7.000000e+01
3.000000e+02 0.000000e+00 1.700000e+02
3.000000e+02 0.000000e+00 2.700000e+02
3.000000e+02 0.000000e+00 3.700000e+02
3.000000e+02 0.000000e+00 4.700000e+02
3.000000e+02 1.000000e+02 -3.000000e+01
3.000000e+02 1.000000e+02 7.000000e+01
3.000000e+02 1.000000e+02 1.700000e+02
3.000000e+02 1.000000e+02 2.700000e+02
3.000000e+02 1.000000e+02 3.700000e+02
3.000000e+02 1.000000e+02 4.700000e+02
3.000000e+02 2.000000e+02 -3.000000e+01
3.000000e+02 2.000000e+02 7.000000e+01
3.000000e+02 2.000000e+02 1.700000e+02
3.000000e+02 2.000000e+02 2.700000e+02
3.000000e+02 2.000000e+02 3.700000e+02
3.000000e+02 2.000000e+02 4.700000e+02
3.000000e+02 3.000000e+02 -3.000000e+01
3.000000e+02 3.000000e+02 7.000000e+01
3.000000e+02 3.000000e+02 1.700000e+02
3.000000e+02 3.000000e+02 2.700000e+02
3.000000e+02 3.000000e+02 3.700000e+02
3.000000e+02 3.000000e+02 4.700000e+02
3.000000e+02 4.000000e+02 -3.000000e+01
3.000000e+02 4.000000e+02 7.000000e+01
3.000000e+02 4.000000e+02 1.700000e+02
3.000000e+02 4.000000e+02 2.700000e+02
3.000000e+02 4.000000e+02 3.700000e+02
3.000000e+02 4.000000e+02 4.700000e+02
3.000000e+02 5.000000e+02 -3.000000e+01
3.000000e+02 5.000000e+02 7.000000e+01
3.000000e+02 5.000000e+02 1.700000e+02
3.000000e+02 5.000000e+02 2.700000e+02
3.000000e+02 5.000000e+02 3.700000e+02
3.000000e+02 5.000000e+02 4.700000e+02
3.000000e+02 6.000000e+02 -3.000000e+01
3.000000e+02 6.000000e+02 7.000000e+01
3.000000e+02 6.000000e+02 1.700000e+02
3.000000e+02 6.000000e+02 2.700000e+02
3.000000e+02 6.000000e+02 3.700000e+02
3.000000e+02 6.000000e+02 4.700000e+02
3.000000e+02 7.000000e+02 -3.000000e+01
3.000000e+02 7.000000e+02 7.000000e+01
3.000000e+02 7.000000e+02 1.700000e+02
3.000000e+02 7.000000e+02 2.700000e+02
3.000000e+02 7.000000e+02 3.700000e+02
3.000000e+02 7.000000e+02 4.700000e+02
3.000000e+02 8.000000e+02 -3.000000e+01
3.000000e+02 8.000000e+02 7.000000e+01
3.000000e+02 8.000000e+02 1.700000e+02
3.000000e+02 8.000000e+02 2.700000e+02
3.000000e+02 8.000000e+02 3.700000e+02
3.000000e+02 8.000000e+02 4.700000e+02
3.000000e+02 9.000000e+02 -3.000000e+01
3.000000e+02 9.000000e+02 7.000000e+01
3.000000e+02 9.000000e+02 1.700000e+02
3.000000e+02 9.000000e+02 2.700000e+02
3.000000e+02 9.000000e+02 3.700000e+02
3.000000e+02 9.000000e+02 4.700000e+02
3.000000e+02 1.000000e+03 -3.000000e+01
3.000000e+02 1.000000e+03 7.000000e+01
3.000000e+02 1.000000e+03 1.700000e+02
3.000000e+02 1.000000e+03 2.700000e+02
3.000000e+02 1.000000e+03 3.700000e+02
3.000000e+02 1.000000e+03 4.700000e+02
4.000000e+02 0.000000e+00 -3.000000e+01
4.000000e+02 0.000000e+00 7.000000e+01
4.000000e+02 0.000000e+00 1.700000e+02
4.000000e+02 0.000000e+00 2.700000e+02
4.000000e+02 0.000000e+00 3.700000e+02
4.000000e+02 0.000000e+00 4.700000e+02
4.000000e+02 1.000000e+02 -3.000000e+01
4.000000e+02 1.000000e+02 7.000000e+01
4.000000e+02 1.000000e+02 1.700000e+02
4.000000e+02 1.000000e+02 2.700000e+02
4.000000e+02 1.000000e+02 3.700000e+02
4.000000e+02 1.000000e+02 4.700000e+02
4.000000e+02 2.000000e+02 -3.000000e+01
4.000000e+02 2.000000e+02 7.000000e+01
4.000000e+02 2.000000e+02 1.700000e+02
4.000000e+02 2.000000e+02 2.700000e+02
4.000000e+02 2.000000e+02 3.700000e+02
4.000000e+02 2.000000e+02 4.700000e+02
4.000000e+02 3.000000e+02 -3.000000e+01
4.000000e+02 3.000000e+02 7.000000e+01
4.000000e+02 3.000000e+02 1.700000e+02
4.000000e+02 3.000000e+02 2.700000e+02
4.000000e+02 3.000000e+02 3.700000e+02
4.000000e+02 3.000000e+02 4.700000e+02
4.000000e+02 4.000000e+02 -3.000000e+01
4.000000e+02 4.000000e+02 7.000000e+01
4.000000e+02 4.000000e+02 1.700000e+02
4.000000e+02 4.000000e+02 2.700000e+02
4.000000e+02 4.000000e+02 3.700000e+02
4.000000e+02 4.000000e+02 4.700000e+02
4.000000e+02 5.000000e+02 -3.000000e+01
4.000000e+02 5.000000e+02 7.000000e+01
4.000000e+02 5.000000e+02 1.700000e+02
4.000000e+02 5.000000e+02 2.700000e+02
4.000000e+02 5.000000e+02 3.700000e+02
4.000000e+02 5.000000e+02 4.700000e+02
4.000000e+02 6.000000e+02 -3.000000e+01
4.000000e+02 6.000000e+02 7.000000e+01
4.000000e+02 6.000000e+02 1.700000e+02
4.000000e+02 6.000000e+02 2.700000e+02
4.000000e+02 6.000000e+02 3.700000e+02
4.000000e+02 6.000000e+02 4.700000e+02
4.000000e+02 7.000000e+02 -3.000000e+01
4.000000e+02 7.000000e+02 7.000000e+01
4.000000e+02 7.000000e+02 1.700000e+02
4.000000e+02 7.000000e+02 2.700000e+02
4.000000e+02 7.000000e+02 3.700000e+02
4.000000e+02 7.000000e+02 4.700000e+02
4.000000e+02 8.000000e+02 -3.000000e+01
4.000000e+02 8.000000e+02 7.000000e+01
4.000000e+02 8.000000e+02 1.700000e+02
4.000000e+02 8.000000e+02 2.700000e+02
4.000000e+02 8.000000e+02 3.700000e+02
4.000000e+02 8.000000e+02 4.700000e+02
4.000000e+02 9.000000e+02 -3.000000e+01
4.000000e+02 9.000000e+02 7.000000e+01
4.000000e+02 9.000000e+02 1.700000e+02
4.000000e+02 9.000000e+02 2.700000e+02
4.000000e+02 9.000000e+02 3.700000e+02
4.000000e+02 9.000000e+02 4.700000e+02
4.000000e+02 1.000000e+03 -3.000000e+01
4.000000e+02 1.000000e+03 7.000000e+01
4.000000e+02 1.000000e+03 1.700000e+02
4.000000e+02 1.000000e+03 2.700000e+02
4.000000e+02 1.000000e+03 3.700000e+02
4.000000e+02 1.000000e+03 4.700000e+02
5.000000e+02 0.000000e+00 -3.000000e+01
5.000000e+02 0.000000e+00 7.000000e+01
5.000000e+02 0.000000e+00 1.700000e+02
5.000000e+02 0.000000e+00 2.700000e+02
5.000000e+02 0.000000e+00 3.700000e+02
5.000000e+02 0.000000e+00 4.700000e+02
5.000000e+02 1.000000e+02 -3.000000e+01
5.000000e+02 1.000000e+02 7.000000e+01
5.000000e+02 1.000000e+02 1.700000e+02
5.000000e+02 1.000000e+02 2.700000e+02
5.000000e+02 1.000000e+02 3.700000e+02
5.000000e+02 1.000000e+02 4.700000e+02
5.000000e+02 2.000000e+02 -3.000000e+01
5.000000e+02 2.000000e+02 7.000000e+01
5.000000e+02 2.000000e+02 1.700000e+02
5.000000e+02 2.000000e+02 2.700000e+02
5.000000e+02 2.000000e+02 3.700000e+02
5.000000e+02 2.000000e+02 4.700000e+02
5.000000e+02 3.000000e+02 -3.000000e+01
5.000000e+02 3.000000e+02 7.000000e+01
5.000000e+02 3.000000e+02 1.700000e+02
5.000000e+02 3.000000e+02 2.700000e+02
5.000000e+02 3.000000e+02 3.700000e+02
5.000000e+02 3.000000e+02 4.700000e+02
5.000000e+02 4.000000e+02 -3.000000e+01
5.000000e+02 4.000000e+02 7.000000e+01
5.000000e+02 4.000000e+02 1.700000e+02
5.000000e+02 4.000000e+02 2.700000e+02
5.000000e+02 4.000000e+02 3.700000e+02
5.000000e+02 4.000000e+02 4.700000e+02
5.000000e+02 5.000000e+02 -3.000000e+01
5.000000e+02 5.000000e+02 7.000000e+01
5.000000e+02 5.000000e+02 1.700000e+02
5.000000e+02 5.000000e+02 2.700000e+02
5.000000e+02 5.000000e+02 3.700000e+02
5.000000e+02 5.000000e+02 4.700000e+02
5.000000e+02 6.000000e+02 -3.000000e+01
5.000000e+02 6.000000e+02 7.000000e+01
5.000000e+02 6.000000e+02 1.700000e+02
5.000000e+02 6.000000e+02 2.700000e+02
5.000000e+02 6.000000e+02 3.700000e+02
5.000000e+02 6.000000e+02 4.700000e+02
5.000000e+02 7.000000e+02 -3.000000e+01
5.000000e+02 7.000000e+02 7.000000e+01
5.000000e+02 7.000000e+02 1.700000e+02
5.000000e+02 7.000000e+02 2.700000e+02
5.000000e+02 7.000000e+02 3.700000e+02
5.000000e+02 7.000000e+02 4.700000e+02
5.000000e+02 8.000000e+02 -3.000000e+01
5.000000e+02 8.000000e+02 7.000000e+01
5.000000e+02 8.000000e+02 1.700000e+02
5.000000e+02 8.000000e+02 2.700000e+02
5.000000e+02 8.000000e+02 3.700000e+02
5.000000e+02 8.000000e+02 4.700000e+02
5.000000e+02 9.000000e+02 -3.000000e+01
5.000000e+02 9.000000e+02 7.000000e+01
5.000000e+02 9.000000e+02 1.700000e+02
5.000000e+02 9.000000e+02 2.700000e+02
5.000000e+02 9.000000e+02 3.700000e+02
5.000000e+02 9.000000e+02 4.700000e+02
5.000000e+02 1.000000e+03 -3.000000e+01
5.000000e+02 1.000000e+03 7.000000e+01
5.000000e+02 1.000000e+03 1.700000e+02
5.000000e+02 1.000000e+03 2.700000e+02
5.000000e+02 1.000000e+03 3.700000e+02
5.000000e+02 1.000000e+03 4.700000e+02
6.000000e+02 0.000000e+00 -3.000000e+01
6.000000e+02 0.000000e+00 7.000000e+01
6.000000e+02 0.000000e+00 1.700000e+02
6.000000e+02 0.000000e+00 2.700000e+02
6.000000e+02 0.000000e+00 3.700000e+02
6.000000e+02 0.000000e+00 4.700000e+02
6.000000e+02 1.000000e+02 -3.000000e+01
6.000000e+02 1.000000e+02 7.000000e+01
6.000000e+02 1.000000e+02 1.700000e+02
6.000000e+02 1.000000e+02 2.700000e+02
6.000000e+02 1.000000e+02 3.700000e+02
6.000000e+02 1.000000e+02 4.700000e+02
6.000000e+02 2.000000e+02 -3.000000e+01
6.000000e+02 2.000000e+02 7.000000e+01
6.000000e+02 2.000000e+02 1.700000e+02
6.000000e+02 2.000000e+02 2.700000e+02
6.000000e+02 2.000000e+02 3.700000e+02
6.000000e+02 2.000000e+02 4.700000e+02
6.000000e+02 3.000000e+02 -3.000000e+01
6.000000e+02 3.000000e+02 7.000000e+01
6.000000e+02 3.000000e+02 1.700000e+02
6.000000e+02 3.000000e+02 2.700000e+02
6.000000e+02 3.000000e+02 3.700000e+02
6.000000e+02 3.000000e+02 4.700000e+02
6.000000e+02 4.000000e+02 -3.000000e+01
6.000000e+02 4.000000e+02 7.000000e+01
6.000000e+02 4.000000e+02 1.700000e+02
6.000000e+02 4.000000e+02 2.700000e+02
6.000000e+02 4.000000e+02 3.700000e+02
6.000000e+02 4.000000e+02 4.700000e+02
6.000000e+02 5.000000e+02 -3.000000e+01
6.000000e+02 5.000000e+02 7.000000e+01
6.000000e+02 5.000000e+02 1.700000e+02
6.000000e+02 5.000000e+02 2.700000e+02
6.000000e+02 5.000000e+02 3.700000e+02
6.000000e+02 5.000000e+02 4.700000e+02
6.000000e+02 6.000000e+02 -3.000000e+01
6.000000e+02 6.000000e+02 7.000000e+01
6.000000e+02 6.000000e+02 1.700000e+02
6.000000e+02 6.000000e+02 2.700000e+02
6.000000e+02 6.000000e+02 3.700000e+02
6.000000e+02 6.000000e+02 4.700000e+02
6.000000e+02 7.000000e+02 -3.000000e+01
6.000000e+02 7.000000e+02 7.000000e+01
6.000000e+02 7.000000e+02 1.700000e+02
6.000000e+02 7.000000e+02 2.700000e+02
6.000000e+02 7.000000e+02 3.700000e+02
6.000000e+02 7.000000e+02 4.700000e+02
6.000000e+02 8.000000e+02 -3.000000e+01
6.000000e+02 8.000000e+02 7.000000e+01
6.000000e+02 8.000000e+02 1.700000e+02
6.000000e+02 8.000000e+02 2.700000e+02
6.000000e+02 8.000000e+02 3.700000e+02
6.000000e+02 8.000000e+02 4.700000e+02
6.000000e+02 9.000000e+02 -3.000000e+01
6.000000e+02 9.000000e+02 7.000000e+01
6.000000e+02 9.000000e+02 1.700000e+02
6.000000e+02 9.000000e+02 2.700000e+02
6.000000e+02 9.000000e+02 3.700000e+02
6.000000e+02 9.000000e+02 4.700000e+02
6.000000e+02 1.000000e+03 -3.000000e+01
6.000000e+02 1.000000e+03 7.000000e+01
6.000000e+02 1.000000e+03 1.700000e+02
6.000000e+02 1.000000e+03 2.700000e+02
6.000000e+02 1.000000e+03 3.700000e+02
6.000000e+02 1.000000e+03 4.700000e+02
7.000000e+02 0.000000e+00 -3.000000e+01
7.000000e+02 0.000000e+00 7.000000e+01
7.000000e+02 0.000000e+00 1.700000e+02
7.000000e+02 0.000000e+00 2.700000e+02
7.000000e+02 0.000000e+00 3.700000e+02
7.000000e+02 0.000000e+00 4.700000e+02
7.000000e+02 1.000000e+02 -3.000000e+01
7.000000e+02 1.000000e+02 7.000000e+01
7.000000e+02 1.000000e+02 1.700000e+02
7.000000e+02 1.000000e+02 2.700000e+02
7.000000e+02 1.000000e+02 3.700000e+02
7.000000e+02 1.000000e+02 4.700000e+02
7.000000e+02 2.000000e+02 -3.000000e+01
7.000000e+02 2.000000e+02 7.000000e+01
7.000000e+02 2.000000e+02 1.700000e+02
7.000000e+02 2.000000e+02 2.700000e+02
7.000000e+02 2.000000e+02 3.700000e+02
7.000000e+02 2.000000e+02 4.700000e+02
7.000000e+02 3.000000e+02 -3.000000e+01
7.000000e+02 3.000000e+02 7.000000e+01
7.000000e+02 3.000000e+02 1.700000e+02
7.000000e+02 3.000000e+02 2.700000e+02
7.000000e+02 3.000000e+02 3.700000e+02
7.000000e+02 3.000000e+02 4.700000e+02
7.000000e+02 4.000000e+02 -3.000000e+01
7.000000e+02 4.000000e+02 7.000000e+01
7.000000e+02 4.000000e+02 1.700000e+02
7.000000e+02 4.000000e+02 2.700000e+02
7.000000e+02 4.000000e+02 3.700000e+02
7.000000e+02 4.000000e+02 4.700000e+02
7.000000e+02 5.000000e+02 -3.000000e+01
7.000000e+02 5.000000e+02 7.000000e+01
7.000000e+02 5.000000e+02 1.700000e+02
7.000000e+02 5.000000e+02 2.700000e+02
7.000000e+02 5.000000e+02 3.700000e+02
7.000000e+02 5.000000e+02 4.700000e+02
7.000000e+02 6.000000e+02 -3.000000e+01
7.000000e+02 6.000000e+02 7.000000e+01
7.000000e+02 6.000000e+02 1.700000e+02
7.000000e+02 6.000000e+02 2.700000e+02
7.000000e+02 6.000000e+02 3.700000e+02
7.000000e+02 6.000000e+02 4.700000e+02
7.000000e+02 7.000000e+02 -3.000000e+01
7.000000e+02 7.000000e+02 7.000000e+01
7.000000e+02 7.000000e+02 1.700000e+02
7.000000e+02 7.000000e+02 2.700000e+02
7.000000e+02 7.000000e+02 3.700000e+02
7.000000e+02 7.000000e+02 4.700000e+02
7.000000e+02 8.000000e+02 -3.000000e+01
7.000000e+02 8.000000e+02 7.000000e+01
7.000000e+02 8.000000e+02 1.700000e+02
7.000000e+02 8.000000e+02 2.700000e+02
7.000000e+02 8.000000e+02 3.700000e+02
7.000000e+02 8.000000e+02 4.700000e+02
7.000000e+02 9.000000e+02 -3.000000e+01
7.000000e+02 9.000000e+02 7.000000e+01
7.000000e+02 9.000000e+02 1.700000e+02
7.000000e+02 9.000000e+02 2.700000e+02
7.000000e+02 9.000000e+02 3.700000e+02
7.000000e+02 9.000000e+02 4.700000e+02
7.000000e+02 1.000000e+03 -3.000000e+01
7.000000e+02 1.000000e+03 7.000000e+01
7.000000e+02 1.000000e+03 1.700000e+02
7.000000e+02 1.000000e+03 2.700000e+02
7.000000e+02 1.000000e+03 3.700000e+02
7.000000e+02 1.000000e+03 4.700000e+02
8.000000e+02 0.000000e+00 -3.000000e+01
8.000000e+02 0.000000e+00 7.000000e+01
8.000000e+02 0.000000e+00 1.700000e+02
8.000000e+02 0.000000e+00 2.700000e+02
8.000000e+02 0.000000e+00 3.700000e+02
8.000000e+02 0.000000e+00 4.700000e+02
8.000000e+02 1.000000e+02 -3.000000e+01
8.000000e+02 1.000000e+02 7.000000e+01
8.000000e+02 1.000000e+02 1.700000e+02
8.000000e+02 1.000000e+02 2.700000e+02
8.000000e+02 1.000000e+02 3.700000e+02
8.000000e+02 1.000000e+02 4.700000e+02
8.000000e+02 2.000000e+02 -3.000000e+01
8.000000e+02 2.000000e+02 7.000000e+01
8.000000e+02 2.000000e+02 1.700000e+02
8.000000e+02 2.000000e+02 2.700000e+02
8.000000e+02 2.000000e+02 3.700000e+02
8.000000e+02 2.000000e+02 4.700000e+02
8.000000e+02 3.000000e+02 -3.000000e+01
8.000000e+02 3.000000e+02 7.000000e+01
8.000000e+02 3.000000e+02 1.700000e+02
8.000000e+02 3.000000e+02 2.700000e+02
8.000000e+02 3.000000e+02 3.700000e+02
8.000000e+02 3.000000e+02 4.700000e+02
8.000000e+02 4.000000e+02 -3.000000e+01
8.000000e+02 4.000000e+02 7.000000e+01
8.000000e+02 4.000000e+02 1.700000e+02
8.000000e+02 4.000000e+02 2.700000e+02
8.000000e+02 4.000000e+02 3.700000e+02
8.000000e+02 4.000000e+02 4.700000e+02
8.000000e+02 5.000000e+02 -3.000000e+01
8.000000e+02 5.000000e+02 7.000000e+01
8.000000e+02 5.000000e+02 1.700000e+02
8.000000e+02 5.000000e+02 2.700000e+02
8.000000e+02 5.000000e+02 3.700000e+02
8.000000e+02 5.000000e+02 4.700000e+02
8.000000e+02 6.000000e+02 -3.000000e+01
8.000000e+02 6.000000e+02 7.000000e+01
8.000000e+02 6.000000e+02 1.700000e+02
8.000000e+02 6.000000e+02 2.700000e+02
8.000000e+02 6.000000e+02 3.700000e+02
8.000000e+02 6.000000e+02 4.700000e+02
8.000000e+02 7.000000e+02 -3.000000e+01
8.000000e+02 7.000000e+02 7.000000e+01
8.000000e+02 7.000000e+02 1.700000e+02
8.000000e+02 7.000000e+02 2.700000e+02
8.000000e+02 7.000000e+02 3.700000e+02
8.000000e+02 7.000000e+02 4.700000e+02
8.000000e+02 8.000000e+02 -3.000000e+01
8.000000e+02 8.000000e+02 7.000000e+01
8.000000e+02 8.000000e+02 1.700000e+02
8.000000e+02 8.000000e+02 2.700000e+02
8.000000e+02 8.000000e+02 3.700000e+02
8.000000e+02 8.000000e+02 4.700000e+02
8.000000e+02 9.000000e+02 -3.000000e+01
8.000000e+02 9.000000e+02 7.000000e+01
8.000000e+02 9.000000e+02 1.700000e+02
8.000000e+02 9.000000e+02 2.700000e+02
8.000000e+02 9.000000e+02 3.700000e+02
8.000000e+02 9.000000e+02 4.700000e+02
8.000000e+02 1.000000e+03 -3.000000e+01
8.000000e+02 1.000000e+03 7.000000e+01
8.000000e+02 1.000000e+03 1.700000e+02
8.000000e+02 1.000000e+03 2.700000e+02
8.000000e+02 1.000000e+03 3.700000e+02
8.000000e+02 1.000000e+03 4.700000e+02
CELLS 2898 26082
8 0 1 2 3 4 5 6 7
8 1 8 9 2 5 10 11 6
8 2 9 12 13 6 11 14 15
8 3 2 13 16 7 6 15 17
8 18 19 20 21 22 23 24 25
8 19 26 27 20 23 28 29 24
8 20 27 30 31 24 29 32 33
8 21 20 31 34 25 24 33 35
8 34 36 37 38 35 39 40 41
8 36 42 43 37 39 44 45 40
8 37 43 46 47 40 45 48 49
8 38 37 47 50 41 40 49 51
8 52 53 54 55 56 57 58 59
8 53 60 61 54 57 62 63 58
8 54 61 64 65 58 63 66 67
8 55 54 65 68 59 58 67 69
8 70 71 72 73 74 75 76 77
8 71 64 61 72 75 66 63 76
8 72 61 60 78 76 63 62 79
8 73 72 78 80 77 76 79 81
8 82 83 84 85 86 87 88 89
8 83 52 55 84 87 56 59 88
8 84 55 68 90 88 59 69 91
8 85 84 90 92 89 88 91 93
8 94 95 96 97 98 99 100 101
8 95 102 103 96 99 104 105 100
8 96 103 106 107 100 105 108 109
8 97 96 107 110 101 100 109 111
8 112 113 114 115 116 117 118 119
8 113 120 121 114 117 122 123 118
8 114 121 124 125 118 123 126 127
8 115 114 125 128 119 118 127 129
8 130 131 132 133 134 135 136 137
8 131 138 139 132 135 140 141 136
8 132 139 142 143 136 141 144 145
8 133 132 143 146 137 136 145 147
8 146 148 149 150 147 151 152 153
8 148 154 155 149 151 156 157 152
8 149 155 50 158 152 157 51 159
8 150 149 158 160 153 152 159 161
8 18 21 162 163 22 25 164 165
8 21 34 38 162 25 35 41 164
8 162 38 50 155 164 41 51 157
8 163 162 155 154 165 164 157 156
8 166 167 168 169 170 171 172 173
8 167 142 174 168 171 144 175 172
8 168 174 8 1 172 175 10 5
8 169 168 1 0 173 172 5 4
8 176 177 178 179 180 181 182 183
8 177 154 184 178 181 156 185 182
8 178 184 166 186 182 185 170 187
8 179 178 186 188 183 182 187 189
8 154 148 190 184 156 151 191 185
8 148 146 143 190 151 147 145 191
8 190 143 142 167 191 145 144 171
8 184 190 167 166 185 191 171 170
8 18 163 192 19 22 165 193 23
8 163 154 177 192 165 156 181 193
8 192 177 176 194 193 181 180 195
8 19 192 194 26 23 193 195 28
8 176 179 196 197 180 183 198 199
8 179 188 200 196 183 189 201 198
8 196 200 202 203 198 201 204 205
8 197 196 203 206 199 198 205 207
8 206 208 209 197 207 210 211 199
8 208 212 213 209 210 214 215 211
8 209 213 26 194 211 215 28 195
8 197 209 194 176 199 211 195 180
8 30 27 216 217 32 29 218 219
8 27 26 213 216 29 28 215 218
8 216 213 212 220 218 215 214 221
8 217 216 220 222 219 218 221 223
8 64 224 225 65 66 226 227 67
8 224 42 228 225 226 44 229 227
8 225 228 230 231 227 229 232 233
8 65 225 231 68 67 227 233 69
8 234 235 236 237 238 239 240 241
8 235 242 243 236 239 244 245 240
8 236 243 246 247 240 245 248 249
8 237 236 247 128 241 240 249 129
8 250 251 252 253 254 255 256 257
8 251 258 259 252 255 260 261 256
8 252 259 262 263 256 261 264 265
8 253 252 263 266 257 256 265 267
8 112 115 268 269 116 119 270 271
8 115 128 247 268 119 129 249 270
8 268 247 246 272 270 249 248 273
8 269 268 272 274 271 270 273 275
8 276 277 278 279 280 281 282 283
8 277 112 269 278 281 116 271 282
8 278 269 274 284 282 271 275 285
8 279 278 284 286 283 282 285 287
8 288 289 290 291 292 293 294 295
8 289 82 85 290 293 86 89 294
8 290 85 92 296 294 89 93 297
8 291 290 296 120 295 294 297 122
8 298 299 300 301 302 303 304 305
8 299 68 231 300 303 69 233 304
8 300 231 230 306 304 233 232 307
8 301 300 306 110 305 304 307 111
8 276 308 309 277 280 310 311 281
8 308 288 291 309 310 292 295 311
8 309 291 120 113 311 295 122 117
8 277 309 113 112 281 311 117 116
8 160 158 312 313 161 159 314 315
8 158 50 47 312 159 51 49 314
8 312 47 46 316 314 49 48 317
8 313 312 316 70 315 314 317 74
8 110 107 318 301 111 109 319 305
8 107 106 320 318 109 108 321 319
8 318 320 322 323 319 321 324 325
8 301 318 323 298 305 319 325 302
8 106 326 327 320 108 328 329 321
8 326 128 125 327 328 129 127 329
8 327 125 124 330 329 127 126 331
8 320 327 330 322 321 329 331 324
8 332 333 334 335 336 337 338 339
8 333 262 340 334 337 264 341 338
8 334 340 234 342 338 341 238 343
8 335 334 342 102 339 338 343 104
8 344 345 346 347 348 349 350 351
8 345 130 133 346 349 134 137 350
8 346 133 146 150 350 137 147 153
8 347 346 150 160 351 350 153 161
8 46 43 352 316 48 45 353 317
8 43 42 224 352 45 44 226 353
8 352 224 64 71 353 226 66 75
8 316 352 71 70 317 353 75 74
8 68 299 354 90 69 303 355 91
8 299 298 323 354 303 302 325 355
8 354 323 322 356 355 325 324 357
8 90 354 356 92 91 355 357 93
8 188 186 358 359 189 187 360 361
8 186 166 169 358 187 170 173 360
8 358 169 0 362 360 173 4 363
8 359 358 362 364 361 360 363 365
8 80 366 367 73 81 368 369 77
8 366 344 347 367 368 348 351 369
8 367 347 160 313 369 351 161 315
8 73 367 313 70 77 369 315 74
8 262 333 370 263 264 337 371 265
8 333 332 372 370 337 336 373 371
8 370 372 374 375 371 373 376 377
8 263 370 375 266 265 371 377 267
8 258 378 379 259 260 380 381 261
8 378 242 235 379 380 244 239 381
8 379 235 234 340 381 239 238 341
8 259 379 340 262 261 381 341 264
8 382 383 384 385 386 387 388 389
8 383 202 200 384 387 204 201 388
8 384 200 188 359 388 201 189 361
8 385 384 359 364 389 388 361 365
8 332 335 390 372 336 339 391 373
8 335 102 95 390 339 104 99 391
8 390 95 94 392 391 99 98 393
8 372 390 392 374 373 391 393 376
8 16 394 395 3 17 396 397 7
8 394 382 385 395 396 386 389 397
8 395 385 364 362 397 389 365 363
8 3 395 362 0 7 397 363 4
8 12 9 398 399 14 11 400 401
8 9 8 174 398 11 10 175 400
8 398 174 142 139 400 175 144 141
8 399 398 139 138 401 400 141 140
8 120 296 402 121 122 297 403 123
8 296 92 356 402 297 93 357 403
8 402 356 322 330 403 357 324 331
8 121 402 330 124 123 403 331 126
8 102 342 404 103 104 343 405 105
8 342 234 237 404 343 238 241 405
8 404 237 128 326 405 241 129 328
8 103 404 326 106 105 405 328 108
8 286 284 406 407 287 285 408 409
8 284 274 410 406 285 275 411 408
8 406 410 412 413 408 411 414 415
8 407 406 413 416 409 408 415 417
8 274 272 418 410 275 273 419 411
8 272 246 420 418 273 248 421 419
8 418 420 422 423 419 421 424 425
8 410 418 423 412 411 419 425 414
8 246 243 426 420 248 245 427 421
8 243 242 428 426 245 244 429 427
8 426 428 430 431 427 429 432 433
8 420 426 431 422 421 427 433 424
8 242 378 434 428 244 380 435 429
8 378 258 436 434 380 260 437 435
8 434 436 438 439 435 437 440 441
8 428 434 439 430 429 435 441 432
8 258 251 442 436 260 255 443 437
8 251 250 444 442 255 254 445 443
8 442 444 446 447 443 445 448 449
8 436 442 447 438 437 443 449 440
8 416 413 450 451 417 415 452 453
8 413 412 454 450 415 414 455 452
8 450 454 456 457 452 455 458 459
8 451 450 457 460 453 452 459 461
8 412 423 462 454 414 425 463 455
8 423 422 464 462 425 424 465 463
8 462 464 466 467 463 465 468 469
8 454 462 467 456 455 463 469 458
8 422 431 470 464 424 433 471 465
8 431 430 472 470 433 432 473 471
8 470 472 474 475 471 473 476 477
8 464 470 475 466 465 471 477 468
8 430 439 478 472 432 441 479 473
8 439 438 480 478 441 440 481 479
8 478 480 482 483 479 481 484 485
8 472 478 483 474 473 479 485 476
8 438 447 486 480 440 449 487 481
8 447 446 488 486 449 448 489 487
8 486 488 490 491 487 489 492 493
8 480 486 491 482 481 487 493 484
8 460 457 494 495 461 459 496 497
8 457 456 498 494 459 458 499 496
8 494 498 500 501 496 499 502 503
8 495 494 501 504 497 496 503 505
8 456 467 506 498 458 469 507 499
8 467 466 508 506 469 468 509 507
8 506 508 510 511 507 509 512 513
8 498 506 511 500 499 507 513 502
8 466 475 514 508 468 477 515 509
8 475 474 516 514 477 476 517 515
8 514 516 518 519 515 517 520 521
8 508 514 519 510 509 515 521 512
8 474 483 522 516 476 485 523 517
8 483 482 524 522 485 484 525 523
8 522 524 526 527 523 525 528 529
8 516 522 527 518 517 523 529 520
8 482 491 530 524 484 493 531 525
8 491 490 532 530 493 492 533 531
8 530 532 534 535 531 533 536 537
8 524 530 535 526 525 531 537 528
8 504 501 538 539 505 503 540 541
8 501 500 542 538 503 502 543 540
8 538 542 544 545 540 543 546 547
8 539 538 545 548 541 540 547 549
8 500 511 550 542 502 513 551 543
8 511 510 552 550 513 512 553 551
8 550 552 554 555 551 553 556 557
8 542 550 555 544 543 551 557 546
8 510 519 558 552 512 521 559 553
8 519 518 560 558 521 520 561 559
8 558 560 562 563 559 561 564 565
8 552 558 563 554 553 559 565 556
8 518 527 566 560 520 529 567 561
8 527 526 568 566 529 528 569 567
8 566 568 570 571 567 569 572 573
8 560 566 571 562 561 567 573 564
8 526 535 574 568 528 537 575 569
8 535 534 576 574 537 536 577 575
8 574 576 578 579 575 577 580 581
8 568 574 579 570 569 575 581 572
8 548 545 582 583 549 547 584 585
8 545 544 586 582 547 546 587 584
8 582 586 588 589 584 587 590 591
8 583 582 589 592 585 584 591 593
8 544 555 594 586 546 557 595 587
8 555 554 596 594 557 556 597 595
8 594 596 598 599 595 597 600 601
8 586 594 599 588 587 595 601 590
8 554 563 602 596 556 565 603 597
8 563 562 604 602 565 564 605 603
8 602 604 606 607 603 605 608 609
8 596 602 607 598 597 603 609 600
8 562 571 610 604 564 573 611 605
8 571 570 612 610 573 572 613 611
8 610 612 614 615 611 613 616 617
8 604 610 615 606 605 611 617 608
8 570 579 618 612 572 581 619 613
8 579 578 620 618 581 580 621 619
8 618 620 622 623 619 621 624 625
8 612 618 623 614 613 619 625 616
8 592 589 626 627 593 591 628 629
8 589 588 630 626 591 590 631 628
8 626 630 632 633 628 631 634 635
8 627 626 633 636 629 628 635 637
8 588 599 638 630 590 601 639 631
8 599 598 640 638 601 600 641 639
8 638 640 642 643 639 641 644 645
8 630 638 643 632 631 639 645 634
8 598 607 646 640 600 609 647 641
8 607 606 648 646 609 608 649 647
8 646 648 650 651 647 649 652 653
8 640 646 651 642 641 647 653 644
8 606 615 654 648 608 617 655 649
8 615 614 656 654 617 616 657 655
8 654 656 658 659 655 657 660 661
8 648 654 659 650 649 655 661 652
8 614 623 662 656 616 625 663 657
8 623 622 664 662 625 624 665 663
8 662 664 666 667 663 665 668 669
8 656 662 667 658 657 663 669 660
8 636 633 670 671 637 635 672 673
8 633 632 674 670 635 634 675 672
8 670 674 676 677 672 675 678 679
8 671 670 677 680 673 672 679 681
8 632 643 682 674 634 645 683 675
8 643 642 684 682 645 644 685 683
8 682 684 686 687 683 685 688 689
8 674 682 687 676 675 683 689 678
8 642 651 690 684 644 653 691 685
8 651 650 692 690 653 652 693 691
8 690 692 694 695 691 693 696 697
8 684 690 695 686 685 691 697 688
8 650 659 698 692 652 661 699 693
8 659 658 700 698 661 660 701 699
8 698 700 702 703 699 701 704 705
8 692 698 703 694 693 699 705 696
8 658 667 706 700 660 669 707 701
8 667 666 708 706 669 668 709 707
8 706 708 710 711 707 709 712 713
8 700 706 711 702 701 707 713 704
8 680 677 714 715 681 679 716 717
8 677 676 718 714 679 678 719 716
8 714 718 720 721 716 719 722 723
8 715 714 721 724 717 716 723 725
8 676 687 726 718 678 689 727 719
8 687 686 728 726 689 688 729 727
8 726 728 730 731 727 729 732 733
8 718 726 731 720 719 727 733 722
8 686 695 734 728 688 697 735 729
8 695 694 736 734 697 696 737 735
8 734 736 738 739 735 737 740 741
8 728 734 739 730 729 735 741 732
8 694 703 742 736 696 705 743 737
8 703 702 744 742 705 704 745 743
8 742 744 746 747 743 745 748 749
8 736 742 747 738 737 743 749 740
8 702 711 750 744 704 713 751 745
8 711 710 752 750 713 712 753 751
8 750 752 754 755 751 753 756 757
8 744 750 755 746 745 751 757 748
8 724 721 758 759 725 723 760 761
8 721 720 762 758 723 722 763 760
8 758 762 764 765 760 763 766 767
8 759 758 765 768 761 760 767 769
8 720 731 770 762 722 733 771 763
8 731 730 772 770 733 732 773 771
8 770 772 774 775 771 773 776 777
8 762 770 775 764 763 771 777 766
8 730 739 778 772 732 741 779 773
8 739 738 780 778 741 740 781 779
8 778 780 782 783 779 781 784 785
8 772 778 783 774 773 779 785 776
8 738 747 786 780 740 749 787 781
8 747 746 788 786 749 748 789 787
8 786 788 790 791 787 789 792 793
8 780 786 791 782 781 787 793 784
8 746 755 794 788 748 757 795 789
8 755 754 796 794 757 756 797 795
8 794 796 798 799 795 797 800 801
8 788 794 799 790 789 795 801 792
8 768 765 802 803 769 767 804 805
8 765 764 806 802 767 766 807 804
8 802 806 808 809 804 807 810 811
8 803 802 809 812 805 804 811 813
8 764 775 814 806 766 777 815 807
8 775 774 816 814 777 776 817 815
8 814 816 818 819 815 817 820 821
8 806 814 819 808 807 815 821 810
8 774 783 822 816 776 785 823 817
8 783 782 824 822 785 784 825 823
8 822 824 826 827 823 825 828 829
8 816 822 827 818 817 823 829 820
8 782 791 830 824 784 793 831 825
8 791 790 832 830 793 792 833 831
8 830 832 834 835 831 833 836 837
8 824 830 835 826 825 831 837 828
8 790 799 838 832 792 801 839 833
8 799 798 840 838 801 800 841 839
8 838 840 842 843 839 841 844 845
8 832 838 843 834 833 839 845 836
8 812 809 846 847 813 811 848 849
8 809 808 850 846 811 810 851 848
8 846 850 852 853 848 851 854 855
8 847 846 853 856 849 848 855 857
8 808 819 858 850 810 821 859 851
8 819 818 860 858 821 820 861 859
8 858 860 862 863 859 861 864 865
8 850 858 863 852 851 859 865 854
8 818 827 866 860 820 829 867 861
8 827 826 868 866 829 828 869 867
8 866 868 870 871 867 869 872 873
8 860 866 871 862 861 867 873 864
8 826 835 874 868 828 837 875 869
8 835 834 876 874 837 836 877 875
8 874 876 878 879 875 877 880 881
8 868 874 879 870 869 875 881 872
8 834 843 882 876 836 845 883 877
8 843 842 884 882 845 844 885 883
8 882 884 886 887 883 885 888 889
8 876 882 887 878 877 883 889 880
8 856 853 890 891 857 855 892 893
8 853 852 894 890 855 854 895 892
8 890 894 896 897 892 895 898 899
8 891 890 897 900 893 892 899 901
8 852 863 902 894 854 865 903 895
8 863 862 904 902 865 864 905 903
8 902 904 906 907 903 905 908 909
8 894 902 907 896 895 903 909 898
8 862 871 910 904 864 873 911 905
8 871 870 912 910 873 872 913 911
8 910 912 914 915 911 913 916 917
8 904 910 915 906 905 911 917 908
8 870 879 918 912 872 881 919 913
8 879 878 920 918 881 880 921 919
8 918 920 922 923 919 921 924 925
8 912 918 923 914 913 919 925 916
8 878 887 926 920 880 889 927 921
8 887 886 928 926 889 888 929 927
8 926 928 930 931 927 929 932 933
8 920 926 931 922 921 927 933 924
8 900 897 934 935 901 899 936 937
8 897 896 938 934 899 898 939 936
8 934 938 940 941 936 939 942 943
8 935 934 941 944 937 936 943 945
8 896 907 946 938 898 909 947 939
8 907 906 948 946 909 908 949 947
8 946 948 950 951 947 949 952 953
8 938 946 951 940 939 947 953 942
8 906 915 954 948 908 917 955 949
8 915 914 956 954 917 916 957 955
8 954 956 958 959 955 957 960 961
8 948 954 959 950 949 955 961 952
8 914 923 962 956 916 925 963 957
8 923 922 964 962 925 924 965 963
8 962 964 966 967 963 965 968 969
8 956 962 967 958 957 963 969 960
8 922 931 970 964 924 933 971 965
8 931 930 972 970 933 932 973 971
8 970 972 974 975 971 973 976 977
8 964 970 975 966 965 971 977 968
8 944 941 978 979 945 943 980 981
8 941 940 982 978 943 942 983 980
8 978 982 984 985 980 983 986 987
8 979 978 985 988 981 980 987 989
8 940 951 990 982 942 953 991 983
8 951 950 992 990 953 952 993 991
8 990 992 994 995 991 993 996 997
8 982 990 995 984 983 991 997 986
8 950 959 998 992 952 961 999 993
8 959 958 1000 998 961 960 1001 999
8 998 1000 1002 1003 999 1001 1004 1005
8 992 998 1003 994 993 999 1005 996
8 958 967 1006 1000 960 969 1007 1001
8 967 966 1008 1006 969 968 1009 1007
8 1006 1008 1010 1011 1007 1009 1012 1013
8 1000 1006 1011 1002 1001 1007 1013 1004
8 966 975 1014 1008 968 977 1015 1009
8 975 974 1016 1014 977 976 1017 1015
8 1014 1016 1018 1019 1015 1017 1020 1021
8 1008 1014 1019 1010 1009 1015 1021 1012
8 1022 1023 1024 1025 1026 1027 1028 1029
8 1023 1030 1031 1024 1027 1032 1033 1028
8 1024 1031 1034 1035 1028 1033 1036 1037
8 1025 1024 1035 1038 1029 1028 1037 1039
8 1030 1040 1041 1031 1032 1042 1043 1033
8 1040 1044 1045 1041 1042 1046 1047 1043
8 1041 1045 1048 1049 1043 1047 1050 1051
8 1031 1041 1049 1034 1033 1043 1051 1036
8 1044 1052 1053 1045 1046 1054 1055 1047
8 1052 724 759 1053 1054 725 761 1055
8 1053 759 768 1056 1055 761 769 1057
8 1045 1053 1056 1048 1047 1055 1057 1050
8 1038 1035 1058 1059 1039 1037 1060 1061
8 1035 1034 1062 1058 1037 1036 1063 1060
8 1058 1062 1064 1065 1060 1063 1066 1067
8 1059 1058 1065 1068 1061 1060 1067 1069
8 1034 1049 1070 1062 1036 1051 1071 1063
8 1049 1048 1072 1070 1051 1050 1073 1071
8 1070 1072 1074 1075 1071 1073 1076 1077
8 1062 1070 1075 1064 1063 1071 1077 1066
8 1048 1056 1078 1072 1050 1057 1079 1073
8 1056 768 803 1078 1057 769 805 1079
8 1078 803 812 1080 1079 805 813 1081
8 1072 1078 1080 1074 1073 1079 1081 1076
8 1068 1065 1082 1083 1069 1067 1084 1085
8 1065 1064 1086 1082 1067 1066 1087 1084
8 1082 1086 1088 1089 1084 1087 1090 1091
8 1083 1082 1089 1092 1085 1084 1091 1093
8 1064 1075 1094 1086 1066 1077 1095 1087
8 1075 1074 1096 1094 1077 1076 1097 1095
8 1094 1096 1098 1099 1095 1097 1100 1101
8 1086 1094 1099 1088 1087 1095 1101 1090
8 1074 1080 1102 1096 1076 1081 1103 1097
8 1080 812 847 1102 1081 813 849 1103
8 1102 847 856 1104 1103 849 857 1105
8 1096 1102 1104 1098 1097 1103 1105 1100
8 1092 1089 1106 1107 1093 1091 1108 1109
8 1089 1088 1110 1106 1091 1090 1111 1108
8 1106 1110 1112 1113 1108 1111 1114 1115
8 1107 1106 1113 1116 1109 1108 1115 1117
8 1088 1099 1118 1110 1090 1101 1119 1111
8 1099 1098 1120 1118 1101 1100 1121 1119
8 1118 1120 1122 1123 1119 1121 1124 1125
8 1110 1118 1123 1112 1111 1119 1125 1114
8 1098 1104 1126 1120 1100 1105 1127 1121
8 1104 856 891 1126 1105 857 893 1127
8 1126 891 900 1128 1127 893 901 1129
8 1120 1126 1128 1122 1121 1127 1129 1124
8 1116 1113 1130 1131 1117 1115 1132 1133
8 1113 1112 1134 1130 1115 1114 1135 1132
8 1130 1134 1136 1137 1132 1135 1138 1139
8 1131 1130 1137 1140 1133 1132 1139 1141
8 1112 1123 1142 1134 1114 1125 1143 1135
8 1123 1122 1144 1142 1125 1124 1145 1143
8 1142 1144 1146 1147 1143 1145 1148 1149
8 1134 1142 1147 1136 1135 1143 1149 1138
8 1122 1128 1150 1144 1124 1129 1151 1145
8 1128 900 935 1150 1129 901 937 1151
8 1150 935 944 1152 1151 937 945 1153
8 1144 1150 1152 1146 1145 1151 1153 1148
8 1140 1137 1154 1155 1141 1139 1156 1157
8 1137 1136 1158 1154 1139 1138 1159 1156
8 1154 1158 1160 1161 1156 1159 1162 1163
8 1155 1154 1161 1164 1157 1156 1163 1165
8 1136 1147 1166 1158 1138 1149 1167 1159
8 1147 1146 1168 1166 1149 1148 1169 1167
8 1166 1168 1170 1171 1167 1169 1172 1173
8 1158 1166 1171 1160 1159 1167 1173 1162
8 1146 1152 1174 1168 1148 1153 1175 1169
8 1152 944 979 1174 1153 945 981 1175
8 1174 979 988 1176 1175 981 989 1177
8 1168 1174 1176 1170 1169 1175 1177 1172
8 416 451 1178 1179 417 453 1180 1181
8 451 460 1182 1178 453 461 1183 1180
8 1178 1182 1184 1185 1180 1183 1186 1187
8 1179 1178 1185 1188 1181 1180 1187 1189
8 460 495 1190 1182 461 497 1191 1183
8 495 504 1192 1190 497 505 1193 1191
8 1190 1192 1194 1195 1191 1193 1196 1197
8 1182 1190 1195 1184 1183 1191 1197 1186
8 504 539 1198 1192 505 541 1199 1193
8 539 548 1200 1198 541 549 1201 1199
8 1198 1200 1202 1203 1199 1201 1204 1205
8 1192 1198 1203 1194 1193 1199 1205 1196
8 548 583 1206 1200 549 585 1207 1201
8 583 592 1208 1206 585 593 1209 1207
8 1206 1208 1210 1211 1207 1209 1212 1213
8 1200 1206 1211 1202 1201 1207 1213 1204
8 592 627 1214 1208 593 629 1215 1209
8 627 636 1216 1214 629 637 1217 1215
8 1214 1216 1218 1219 1215 1217 1220 1221
8 1208 1214 1219 1210 1209 1215 1221 1212
8 636 671 1222 1216 637 673 1223 1217
8 671 680 1224 1222 673 681 1225 1223
8 1222 1224 1226 1227 1223 1225 1228 1229
8 1216 1222 1227 1218 1217 1223 1229 1220
8 680 715 1230 1224 681 717 1231 1225
8 715 724 1052 1230 717 725 1054 1231
8 1230 1052 1044 1232 1231 1054 1046 1233
8 1224 1230 1232 1226 1225 1231 1233 1228
8 1188 1185 1234 1235 1189 1187 1236 1237
8 1185 1184 1238 1234 1187 1186 1239 1236
8 1234 1238 1240 1241 1236 1239 1242 1243
8 1235 1234 1241 1244 1237 1236 1243 1245
8 1184 1195 1246 1238 1186 1197 1247 1239
8 1195 1194 1248 1246 1197 1196 1249 1247
8 1246 1248 1250 1251 1247 1249 1252 1253
8 1238 1246 1251 1240 1239 1247 1253 1242
8 1194 1203 1254 1248 1196 1205 1255 1249
8 1203 1202 1256 1254 1205 1204 1257 1255
8 1254 1256 1258 1259 1255 1257 1260 1261
8 1248 1254 1259 1250 1249 1255 1261 1252
8 1202 1211 1262 1256 1204 1213 1263 1257
8 1211 1210 1264 1262 1213 1212 1265 1263
8 1262 1264 1266 1267 1263 1265 1268 1269
8 1256 1262 1267 1258 1257 1263 1269 1260
8 1210 1219 1270 1264 1212 1221 1271 1265
8 1219 1218 1272 1270 1221 1220 1273 1271
8 1270 1272 1274 1275 1271 1273 1276 1277
8 1264 1270 1275 1266 1265 1271 1277 1268
8 1218 1227 1278 1272 1220 1229 1279 1273
8 1227 1226 1280 1278 1229 1228 1281 1279
8 1278 1280 1282 1283 1279 1281 1284 1285
8 1272 1278 1283 1274 1273 1279 1285 1276
8 1226 1232 1286 1280 1228 1233 1287 1281
8 1232 1044 1040 1286 1233 1046 1042 1287
8 1286 1040 1030 1288 1287 1042 1032 1289
8 1280 1286 1288 1282 1281 1287 1289 1284
8 1030 1023 1290 1288 1032 1027 1291 1289
8 1023 1022 1292 1290 1027 1026 1293 1291
8 1290 1292 1294 1295 1291 1293 1296 1297
8 1288 1290 1295 1282 1289 1291 1297 1284
8 1282 1295 1298 1283 1284 1297 1299 1285
8 1295 1294 1300 1298 1297 1296 1301 1299
8 1298 1300 1302 1303 1299 1301 1304 1305
8 1283 1298 1303 1274 1285 1299 1305 1276
8 1274 1303 1306 1275 1276 1305 1307 1277
8 1303 1302 1308 1306 1305 1304 1309 1307
8 1306 1308 1310 1311 1307 1309 1312 1313
8 1275 1306 1311 1266 1277 1307 1313 1268
8 1266 1311 1314 1267 1268 1313 1315 1269
8 1311 1310 1316 1314 1313 1312 1317 1315
8 1314 1316 1318 1319 1315 1317 1320 1321
8 1267 1314 1319 1258 1269 1315 1321 1260
8 1258 1319 1322 1259 1260 1321 1323 1261
8 1319 1318 1324 1322 1321 1320 1325 1323
8 1322 1324 1326 1327 1323 1325 1328 1329
8 1259 1322 1327 1250 1261 1323 1329 1252
8 1250 1327 1330 1251 1252 1329 1331 1253
8 1327 1326 1332 1330 1329 1328 1333 1331
8 1330 1332 1334 1335 1331 1333 1336 1337
8 1251 1330 1335 1240 1253 1331 1337 1242
8 1240 1335 1338 1241 1242 1337 1339 1243
8 1335 1334 1340 1338 1337 1336 1341 1339
8 1338 1340 1342 1343 1339 1341 1344 1345
8 1241 1338 1343 1244 1243 1339 1345 1245
8 1342 1346 1347 1343 1344 1348 1349 1345
8 1346 1350 1351 1347 1348 1352 1353 1349
8 1347 1351 1188 1235 1349 1353 1189 1237
8 1343 1347 1235 1244 1345 1349 1237 1245
8 1350 1354 1355 1351 1352 1356 1357 1353
8 1354 286 407 1355 1356 287 409 1357
8 1355 407 416 1179 1357 409 417 1181
8 1351 1355 1179 1188 1353 1357 1181 1189
8 1358 1359 1360 1361 1362 1363 1364 1365
8 1359 1366 1367 1360 1363 1368 1369 1364
8 1360 1367 1370 1371 1364 1369 1372 1373
8 1361 1360 1371 1374 1365 1364 1373 1375
8 1376 1377 1378 1379 1380 1381 1382 1383
8 1377 1384 1385 1378 1381 1386 1387 1382
8 1378 1385 1388 1389 1382 1387 1390 1391
8 1379 1378 1389 1392 1383 1382 1391 1393
8 1394 1395 1396 1397 1398 1399 1400 1401
8 1395 1402 1403 1396 1399 1404 1405 1400
8 1396 1403 1406 1407 1400 1405 1408 1409
8 1397 1396 1407 1410 1401 1400 1409 1411
8 1410 1412 1413 1414 1411 1415 1416 1417
8 1412 1418 1419 1413 1415 1420 1421 1416
8 1413 1419 1422 1423 1416 1421 1424 1425
8 1414 1413 1423 1426 1417 1416 1425 1427
8 1428 1429 1430 1431 1432 1433 1434 1435
8 1429 1426 1423 1430 1433 1427 1425 1434
8 1430 1423 1422 1436 1434 1425 1424 1437
8 1431 1430 1436 1438 1435 1434 1437 1439
8 1440 1441 1442 1443 1444 1445 1446 1447
8 1441 1448 1449 1442 1445 1450 1451 1446
8 1442 1449 1452 1453 1446 1451 1454 1455
8 1443 1442 1453 1456 1447 1446 1455 1457
8 1458 1459 1460 1461 1462 1463 1464 1465
8 1459 1394 1466 1460 1463 1398 1467 1464
8 1460 1466 1428 1468 1464 1467 1432 1469
8 1461 1460 1468 1470 1465 1464 1469 1471
8 1406 1403 1472 1473 1408 1405 1474 1475
8 1403 1402 1476 1472 1405 1404 1477 1474
8 1472 1476 1478 1479 1474 1477 1480 1481
8 1473 1472 1479 1482 1475 1474 1481 1483
8 1484 1485 1486 1487 1488 1489 1490 1491
8 1485 1388 1492 1486 1489 1390 1493 1490
8 1486 1492 1494 1495 1490 1493 1496 1497
8 1487 1486 1495 1498 1491 1490 1497 1499
8 1500 1501 1502 1503 1504 1505 1506 1507
8 1501 1392 1389 1502 1505 1393 1391 1506
8 1502 1389 1388 1485 1506 1391 1390 1489
8 1503 1502 1485 1484 1507 1506 1489 1488
8 1392 1501 1508 1509 1393 1505 1510 1511
8 1501 1500 1512 1508 1505 1504 1513 1510
8 1508 1512 1514 1515 1510 1513 1516 1517
8 1509 1508 1515 1518 1511 1510 1517 1519
8 1520 1521 1522 1523 1524 1525 1526 1527
8 1521 1452 1449 1522 1525 1454 1451 1526
8 1522 1449 1448 1528 1526 1451 1450 1529
8 1523 1522 1528 1530 1527 1526 1529 1531
8 1452 1521 1532 1533 1454 1525 1534 1535
8 1521 1520 1536 1532 1525 1524 1537 1534
8 1532 1536 1538 1539 1534 1537 1540 1541
8 1533 1532 1539 1438 1535 1534 1541 1439
8 1456 1542 1543 1544 1457 1545 1546 1547
8 1542 1422 1419 1543 1545 1424 1421 1546
8 1543 1419 1418 1548 1546 1421 1420 1549
8 1544 1543 1548 1550 1547 1546 1549 1551
8 1552 1553 1554 1555 1556 1557 1558 1559
8 1553 1560 1561 1554 1557 1562 1563 1558
8 1554 1561 1550 1564 1558 1563 1551 1565
8 1555 1554 1564 1566 1559 1558 1565 1567
8 1568 1569 1570 1571 1572 1573 1574 1575
8 1569 1576 1577 1570 1573 1578 1579 1574
8 1570 1577 1580 1581 1574 1579 1582 1583
8 1571 1570 1581 1584 1575 1574 1583 1585
8 1586 1587 1588 1589 1590 1591 1592 1593
8 1587 1584 1581 1588 1591 1585 1583 1592
8 1588 1581 1580 1594 1592 1583 1582 1595
8 1589 1588 1594 1596 1593 1592 1595 1597
8 1550 1561 1598 1544 1551 1563 1599 1547
8 1561 1560 1600 1598 1563 1562 1601 1599
8 1598 1600 1602 1603 1599 1601 1604 1605
8 1544 1598 1603 1456 1547 1599 1605 1457
8 1606 1607 1608 1609 1610 1611 1612 1613
8 1607 1614 1615 1608 1611 1616 1617 1612
8 1608 1615 1618 1619 1612 1617 1620 1621
8 1609 1608 1619 1622 1613 1612 1621 1623
8 1440 1443 1624 1625 1444 1447 1626 1627
8 1443 1456 1603 1624 1447 1457 1605 1626
8 1624 1603 1602 1628 1626 1605 1604 1629
8 1625 1624 1628 1586 1627 1626 1629 1590
8 1560 1553 1630 1631 1562 1557 1632 1633
8 1553 1552 1634 1630 1557 1556 1635 1632
8 1630 1634 1568 1571 1632 1635 1572 1575
8 1631 1630 1571 1584 1633 1632 1575 1585
8 1596 1594 1636 1637 1597 1595 1638 1639
8 1594 1580 1577 1636 1595 1582 1579 1638
8 1636 1577 1576 1640 1638 1579 1578 1641
8 1637 1636 1640 1642 1639 1638 1641 1643
8 1584 1587 1644 1631 1585 1591 1645 1633
8 1587 1586 1628 1644 1591 1590 1629 1645
8 1644 1628 1602 1600 1645 1629 1604 1601
8 1631 1644 1600 1560 1633 1645 1601 1562
8 1606 1609 1646 1647 1610 1613 1648 1649
8 1609 1622 1650 1646 1613 1623 1651 1648
8 1646 1650 1530 1528 1648 1651 1531 1529
8 1647 1646 1528 1448 1649 1648 1529 1450
8 1458 1652 1653 1459 1462 1654 1655 1463
8 1652 1656 1657 1653 1654 1658 1659 1655
8 1653 1657 1402 1395 1655 1659 1404 1399
8 1459 1653 1395 1394 1463 1655 1399 1398
8 1660 1661 1662 1663 1664 1665 1666 1667
8 1661 1478 1476 1662 1665 1480 1477 1666
8 1662 1476 1402 1657 1666 1477 1404 1659
8 1663 1662 1657 1656 1667 1666 1659 1658
8 1478 1661 1668 1669 1480 1665 1670 1671
8 1661 1660 1672 1668 1665 1664 1673 1670
8 1668 1672 1358 1361 1670 1673 1362 1365
8 1669 1668 1361 1374 1671 1670 1365 1375
8 1498 1495 1674 1675 1499 1497 1676 1677
8 1495 1494 1678 1674 1497 1496 1679 1676
8 1674 1678 1370 1680 1676 1679 1372 1681
8 1675 1674 1680 1682 1677 1676 1681 1683
8 1366 1684 1685 1367 1368 1686 1687 1369
8 1684 1688 1689 1685 1686 1690 1691 1687
8 1685 1689 1682 1680 1687 1691 1683 1681
8 1367 1685 1680 1370 1369 1687 1681 1372
8 1438 1539 1692 1431 1439 1541 1693 1435
8 1539 1538 1694 1692 1541 1540 1695 1693
8 1692 1694 1470 1468 1693 1695 1471 1469
8 1431 1692 1468 1428 1435 1693 1469 1432
8 1422 1542 1696 1436 1424 1545 1697 1437
8 1542 1456 1453 1696 1545 1457 1455 1697
8 1696 1453 1452 1533 1697 1455 1454 1535
8 1436 1696 1533 1438 1437 1697 1535 1439
8 1394 1397 1698 1466 1398 1401 1699 1467
8 1397 1410 1414 1698 1401 1411 1417 1699
8 1698 1414 1426 1429 1699 1417 1427 1433
8 1466 1698 1429 1428 1467 1699 1433 1432
8 1388 1385 1700 1492 1390 1387 1701 1493
8 1385 1384 1702 1700 1387 1386 1703 1701
8 1700 1702 1704 1705 1701 1703 1706 1707
8 1492 1700 1705 1494 1493 1701 1707 1496
8 1596 1637 1708 1709 1597 1639 1710 1711
8 1637 1642 1712 1708 1639 1643 1713 1710
8 1708 1712 1618 1615 1710 1713 1620 1617
8 1709 1708 1615 1614 1711 1710 1617 1616
8 1586 1589 1714 1625 1590 1593 1715 1627
8 1589 1596 1709 1714 1593 1597 1711 1715
8 1714 1709 1614 1716 1715 1711 1616 1717
8 1625 1714 1716 1440 1627 1715 1717 1444
8 1440 1716 1718 1441 1444 1717 1719 1445
8 1716 1614 1607 1718 1717 1616 1611 1719
8 1718 1607 1606 1647 1719 1611 1610 1649
8 1441 1718 1647 1448 1445 1719 1649 1450
8 1482 1479 1720 1721 1483 1481 1722 1723
8 1479 1478 1724 1720 1481 1480 1725 1722
8 1720 1724 1384 1377 1722 1725 1386 1381
8 1721 1720 1377 1376 1723 1722 1381 1380
8 1374 1726 1727 1669 1375 1728 1729 1671
8 1726 1704 1702 1727 1728 1706 1703 1729
8 1727 1702 1384 1724 1729 1703 1386 1725
8 1669 1727 1724 1478 1671 1729 1725 1480
8 1370 1678 1730 1371 1372 1679 1731 1373
8 1678 1494 1705 1730 1679 1496 1707 1731
8 1730 1705 1704 1726 1731 1707 1706 1728
8 1371 1730 1726 1374 1373 1731 1728 1375
8 1688 1732 1733 1689 1690 1734 1735 1691
8 1732 1736 1737 1733 1734 1738 1739 1735
8 1733 1737 1740 1741 1735 1739 1742 1743
8 1689 1733 1741 1682 1691 1735 1743 1683
8 1736 1744 1745 1737 1738 1746 1747 1739
8 1744 1748 1749 1745 1746 1750 1751 1747
8 1745 1749 1752 1753 1747 1751 1754 1755
8 1737 1745 1753 1740 1739 1747 1755 1742
8 1748 1756 1757 1749 1750 1758 1759 1751
8 1756 1760 1761 1757 1758 1762 1763 1759
8 1757 1761 1764 1765 1759 1763 1766 1767
8 1749 1757 1765 1752 1751 1759 1767 1754
8 1760 1768 1769 1761 1762 1770 1771 1763
8 1768 1772 1773 1769 1770 1774 1775 1771
8 1769 1773 1776 1777 1771 1775 1778 1779
8 1761 1769 1777 1764 1763 1771 1779 1766
8 1772 1780 1781 1773 1774 1782 1783 1775
8 1780 1784 1785 1781 1782 1786 1787 1783
8 1781 1785 1788 1789 1783 1787 1790 1791
8 1773 1781 1789 1776 1775 1783 1791 1778
8 1784 1792 1793 1785 1786 1794 1795 1787
8 1792 1796 1797 1793 1794 1798 1799 1795
8 1793 1797 1800 1801 1795 1799 1802 1803
8 1785 1793 1801 1788 1787 1795 1803 1790
8 1796 1804 1805 1797 1798 1806 1807 1799
8 1804 1808 1809 1805 1806 1810 1811 1807
8 1805 1809 1812 1813 1807 1811 1814 1815
8 1797 1805 1813 1800 1799 1807 1815 1802
8 1808 1816 1817 1809 1810 1818 1819 1811
8 1816 1820 1821 1817 1818 1822 1823 1819
8 1817 1821 1824 1825 1819 1823 1826 1827
8 1809 1817 1825 1812 1811 1819 1827 1814
8 1820 1828 1829 1821 1822 1830 1831 1823
8 1828 1832 1833 1829 1830 1834 1835 1831
8 1829 1833 1836 1837 1831 1835 1838 1839
8 1821 1829 1837 1824 1823 1831 1839 1826
8 1832 1840 1841 1833 1834 1842 1843 1835
8 1840 1844 1845 1841 1842 1846 1847 1843
8 1841 1845 1848 1849 1843 1847 1850 1851
8 1833 1841 1849 1836 1835 1843 1851 1838
8 1844 1852 1853 1845 1846 1854 1855 1847
8 1852 1856 1857 1853 1854 1858 1859 1855
8 1853 1857 1860 1861 1855 1859 1862 1863
8 1845 1853 1861 1848 1847 1855 1863 1850
8 1856 1864 1865 1857 1858 1866 1867 1859
8 1864 1868 1869 1865 1866 1870 1871 1867
8 1865 1869 1872 1873 1867 1871 1874 1875
8 1857 1865 1873 1860 1859 1867 1875 1862
8 1868 1876 1877 1869 1870 1878 1879 1871
8 1876 1880 1881 1877 1878 1882 1883 1879
8 1877 1881 1884 1885 1879 1883 1886 1887
8 1869 1877 1885 1872 1871 1879 1887 1874
8 1880 1888 1889 1881 1882 1890 1891 1883
8 1888 1892 1893 1889 1890 1894 1895 1891
8 1889 1893 1896 1897 1891 1895 1898 1899
8 1881 1889 1897 1884 1883 1891 1899 1886
8 1682 1741 1900 1675 1683 1743 1901 1677
8 1741 1740 1902 1900 1743 1742 1903 1901
8 1900 1902 1904 1905 1901 1903 1906 1907
8 1675 1900 1905 1498 1677 1901 1907 1499
8 1740 1753 1908 1902 1742 1755 1909 1903
8 1753 1752 1910 1908 1755 1754 1911 1909
8 1908 1910 1912 1913 1909 1911 1914 1915
8 1902 1908 1913 1904 1903 1909 1915 1906
8 1752 1765 1916 1910 1754 1767 1917 1911
8 1765 1764 1918 1916 1767 1766 1919 1917
8 1916 1918 1920 1921 1917 1919 1922 1923
8 1910 1916 1921 1912 1911 1917 1923 1914
8 1764 1777 1924 1918 1766 1779 1925 1919
8 1777 1776 1926 1924 1779 1778 1927 1925
8 1924 1926 1928 1929 1925 1927 1930 1931
8 1918 1924 1929 1920 1919 1925 1931 1922
8 1776 1789 1932 1926 1778 1791 1933 1927
8 1789 1788 1934 1932 1791 1790 1935 1933
8 1932 1934 1936 1937 1933 1935 1938 1939
8 1926 1932 1937 1928 1927 1933 1939 1930
8 1788 1801 1940 1934 1790 1803 1941 1935
8 1801 1800 1942 1940 1803 1802 1943 1941
8 1940 1942 1944 1945 1941 1943 1946 1947
8 1934 1940 1945 1936 1935 1941 1947 1938
8 1800 1813 1948 1942 1802 1815 1949 1943
8 1813 1812 1950 1948 1815 1814 1951 1949
8 1948 1950 1952 1953 1949 1951 1954 1955
8 1942 1948 1953 1944 1943 1949 1955 1946
8 1812 1825 1956 1950 1814 1827 1957 1951
8 1825 1824 1958 1956 1827 1826 1959 1957
8 1956 1958 1960 1961 1957 1959 1962 1963
8 1950 1956 1961 1952 1951 1957 1963 1954
8 1824 1837 1964 1958 1826 1839 1965 1959
8 1837 1836 1966 1964 1839 1838 1967 1965
8 1964 1966 1968 1969 1965 1967 1970 1971
8 1958 1964 1969 1960 1959 1965 1971 1962
8 1836 1849 1972 1966 1838 1851 1973 1967
8 1849 1848 1974 1972 1851 1850 1975 1973
8 1972 1974 1976 1977 1973 1975 1978 1979
8 1966 1972 1977 1968 1967 1973 1979 1970
8 1848 1861 1980 1974 1850 1863 1981 1975
8 1861 1860 1982 1980 1863 1862 1983 1981
8 1980 1982 1984 1985 1981 1983 1986 1987
8 1974 1980 1985 1976 1975 1981 1987 1978
8 1860 1873 1988 1982 1862 1875 1989 1983
8 1873 1872 1990 1988 1875 1874 1991 1989
8 1988 1990 1992 1993 1989 1991 1994 1995
8 1982 1988 1993 1984 1983 1989 1995 1986
8 1872 1885 1996 1990 1874 1887 1997 1991
8 1885 1884 1998 1996 1887 1886 1999 1997
8 1996 1998 2000 2001 1997 1999 2002 2003
8 1990 1996 2001 1992 1991 1997 2003 1994
8 1884 1897 2004 1998 1886 1899 2005 1999
8 1897 1896 2006 2004 1899 1898 2007 2005
8 2004 2006 2008 2009 2005 2007 2010 2011
8 1998 2004 2009 2000 1999 2005 2011 2002
8 1498 1905 2012 1487 1499 1907 2013 1491
8 1905 1904 2014 2012 1907 1906 2015 2013
8 2012 2014 2016 2017 2013 2015 2018 2019
8 1487 2012 2017 1484 1491 2013 2019 1488
8 1904 1913 2020 2014 1906 1915 2021 2015
8 1913 1912 2022 2020 1915 1914 2023 2021
8 2020 2022 2024 2025 2021 2023 2026 2027
8 2014 2020 2025 2016 2015 2021 2027 2018
8 1912 1921 2028 2022 1914 1923 2029 2023
8 1921 1920 2030 2028 1923 1922 2031 2029
8 2028 2030 2032 2033 2029 2031 2034 2035
8 2022 2028 2033 2024 2023 2029 2035 2026
8 1920 1929 2036 2030 1922 1931 2037 2031
8 1929 1928 2038 2036 1931 1930 2039 2037
8 2036 2038 2040 2041 2037 2039 2042 2043
8 2030 2036 2041 2032 2031 2037 2043 2034
8 1928 1937 2044 2038 1930 1939 2045 2039
8 1937 1936 2046 2044 1939 1938 2047 2045
8 2044 2046 2048 2049 2045 2047 2050 2051
8 2038 2044 2049 2040 2039 2045 2051 2042
8 1936 1945 2052 2046 1938 1947 2053 2047
8 1945 1944 2054 2052 1947 1946 2055 2053
8 2052 2054 2056 2057 2053 2055 2058 2059
8 2046 2052 2057 2048 2047 2053 2059 2050
8 1944 1953 2060 2054 1946 1955 2061 2055
8 1953 1952 2062 2060 1955 1954 2063 2061
8 2060 2062 2064 2065 2061 2063 2066 2067
8 2054 2060 2065 2056 2055 2061 2067 2058
8 1952 1961 2068 2062 1954 1963 2069 2063
8 1961 1960 2070 2068 1963 1962 2071 2069
8 2068 2070 2072 2073 2069 2071 2074 2075
8 2062 2068 2073 2064 2063 2069 2075 2066
8 1960 1969 2076 2070 1962 1971 2077 2071
8 1969 1968 2078 2076 1971 1970 2079 2077
8 2076 2078 2080 2081 2077 2079 2082 2083
8 2070 2076 2081 2072 2071 2077 2083 2074
8 1968 1977 2084 2078 1970 1979 2085 2079
8 1977 1976 2086 2084 1979 1978 2087 2085
8 2084 2086 2088 2089 2085 2087 2090 2091
8 2078 2084 2089 2080 2079 2085 2091 2082
8 1976 1985 2092 2086 1978 1987 2093 2087
8 1985 1984 2094 2092 1987 1986 2095 2093
8 2092 2094 2096 2097 2093 2095 2098 2099
8 2086 2092 2097 2088 2087 2093 2099 2090
8 1984 1993 2100 2094 1986 1995 2101 2095
8 1993 1992 2102 2100 1995 1994 2103 2101
8 2100 2102 2104 2105 2101 2103 2106 2107
8 2094 2100 2105 2096 2095 2101 2107 2098
8 1992 2001 2108 2102 1994 2003 2109 2103
8 2001 2000 2110 2108 2003 2002 2111 2109
8 2108 2110 2112 2113 2109 2111 2114 2115
8 2102 2108 2113 2104 2103 2109 2115 2106
8 2000 2009 2116 2110 2002 2011 2117 2111
8 2009 2008 2118 2116 2011 2010 2119 2117
8 2116 2118 2120 2121 2117 2119 2122 2123
8 2110 2116 2121 2112 2111 2117 2123 2114
8 1484 2017 2124 1503 1488 2019 2125 1507
8 2017 2016 2126 2124 2019 2018 2127 2125
8 2124 2126 2128 2129 2125 2127 2130 2131
8 1503 2124 2129 1500 1507 2125 2131 1504
8 2016 2025 2132 2126 2018 2027 2133 2127
8 2025 2024 2134 2132 2027 2026 2135 2133
8 2132 2134 2136 2137 2133 2135 2138 2139
8 2126 2132 2137 2128 2127 2133 2139 2130
8 2024 2033 2140 2134 2026 2035 2141 2135
8 2033 2032 2142 2140 2035 2034 2143 2141
8 2140 2142 2144 2145 2141 2143 2146 2147
8 2134 2140 2145 2136 2135 2141 2147 2138
8 2032 2041 2148 2142 2034 2043 2149 2143
8 2041 2040 2150 2148 2043 2042 2151 2149
8 2148 2150 2152 2153 2149 2151 2154 2155
8 2142 2148 2153 2144 2143 2149 2155 2146
8 2040 2049 2156 2150 2042 2051 2157 2151
8 2049 2048 2158 2156 2051 2050 2159 2157
8 2156 2158 2160 2161 2157 2159 2162 2163
8 2150 2156 2161 2152 2151 2157 2163 2154
8 2048 2057 2164 2158 2050 2059 2165 2159
8 2057 2056 2166 2164 2059 2058 2167 2165
8 2164 2166 2168 2169 2165 2167 2170 2171
8 2158 2164 2169 2160 2159 2165 2171 2162
8 2056 2065 2172 2166 2058 2067 2173 2167
8 2065 2064 2174 2172 2067 2066 2175 2173
8 2172 2174 2176 2177 2173 2175 2178 2179
8 2166 2172 2177 2168 2167 2173 2179 2170
8 2064 2073 2180 2174 2066 2075 2181 2175
8 2073 2072 2182 2180 2075 2074 2183 2181
8 2180 2182 2184 2185 2181 2183 2186 2187
8 2174 2180 2185 2176 2175 2181 2187 2178
8 2072 2081 2188 2182 2074 2083 2189 2183
8 2081 2080 2190 2188 2083 2082 2191 2189
8 2188 2190 2192 2193 2189 2191 2194 2195
8 2182 2188 2193 2184 2183 2189 2195 2186
8 2080 2089 2196 2190 2082 2091 2197 2191
8 2089 2088 2198 2196 2091 2090 2199 2197
8 2196 2198 2200 2201 2197 2199 2202 2203
8 2190 2196 2201 2192 2191 2197 2203 2194
8 2088 2097 2204 2198 2090 2099 2205 2199
8 2097 2096 2206 2204 2099 2098 2207 2205
8 2204 2206 2208 2209 2205 2207 2210 2211
8 2198 2204 2209 2200 2199 2205 2211 2202
8 2096 2105 2212 2206 2098 2107 2213 2207
8 2105 2104 2214 2212 2107 2106 2215 2213
8 2212 2214 2216 2217 2213 2215 2218 2219
8 2206 2212 2217 2208 2207 2213 2219 2210
8 2104 2113 2220 2214 2106 2115 2221 2215
8 2113 2112 2222 2220 2115 2114 2223 2221
8 2220 2222 2224 2225 2221 2223 2226 2227
8 2214 2220 2225 2216 2215 2221 2227 2218
8 2112 2121 2228 2222 2114 2123 2229 2223
8 2121 2120 2230 2228 2123 2122 2231 2229
8 2228 2230 2232 2233 2229 2231 2234 2235
8 2222 2228 2233 2224 2223 2229 2235 2226
8 1500 2129 2236 1512 1504 2131 2237 1513
8 2129 2128 2238 2236 2131 2130 2239 2237
8 2236 2238 2240 2241 2237 2239 2242 2243
8 1512 2236 2241 1514 1513 2237 2243 1516
8 2128 2137 2244 2238 2130 2139 2245 2239
8 2137 2136 2246 2244 2139 2138 2247 2245
8 2244 2246 2248 2249 2245 2247 2250 2251
8 2238 2244 2249 2240 2239 2245 2251 2242
8 2136 2145 2252 2246 2138 2147 2253 2247
8 2145 2144 2254 2252 2147 2146 2255 2253
8 2252 2254 2256 2257 2253 2255 2258 2259
8 2246 2252 2257 2248 2247 2253 2259 2250
8 2144 2153 2260 2254 2146 2155 2261 2255
8 2153 2152 2262 2260 2155 2154 2263 2261
8 2260 2262 2264 2265 2261 2263 2266 2267
8 2254 2260 2265 2256 2255 2261 2267 2258
8 2152 2161 2268 2262 2154 2163 2269 2263
8 2161 2160 2270 2268 2163 2162 2271 2269
8 2268 2270 2272 2273 2269 2271 2274 2275
8 2262 2268 2273 2264 2263 2269 2275 2266
8 2160 2169 2276 2270 2162 2171 2277 2271
8 2169 2168 2278 2276 2171 2170 2279 2277
8 2276 2278 2280 2281 2277 2279 2282 2283
8 2270 2276 2281 2272 2271 2277 2283 2274
8 2168 2177 2284 2278 2170 2179 2285 2279
8 2177 2176 2286 2284 2179 2178 2287 2285
8 2284 2286 2288 2289 2285 2287 2290 2291
8 2278 2284 2289 2280 2279 2285 2291 2282
8 2176 2185 2292 2286 2178 2187 2293 2287
8 2185 2184 2294 2292 2187 2186 2295 2293
8 2292 2294 2296 2297 2293 2295 2298 2299
8 2286 2292 2297 2288 2287 2293 2299 2290
8 2184 2193 2300 2294 2186 2195 2301 2295
8 2193 2192 2302 2300 2195 2194 2303 2301
8 2300 2302 2304 2305 2301 2303 2306 2307
8 2294 2300 2305 2296 2295 2301 2307 2298
8 2192 2201 2308 2302 2194 2203 2309 2303
8 2201 2200 2310 2308 2203 2202 2311 2309
8 2308 2310 2312 2313 2309 2311 2314 2315
8 2302 2308 2313 2304 2303 2309 2315 2306
8 2200 2209 2316 2310 2202 2211 2317 2311
8 2209 2208 2318 2316 2211 2210 2319 2317
8 2316 2318 2320 2321 2317 2319 2322 2323
8 2310 2316 2321 2312 2311 2317 2323 2314
8 2208 2217 2324 2318 2210 2219 2325 2319
8 2217 2216 2326 2324 2219 2218 2327 2325
8 2324 2326 2328 2329 2325 2327 2330 2331
8 2318 2324 2329 2320 2319 2325 2331 2322
8 2216 2225 2332 2326 2218 2227 2333 2327
8 2225 2224 2334 2332 2227 2226 2335 2333
8 2332 2334 2336 2337 2333 2335 2338 2339
8 2326 2332 2337 2328 2327 2333 2339 2330
8 2224 2233 2340 2334 2226 2235 2341 2335
8 2233 2232 2342 2340 2235 2234 2343 2341
8 2340 2342 2344 2345 2341 2343 2346 2347
8 2334 2340 2345 2336 2335 2341 2347 2338
8 1302 1300 2348 2349 1304 1301 2350 2351
8 1300 1294 2352 2348 1301 1296 2353 2350
8 2348 2352 2354 2355 2350 2353 2356 2357
8 2349 2348 2355 2358 2351 2350 2357 2359
8 1294 1292 2360 2352 1296 1293 2361 2353
8 1292 1022 2362 2360 1293 1026 2363 2361
8 2360 2362 2364 2365 2361 2363 2366 2367
8 2352 2360 2365 2354 2353 2361 2367 2356
8 1022 1025 2368 2362 1026 1029 2369 2363
8 1025 1038 2370 2368 1029 1039 2371 2369
8 2368 2370 2372 2373 2369 2371 2374 2375
8 2362 2368 2373 2364 2363 2369 2375 2366
8 1038 1059 2376 2370 1039 1061 2377 2371
8 1059 1068 2378 2376 1061 1069 2379 2377
8 2376 2378 2380 2381 2377 2379 2382 2383
8 2370 2376 2381 2372 2371 2377 2383 2374
8 1068 1083 2384 2378 1069 1085 2385 2379
8 1083 1092 2386 2384 1085 1093 2387 2385
8 2384 2386 2388 2389 2385 2387 2390 2391
8 2378 2384 2389 2380 2379 2385 2391 2382
8 1092 1107 2392 2386 1093 1109 2393 2387
8 1107 1116 2394 2392 1109 1117 2395 2393
8 2392 2394 2396 2397 2393 2395 2398 2399
8 2386 2392 2397 2388 2387 2393 2399 2390
8 1116 1131 2400 2394 1117 1133 2401 2395
8 1131 1140 2402 2400 1133 1141 2403 2401
8 2400 2402 2404 2405 2401 2403 2406 2407
8 2394 2400 2405 2396 2395 2401 2407 2398
8 1140 1155 2408 2402 1141 1157 2409 2403
8 1155 1164 2410 2408 1157 1165 2411 2409
8 2408 2410 2412 2413 2409 2411 2414 2415
8 2402 2408 2413 2404 2403 2409 2415 2406
8 2358 2355 2416 2417 2359 2357 2418 2419
8 2355 2354 2420 2416 2357 2356 2421 2418
8 2416 2420 2422 2423 2418 2421 2424 2425
8 2417 2416 2423 2426 2419 2418 2425 2427
8 2354 2365 2428 2420 2356 2367 2429 2421
8 2365 2364 2430 2428 2367 2366 2431 2429
8 2428 2430 2432 2433 2429 2431 2434 2435
8 2420 2428 2433 2422 2421 2429 2435 2424
8 2364 2373 2436 2430 2366 2375 2437 2431
8 2373 2372 2438 2436 2375 2374 2439 2437
8 2436 2438 2440 2441 2437 2439 2442 2443
8 2430 2436 2441 2432 2431 2437 2443 2434
8 2372 2381 2444 2438 2374 2383 2445 2439
8 2381 2380 2446 2444 2383 2382 2447 2445
8 2444 2446 2448 2449 2445 2447 2450 2451
8 2438 2444 2449 2440 2439 2445 2451 2442
8 2380 2389 2452 2446 2382 2391 2453 2447
8 2389 2388 2454 2452 2391 2390 2455 2453
8 2452 2454 2456 2457 2453 2455 2458 2459
8 2446 2452 2457 2448 2447 2453 2459 2450
8 2388 2397 2460 2454 2390 2399 2461 2455
8 2397 2396 2462 2460 2399 2398 2463 2461
8 2460 2462 2464 2465 2461 2463 2466 2467
8 2454 2460 2465 2456 2455 2461 2467 2458
8 2396 2405 2468 2462 2398 2407 2469 2463
8 2405 2404 2470 2468 2407 2406 2471 2469
8 2468 2470 2472 2473 2469 2471 2474 2475
8 2462 2468 2473 2464 2463 2469 2475 2466
8 2404 2413 2476 2470 2406 2415 2477 2471
8 2413 2412 2478 2476 2415 2414 2479 2477
8 2476 2478 2480 2481 2477 2479 2482 2483
8 2470 2476 2481 2472 2471 2477 2483 2474
8 2426 2423 2484 2485 2427 2425 2486 2487
8 2423 2422 2488 2484 2425 2424 2489 2486
8 2484 2488 2490 2491 2486 2489 2492 2493
8 2485 2484 2491 2494 2487 2486 2493 2495
8 2422 2433 2496 2488 2424 2435 2497 2489
8 2433 2432 2498 2496 2435 2434 2499 2497
8 2496 2498 2500 2501 2497 2499 2502 2503
8 2488 2496 2501 2490 2489 2497 2503 2492
8 2432 2441 2504 2498 2434 2443 2505 2499
8 2441 2440 2506 2504 2443 2442 2507 2505
8 2504 2506 2508 2509 2505 2507 2510 2511
8 2498 2504 2509 2500 2499 2505 2511 2502
8 2440 2449 2512 2506 2442 2451 2513 2507
8 2449 2448 2514 2512 2451 2450 2515 2513
8 2512 2514 2516 2517 2513 2515 2518 2519
8 2506 2512 2517 2508 2507 2513 2519 2510
8 2448 2457 2520 2514 2450 2459 2521 2515
8 2457 2456 2522 2520 2459 2458 2523 2521
8 2520 2522 2524 2525 2521 2523 2526 2527
8 2514 2520 2525 2516 2515 2521 2527 2518
8 2456 2465 2528 2522 2458 2467 2529 2523
8 2465 2464 2530 2528 2467 2466 2531 2529
8 2528 2530 2532 2533 2529 2531 2534 2535
8 2522 2528 2533 2524 2523 2529 2535 2526
8 2464 2473 2536 2530 2466 2475 2537 2531
8 2473 2472 2538 2536 2475 2474 2539 2537
8 2536 2538 2540 2541 2537 2539 2542 2543
8 2530 2536 2541 2532 2531 2537 2543 2534
8 2472 2481 2544 2538 2474 2483 2545 2539
8 2481 2480 2546 2544 2483 2482 2547 2545
8 2544 2546 2548 2549 2545 2547 2550 2551
8 2538 2544 2549 2540 2539 2545 2551 2542
8 2494 2491 2552 2553 2495 2493 2554 2555
8 2491 2490 2556 2552 2493 2492 2557 2554
8 2552 2556 2558 2559 2554 2557 2560 2561
8 2553 2552 2559 2562 2555 2554 2561 2563
8 2490 2501 2564 2556 2492 2503 2565 2557
8 2501 2500 2566 2564 2503 2502 2567 2565
8 2564 2566 2568 2569 2565 2567 2570 2571
8 2556 2564 2569 2558 2557 2565 2571 2560
8 2500 2509 2572 2566 2502 2511 2573 2567
8 2509 2508 2574 2572 2511 2510 2575 2573
8 2572 2574 2576 2577 2573 2575 2578 2579
8 2566 2572 2577 2568 2567 2573 2579 2570
8 2508 2517 2580 2574 2510 2519 2581 2575
8 2517 2516 2582 2580 2519 2518 2583 2581
8 2580 2582 2584 2585 2581 2583 2586 2587
8 2574 2580 2585 2576 2575 2581 2587 2578
8 2516 2525 2588 2582 2518 2527 2589 2583
8 2525 2524 2590 2588 2527 2526 2591 2589
8 2588 2590 2592 2593 2589 2591 2594 2595
8 2582 2588 2593 2584 2583 2589 2595 2586
8 2524 2533 2596 2590 2526 2535 2597 2591
8 2533 2532 2598 2596 2535 2534 2599 2597
8 2596 2598 2600 2601 2597 2599 2602 2603
8 2590 2596 2601 2592 2591 2597 2603 2594
8 2532 2541 2604 2598 2534 2543 2605 2599
8 2541 2540 2606 2604 2543 2542 2607 2605
8 2604 2606 2608 2609 2605 2607 2610 2611
8 2598 2604 2609 2600 2599 2605 2611 2602
8 2540 2549 2612 2606 2542 2551 2613 2607
8 2549 2548 2614 2612 2551 2550 2615 2613
8 2612 2614 2616 2617 2613 2615 2618 2619
8 2606 2612 2617 2608 2607 2613 2619 2610
8 2562 2559 2620 2621 2563 2561 2622 2623
8 2559 2558 2624 2620 2561 2560 2625 2622
8 2620 2624 2626 2627 2622 2625 2628 2629
8 2621 2620 2627 2630 2623 2622 2629 2631
8 2558 2569 2632 2624 2560 2571 2633 2625
8 2569 2568 2634 2632 2571 2570 2635 2633
8 2632 2634 2636 2637 2633 2635 2638 2639
8 2624 2632 2637 2626 2625 2633 2639 2628
8 2568 2577 2640 2634 2570 2579 2641 2635
8 2577 2576 2642 2640 2579 2578 2643 2641
8 2640 2642 2644 2645 2641 2643 2646 2647
8 2634 2640 2645 2636 2635 2641 2647 2638
8 2576 2585 2648 2642 2578 2587 2649 2643
8 2585 2584 2650 2648 2587 2586 2651 2649
8 2648 2650 2652 2653 2649 2651 2654 2655
8 2642 2648 2653 2644 2643 2649 2655 2646
8 2584 2593 2656 2650 2586 2595 2657 2651
8 2593 2592 2658 2656 2595 2594 2659 2657
8 2656 2658 2660 2661 2657 2659 2662 2663
8 2650 2656 2661 2652 2651 2657 2663 2654
8 2592 2601 2664 2658 2594 2603 2665 2659
8 2601 2600 2666 2664 2603 2602 2667 2665
8 2664 2666 2668 2669 2665 2667 2670 2671
8 2658 2664 2669 2660 2659 2665 2671 2662
8 2600 2609 2672 2666 2602 2611 2673 2667
8 2609 2608 2674 2672 2611 2610 2675 2673
8 2672 2674 2676 2677 2673 2675 2678 2679
8 2666 2672 2677 2668 2667 2673 2679 2670
8 2608 2617 2680 2674 2610 2619 2681 2675
8 2617 2616 2682 2680 2619 2618 2683 2681
8 2680 2682 2684 2685 2681 2683 2686 2687
8 2674 2680 2685 2676 2675 2681 2687 2678
8 2630 2627 2688 2689 2631 2629 2690 2691
8 2627 2626 2692 2688 2629 2628 2693 2690
8 2688 2692 2694 2695 2690 2693 2696 2697
8 2689 2688 2695 2698 2691 2690 2697 2699
8 2626 2637 2700 2692 2628 2639 2701 2693
8 2637 2636 2702 2700 2639 2638 2703 2701
8 2700 2702 2704 2705 2701 2703 2706 2707
8 2692 2700 2705 2694 2693 2701 2707 2696
8 2636 2645 2708 2702 2638 2647 2709 2703
8 2645 2644 2710 2708 2647 2646 2711 2709
8 2708 2710 2712 2713 2709 2711 2714 2715
8 2702 2708 2713 2704 2703 2709 2715 2706
8 2644 2653 2716 2710 2646 2655 2717 2711
8 2653 2652 2718 2716 2655 2654 2719 2717
8 2716 2718 2720 2721 2717 2719 2722 2723
8 2710 2716 2721 2712 2711 2717 2723 2714
8 2652 2661 2724 2718 2654 2663 2725 2719
8 2661 2660 2726 2724 2663 2662 2727 2725
8 2724 2726 2728 2729 2725 2727 2730 2731
8 2718 2724 2729 2720 2719 2725 2731 2722
8 2660 2669 2732 2726 2662 2671 2733 2727
8 2669 2668 2734 2732 2671 2670 2735 2733
8 2732 2734 2736 2737 2733 2735 2738 2739
8 2726 2732 2737 2728 2727 2733 2739 2730
8 2668 2677 2740 2734 2670 2679 2741 2735
8 2677 2676 2742 2740 2679 2678 2743 2741
8 2740 2742 2744 2745 2741 2743 2746 2747
8 2734 2740 2745 2736 2735 2741 2747 2738
8 2676 2685 2748 2742 2678 2687 2749 2743
8 2685 2684 2750 2748 2687 2686 2751 2749
8 2748 2750 2752 2753 2749 2751 2754 2755
8 2742 2748 2753 2744 2743 2749 2755 2746
8 2756 2757 2758 2759 2760 2761 2762 2763
8 2757 2764 2765 2758 2761 2766 2767 2762
8 2758 2765 2768 2769 2762 2767 2770 2771
8 2759 2758 2769 2772 2763 2762 2771 2773
8 2772 2769 2774 2775 2773 2771 2776 2777
8 2769 2768 2778 2774 2771 2770 2779 2776
8 2774 2778 2780 2781 2776 2779 2782 2783
8 2775 2774 2781 2784 2777 2776 2783 2785
8 2784 2781 2786 2787 2785 2783 2788 2789
8 2781 2780 2790 2786 2783 2782 2791 2788
8 2786 2790 2792 2793 2788 2791 2794 2795
8 2787 2786 2793 2796 2789 2788 2795 2797
8 2796 2793 2798 2799 2797 2795 2800 2801
8 2793 2792 2802 2798 2795 2794 2803 2800
8 2798 2802 2804 2805 2800 2803 2806 2807
8 2799 2798 2805 2808 2801 2800 2807 2809
8 2808 2805 2810 2811 2809 2807 2812 2813
8 2805 2804 2814 2810 2807 2806 2815 2812
8 2810 2814 2816 2817 2812 2815 2818 2819
8 2811 2810 2817 2820 2813 2812 2819 2821
8 2820 2817 2822 2823 2821 2819 2824 2825
8 2817 2816 2826 2822 2819 2818 2827 2824
8 2822 2826 2828 2829 2824 2827 2830 2831
8 2823 2822 2829 2832 2825 2824 2831 2833
8 2832 2829 2834 2835 2833 2831 2836 2837
8 2829 2828 2838 2834 2831 2830 2839 2836
8 2834 2838 2840 2841 2836 2839 2842 2843
8 2835 2834 2841 2844 2837 2836 2843 2845
8 2764 2846 2847 2765 2766 2848 2849 2767
8 2846 2850 2851 2847 2848 2852 2853 2849
8 2847 2851 2854 2855 2849 2853 2856 2857
8 2765 2847 2855 2768 2767 2849 2857 2770
8 2850 2858 2859 2851 2852 2860 2861 2853
8 2858 1820 1816 2859 2860 1822 1818 2861
8 2859 1816 1808 2862 2861 1818 1810 2863
8 2851 2859 2862 2854 2853 2861 2863 2856
8 2768 2855 2864 2778 2770 2857 2865 2779
8 2855 2854 2866 2864 2857 2856 2867 2865
8 2864 2866 2868 2869 2865 2867 2870 2871
8 2778 2864 2869 2780 2779 2865 2871 2782
8 2854 2862 2872 2866 2856 2863 2873 2867
8 2862 1808 1804 2872 2863 1810 1806 2873
8 2872 1804 1796 2874 2873 1806 1798 2875
8 2866 2872 2874 2868 2867 2873 2875 2870
8 2780 2869 2876 2790 2782 2871 2877 2791
8 2869 2868 2878 2876 2871 2870 2879 2877
8 2876 2878 2880 2881 2877 2879 2882 2883
8 2790 2876 2881 2792 2791 2877 2883 2794
8 2868 2874 2884 2878 2870 2875 2885 2879
8 2874 1796 1792 2884 2875 1798 1794 2885
8 2884 1792 1784 2886 2885 1794 1786 2887
8 2878 2884 2886 2880 2879 2885 2887 2882
8 2792 2881 2888 2802 2794 2883 2889 2803
8 2881 2880 2890 2888 2883 2882 2891 2889
8 2888 2890 2892 2893 2889 2891 2894 2895
8 2802 2888 2893 2804 2803 2889 2895 2806
8 2880 2886 2896 2890 2882 2887 2897 2891
8 2886 1784 1780 2896 2887 1786 1782 2897
8 2896 1780 1772 2898 2897 1782 1774 2899
8 2890 2896 2898 2892 2891 2897 2899 2894
8 2804 2893 2900 2814 2806 2895 2901 2815
8 2893 2892 2902 2900 2895 2894 2903 2901
8 2900 2902 2904 2905 2901 2903 2906 2907
8 2814 2900 2905 2816 2815 2901 2907 2818
8 2892 2898 2908 2902 2894 2899 2909 2903
8 2898 1772 1768 2908 2899 1774 1770 2909
8 2908 1768 1760 2910 2909 1770 1762 2911
8 2902 2908 2910 2904 2903 2909 2911 2906
8 2816 2905 2912 2826 2818 2907 2913 2827
8 2905 2904 2914 2912 2907 2906 2915 2913
8 2912 2914 2916 2917 2913 2915 2918 2919
8 2826 2912 2917 2828 2827 2913 2919 2830
8 2904 2910 2920 2914 2906 2911 2921 2915
8 2910 1760 1756 2920 2911 1762 1758 2921
8 2920 1756 1748 2922 2921 1758 1750 2923
8 2914 2920 2922 2916 2915 2921 2923 2918
8 2828 2917 2924 2838 2830 2919 2925 2839
8 2917 2916 2926 2924 2919 2918 2927 2925
8 2924 2926 2928 2929 2925 2927 2930 2931
8 2838 2924 2929 2840 2839 2925 2931 2842
8 2916 2922 2932 2926 2918 2923 2933 2927
8 2922 1748 1744 2932 2923 1750 1746 2933
8 2932 1744 1736 2934 2933 1746 1738 2935
8 2926 2932 2934 2928 2927 2933 2935 2930
8 1736 1732 2936 2934 1738 1734 2937 2935
8 1732 1688 2938 2936 1734 1690 2939 2937
8 2936 2938 2940 2941 2937 2939 2942 2943
8 2934 2936 2941 2928 2935 2937 2943 2930
8 2928 2941 2944 2929 2930 2943 2945 2931
8 2941 2940 2946 2944 2943 2942 2947 2945
8 2944 2946 2844 2841 2945 2947 2845 2843
8 2929 2944 2841 2840 2931 2945 2843 2842
8 1820 2858 2948 1828 1822 2860 2949 1830
8 2858 2850 2950 2948 2860 2852 2951 2949
8 2948 2950 2952 2953 2949 2951 2954 2955
8 1828 2948 2953 1832 1830 2949 2955 1834
8 2850 2846 2956 2950 2852 2848 2957 2951
8 2846 2764 2958 2956 2848 2766 2959 2957
8 2956 2958 2960 2961 2957 2959 2962 2963
8 2950 2956 2961 2952 2951 2957 2963 2954
8 2764 2757 2964 2958 2766 2761 2965 2959
8 2757 2756 2966 2964 2761 2760 2967 2965
8 2964 2966 2968 2969 2965 2967 2970 2971
8 2958 2964 2969 2960 2959 2965 2971 2962
8 1832 2953 2972 1840 1834 2955 2973 1842
8 2953 2952 2974 2972 2955 2954 2975 2973
8 2972 2974 2976 2977 2973 2975 2978 2979
8 1840 2972 2977 1844 1842 2973 2979 1846
8 2952 2961 2980 2974 2954 2963 2981 2975
8 2961 2960 2982 2980 2963 2962 2983 2981
8 2980 2982 2984 2985 2981 2983 2986 2987
8 2974 2980 2985 2976 2975 2981 2987 2978
8 2960 2969 2988 2982 2962 2971 2989 2983
8 2969 2968 2990 2988 2971 2970 2991 2989
8 2988 2990 2992 2993 2989 2991 2994 2995
8 2982 2988 2993 2984 2983 2989 2995 2986
8 1844 2977 2996 1852 1846 2979 2997 1854
8 2977 2976 2998 2996 2979 2978 2999 2997
8 2996 2998 3000 3001 2997 2999 3002 3003
8 1852 2996 3001 1856 1854 2997 3003 1858
8 2976 2985 3004 2998 2978 2987 3005 2999
8 2985 2984 3006 3004 2987 2986 3007 3005
8 3004 3006 3008 3009 3005 3007 3010 3011
8 2998 3004 3009 3000 2999 3005 3011 3002
8 2984 2993 3012 3006 2986 2995 3013 3007
8 2993 2992 3014 3012 2995 2994 3015 3013
8 3012 3014 3016 3017 3013 3015 3018 3019
8 3006 3012 3017 3008 3007 3013 3019 3010
8 1856 3001 3020 1864 1858 3003 3021 1866
8 3001 3000 3022 3020 3003 3002 3023 3021
8 3020 3022 3024 3025 3021 3023 3026 3027
8 1864 3020 3025 1868 1866 3021 3027 1870
8 3000 3009 3028 3022 3002 3011 3029 3023
8 3009 3008 3030 3028 3011 3010 3031 3029
8 3028 3030 3032 3033 3029 3031 3034 3035
8 3022 3028 3033 3024 3023 3029 3035 3026
8 3008 3017 3036 3030 3010 3019 3037 3031
8 3017 3016 3038 3036 3019 3018 3039 3037
8 3036 3038 3040 3041 3037 3039 3042 3043
8 3030 3036 3041 3032 3031 3037 3043 3034
8 1868 3025 3044 1876 1870 3027 3045 1878
8 3025 3024 3046 3044 3027 3026 3047 3045
8 3044 3046 3048 3049 3045 3047 3050 3051
8 1876 3044 3049 1880 1878 3045 3051 1882
8 3024 3033 3052 3046 3026 3035 3053 3047
8 3033 3032 3054 3052 3035 3034 3055 3053
8 3052 3054 3056 3057 3053 3055 3058 3059
8 3046 3052 3057 3048 3047 3053 3059 3050
8 3032 3041 3060 3054 3034 3043 3061 3055
8 3041 3040 3062 3060 3043 3042 3063 3061
8 3060 3062 3064 3065 3061 3063 3066 3067
8 3054 3060 3065 3056 3055 3061 3067 3058
8 1880 3049 3068 1888 1882 3051 3069 1890
8 3049 3048 3070 3068 3051 3050 3071 3069
8 3068 3070 3072 3073 3069 3071 3074 3075
8 1888 3068 3073 1892 1890 3069 3075 1894
8 3048 3057 3076 3070 3050 3059 3077 3071
8 3057 3056 3078 3076 3059 3058 3079 3077
8 3076 3078 3080 3081 3077 3079 3082 3083
8 3070 3076 3081 3072 3071 3077 3083 3074
8 3056 3065 3084 3078 3058 3067 3085 3079
8 3065 3064 3086 3084 3067 3066 3087 3085
8 3084 3086 3088 3089 3085 3087 3090 3091
8 3078 3084 3089 3080 3079 3085 3091 3082
8 2784 3092 3093 2775 2785 3094 3095 2777
8 3092 3096 3097 3093 3094 3098 3099 3095
8 3093 3097 3100 3101 3095 3099 3102 3103
8 2775 3093 3101 2772 2777 3095 3103 2773
8 3096 3104 3105 3097 3098 3106 3107 3099
8 3104 3108 3109 3105 3106 3110 3111 3107
8 3105 3109 3112 3113 3107 3111 3114 3115
8 3097 3105 3113 3100 3099 3107 3115 3102
8 3108 3116 3117 3109 3110 3118 3119 3111
8 3116 3120 3121 3117 3118 3122 3123 3119
8 3117 3121 3124 3125 3119 3123 3126 3127
8 3109 3117 3125 3112 3111 3119 3127 3114
8 3120 3128 3129 3121 3122 3130 3131 3123
8 3128 3132 3133 3129 3130 3134 3135 3131
8 3129 3133 3136 3137 3131 3135 3138 3139
8 3121 3129 3137 3124 3123 3131 3139 3126
8 3132 3140 3141 3133 3134 3142 3143 3135
8 3140 3144 3145 3141 3142 3146 3147 3143
8 3141 3145 3148 3149 3143 3147 3150 3151
8 3133 3141 3149 3136 3135 3143 3151 3138
8 3144 3152 3153 3145 3146 3154 3155 3147
8 3152 2698 2695 3153 3154 2699 2697 3155
8 3153 2695 2694 3156 3155 2697 2696 3157
8 3145 3153 3156 3148 3147 3155 3157 3150
8 2772 3101 3158 2759 2773 3103 3159 2763
8 3101 3100 3160 3158 3103 3102 3161 3159
8 3158 3160 3162 3163 3159 3161 3164 3165
8 2759 3158 3163 2756 2763 3159 3165 2760
8 3100 3113 3166 3160 3102 3115 3167 3161
8 3113 3112 3168 3166 3115 3114 3169 3167
8 3166 3168 3170 3171 3167 3169 3172 3173
8 3160 3166 3171 3162 3161 3167 3173 3164
8 3112 3125 3174 3168 3114 3127 3175 3169
8 3125 3124 3176 3174 3127 3126 3177 3175
8 3174 3176 3178 3179 3175 3177 3180 3181
8 3168 3174 3179 3170 3169 3175 3181 3172
8 3124 3137 3182 3176 3126 3139 3183 3177
8 3137 3136 3184 3182 3139 3138 3185 3183
8 3182 3184 3186 3187 3183 3185 3188 3189
8 3176 3182 3187 3178 3177 3183 3189 3180
8 3136 3149 3190 3184 3138 3151 3191 3185
8 3149 3148 3192 3190 3151 3150 3193 3191
8 3190 3192 3194 3195 3191 3193 3196 3197
8 3184 3190 3195 3186 3185 3191 3197 3188
8 3148 3156 3198 3192 3150 3157 3199 3193
8 3156 2694 2705 3198 3157 2696 2707 3199
8 3198 2705 2704 3200 3199 2707 2706 3201
8 3192 3198 3200 3194 3193 3199 3201 3196
8 2756 3163 3202 2966 2760 3165 3203 2967
8 3163 3162 3204 3202 3165 3164 3205 3203
8 3202 3204 3206 3207 3203 3205 3208 3209
8 2966 3202 3207 2968 2967 3203 3209 2970
8 3162 3171 3210 3204 3164 3173 3211 3205
8 3171 3170 3212 3210 3173 3172 3213 3211
8 3210 3212 3214 3215 3211 3213 3216 3217
8 3204 3210 3215 3206 3205 3211 3217 3208
8 3170 3179 3218 3212 3172 3181 3219 3213
8 3179 3178 3220 3218 3181 3180 3221 3219
8 3218 3220 3222 3223 3219 3221 3224 3225
8 3212 3218 3223 3214 3213 3219 3225 3216
8 3178 3187 3226 3220 3180 3189 3227 3221
8 3187 3186 3228 3226 3189 3188 3229 3227
8 3226 3228 3230 3231 3227 3229 3232 3233
8 3220 3226 3231 3222 3221 3227 3233 3224
8 3186 3195 3234 3228 3188 3197 3235 3229
8 3195 3194 3236 3234 3197 3196 3237 3235
8 3234 3236 3238 3239 3235 3237 3240 3241
8 3228 3234 3239 3230 3229 3235 3241 3232
8 3194 3200 3242 3236 3196 3201 3243 3237
8 3200 2704 2713 3242 3201 2706 2715 3243
8 3242 2713 2712 3244 3243 2715 2714 3245
8 3236 3242 3244 3238 3237 3243 3245 3240
8 2968 3207 3246 2990 2970 3209 3247 2991
8 3207 3206 3248 3246 3209 3208 3249 3247
8 3246 3248 3250 3251 3247 3249 3252 3253
8 2990 3246 3251 2992 2991 3247 3253 2994
8 3206 3215 3254 3248 3208 3217 3255 3249
8 3215 3214 3256 3254 3217 3216 3257 3255
8 3254 3256 3258 3259 3255 3257 3260 3261
8 3248 3254 3259 3250 3249 3255 3261 3252
8 3214 3223 3262 3256 3216 3225 3263 3257
8 3223 3222 3264 3262 3225 3224 3265 3263
8 3262 3264 3266 3267 3263 3265 3268 3269
8 3256 3262 3267 3258 3257 3263 3269 3260
8 3222 3231 3270 3264 3224 3233 3271 3265
8 3231 3230 3272 3270 3233 3232 3273 3271
8 3270 3272 3274 3275 3271 3273 3276 3277
8 3264 3270 3275 3266 3265 3271 3277 3268
8 3230 3239 3278 3272 3232 3241 3279 3273
8 3239 3238 3280 3278 3241 3240 3281 3279
8 3278 3280 3282 3283 3279 3281 3284 3285
8 3272 3278 3283 3274 3273 3279 3285 3276
8 3238 3244 3286 3280 3240 3245 3287 3281
8 3244 2712 2721 3286 3245 2714 2723 3287
8 3286 2721 2720 3288 3287 2723 2722 3289
8 3280 3286 3288 3282 3281 3287 3289 3284
8 2992 3251 3290 3014 2994 3253 3291 3015
8 3251 3250 3292 3290 3253 3252 3293 3291
8 3290 3292 3294 3295 3291 3293 3296 3297
8 3014 3290 3295 3016 3015 3291 3297 3018
8 3250 3259 3298 3292 3252 3261 3299 3293
8 3259 3258 3300 3298 3261 3260 3301 3299
8 3298 3300 3302 3303 3299 3301 3304 3305
8 3292 3298 3303 3294 3293 3299 3305 3296
8 3258 3267 3306 3300 3260 3269 3307 3301
8 3267 3266 3308 3306 3269 3268 3309 3307
8 3306 3308 3310 3311 3307 3309 3312 3313
8 3300 3306 3311 3302 3301 3307 3313 3304
8 3266 3275 3314 3308 3268 3277 3315 3309
8 3275 3274 3316 3314 3277 3276 3317 3315
8 3314 3316 3318 3319 3315 3317 3320 3321
8 3308 3314 3319 3310 3309 3315 3321 3312
8 3274 3283 3322 3316 3276 3285 3323 3317
8 3283 3282 3324 3322 3285 3284 3325 3323
8 3322 3324 3326 3327 3323 3325 3328 3329
8 3316 3322 3327 3318 3317 3323 3329 3320
8 3282 3288 3330 3324 3284 3289 3331 3325
8 3288 2720 2729 3330 3289 2722 2731 3331
8 3330 2729 2728 3332 3331 2731 2730 3333
8 3324 3330 3332 3326 3325 3331 3333 3328
8 3016 3295 3334 3038 3018 3297 3335 3039
8 3295 3294 3336 3334 3297 3296 3337 3335
8 3334 3336 3338 3339 3335 3337 3340 3341
8 3038 3334 3339 3040 3039 3335 3341 3042
8 3294 3303 3342 3336 3296 3305 3343 3337
8 3303 3302 3344 3342 3305 3304 3345 3343
8 3342 3344 3346 3347 3343 3345 3348 3349
8 3336 3342 3347 3338 3337 3343 3349 3340
8 3302 3311 3350 3344 3304 3313 3351 3345
8 3311 3310 3352 3350 3313 3312 3353 3351
8 3350 3352 3354 3355 3351 3353 3356 3357
8 3344 3350 3355 3346 3345 3351 3357 3348
8 3310 3319 3358 3352 3312 3321 3359 3353
8 3319 3318 3360 3358 3321 3320 3361 3359
8 3358 3360 3362 3363 3359 3361 3364 3365
8 3352 3358 3363 3354 3353 3359 3365 3356
8 3318 3327 3366 3360 3320 3329 3367 3361
8 3327 3326 3368 3366 3329 3328 3369 3367
8 3366 3368 3370 3371 3367 3369 3372 3373
8 3360 3366 3371 3362 3361 3367 3373 3364
8 3326 3332 3374 3368 3328 3333 3375 3369
8 3332 2728 2737 3374 3333 2730 2739 3375
8 3374 2737 2736 3376 3375 2739 2738 3377
8 3368 3374 3376 3370 3369 3375 3377 3372
8 3040 3339 3378 3062 3042 3341 3379 3063
8 3339 3338 3380 3378 3341 3340 3381 3379
8 3378 3380 3382 3383 3379 3381 3384 3385
8 3062 3378 3383 3064 3063 3379 3385 3066
8 3338 3347 3386 3380 3340 3349 3387 3381
8 3347 3346 3388 3386 3349 3348 3389 3387
8 3386 3388 3390 3391 3387 3389 3392 3393
8 3380 3386 3391 3382 3381 3387 3393 3384
8 3346 3355 3394 3388 3348 3357 3395 3389
8 3355 3354 3396 3394 3357 3356 3397 3395
8 3394 3396 3398 3399 3395 3397 3400 3401
8 3388 3394 3399 3390 3389 3395 3401 3392
8 3354 3363 3402 3396 3356 3365 3403 3397
8 3363 3362 3404 3402 3365 3364 3405 3403
8 3402 3404 3406 3407 3403 3405 3408 3409
8 3396 3402 3407 3398 3397 3403 3409 3400
8 3362 3371 3410 3404 3364 3373 3411 3405
8 3371 3370 3412 3410 3373 3372 3413 3411
8 3410 3412 3414 3415 3411 3413 3416 3417
8 3404 3410 3415 3406 3405 3411 3417 3408
8 3370 3376 3418 3412 3372 3377 3419 3413
8 3376 2736 2745 3418 3377 2738 2747 3419
8 3418 2745 2744 3420 3419 2747 2746 3421
8 3412 3418 3420 3414 3413 3419 3421 3416
8 3064 3383 3422 3086 3066 3385 3423 3087
8 3383 3382 3424 3422 3385 3384 3425 3423
8 3422 3424 3426 3427 3423 3425 3428 3429
8 3086 3422 3427 3088 3087 3423 3429 3090
8 3382 3391 3430 3424 3384 3393 3431 3425
8 3391 3390 3432 3430 3393 3392 3433 3431
8 3430 3432 3434 3435 3431 3433 3436 3437
8 3424 3430 3435 3426 3425 3431 3437 3428
8 3390 3399 3438 3432 3392 3401 3439 3433
8 3399 3398 3440 3438 3401 3400 3441 3439
8 3438 3440 3442 3443 3439 3441 3444 3445
8 3432 3438 3443 3434 3433 3439 3445 3436
8 3398 3407 3446 3440 3400 3409 3447 3441
8 3407 3406 3448 3446 3409 3408 3449 3447
8 3446 3448 3450 3451 3447 3449 3452 3453
8 3440 3446 3451 3442 3441 3447 3453 3444
8 3406 3415 3454 3448 3408 3417 3455 3449
8 3415 3414 3456 3454 3417 3416 3457 3455
8 3454 3456 3458 3459 3455 3457 3460 3461
8 3448 3454 3459 3450 3449 3455 3461 3452
8 3414 3420 3462 3456 3416 3421 3463 3457
8 3420 2744 2753 3462 3421 2746 2755 3463
8 3462 2753 2752 3464 3463 2755 2754 3465
8 3456 3462 3464 3458 3457 3463 3465 3460
8 1302 2349 3466 1308 1304 2351 3467 1309
8 2349 2358 3468 3466 2351 2359 3469 3467
8 3466 3468 3470 3471 3467 3469 3472 3473
8 1308 3466 3471 1310 1309 3467 3473 1312
8 2358 2417 3474 3468 2359 2419 3475 3469
8 2417 2426 3476 3474 2419 2427 3477 3475
8 3474 3476 3478 3479 3475 3477 3480 3481
8 3468 3474 3479 3470 3469 3475 3481 3472
8 2426 2485 3482 3476 2427 2487 3483 3477
8 2485 2494 3484 3482 2487 2495 3485 3483
8 3482 3484 3486 3487 3483 3485 3488 3489
8 3476 3482 3487 3478 3477 3483 3489 3480
8 2494 2553 3490 3484 2495 2555 3491 3485
8 2553 2562 3492 3490 2555 2563 3493 3491
8 3490 3492 3494 3495 3491 3493 3496 3497
8 3484 3490 3495 3486 3485 3491 3497 3488
8 2562 2621 3498 3492 2563 2623 3499 3493
8 2621 2630 3500 3498 2623 2631 3501 3499
8 3498 3500 3502 3503 3499 3501 3504 3505
8 3492 3498 3503 3494 3493 3499 3505 3496
8 2630 2689 3506 3500 2631 2691 3507 3501
8 2689 2698 3508 3506 2691 2699 3509 3507
8 3506 3508 3510 3511 3507 3509 3512 3513
8 3500 3506 3511 3502 3501 3507 3513 3504
8 1310 3471 3514 1316 1312 3473 3515 1317
8 3471 3470 3516 3514 3473 3472 3517 3515
8 3514 3516 3518 3519 3515 3517 3520 3521
8 1316 3514 3519 1318 1317 3515 3521 1320
8 3470 3479 3522 3516 3472 3481 3523 3517
8 3479 3478 3524 3522 3481 3480 3525 3523
8 3522 3524 3526 3527 3523 3525 3528 3529
8 3516 3522 3527 3518 3517 3523 3529 3520
8 3478 3487 3530 3524 3480 3489 3531 3525
8 3487 3486 3532 3530 3489 3488 3533 3531
8 3530 3532 3534 3535 3531 3533 3536 3537
8 3524 3530 3535 3526 3525 3531 3537 3528
8 3486 3495 3538 3532 3488 3497 3539 3533
8 3495 3494 3540 3538 3497 3496 3541 3539
8 3538 3540 3542 3543 3539 3541 3544 3545
8 3532 3538 3543 3534 3533 3539 3545 3536
8 3494 3503 3546 3540 3496 3505 3547 3541
8 3503 3502 3548 3546 3505 3504 3549 3547
8 3546 3548 3550 3551 3547 3549 3552 3553
8 3540 3546 3551 3542 3541 3547 3553 3544
8 3502 3511 3554 3548 3504 3513 3555 3549
8 3511 3510 3556 3554 3513 3512 3557 3555
8 3554 3556 3558 3559 3555 3557 3560 3561
8 3548 3554 3559 3550 3549 3555 3561 3552
8 1318 3519 3562 1324 1320 3521 3563 1325
8 3519 3518 3564 3562 3521 3520 3565 3563
8 3562 3564 3566 3567 3563 3565 3568 3569
8 1324 3562 3567 1326 1325 3563 3569 1328
8 3518 3527 3570 3564 3520 3529 3571 3565
8 3527 3526 3572 3570 3529 3528 3573 3571
8 3570 3572 3574 3575 3571 3573 3576 3577
8 3564 3570 3575 3566 3565 3571 3577 3568
8 3526 3535 3578 3572 3528 3537 3579 3573
8 3535 3534 3580 3578 3537 3536 3581 3579
8 3578 3580 3582 3583 3579 3581 3584 3585
8 3572 3578 3583 3574 3573 3579 3585 3576
8 3534 3543 3586 3580 3536 3545 3587 3581
8 3543 3542 3588 3586 3545 3544 3589 3587
8 3586 3588 3590 3591 3587 3589 3592 3593
8 3580 3586 3591 3582 3581 3587 3593 3584
8 3542 3551 3594 3588 3544 3553 3595 3589
8 3551 3550 3596 3594 3553 3552 3597 3595
8 3594 3596 3598 3599 3595 3597 3600 3601
8 3588 3594 3599 3590 3589 3595 3601 3592
8 3550 3559 3602 3596 3552 3561 3603 3597
8 3559 3558 3604 3602 3561 3560 3605 3603
8 3602 3604 3606 3607 3603 3605 3608 3609
8 3596 3602 3607 3598 3597 3603 3609 3600
8 1326 3567 3610 1332 1328 3569 3611 1333
8 3567 3566 3612 3610 3569 3568 3613 3611
8 3610 3612 3614 3615 3611 3613 3616 3617
8 1332 3610 3615 1334 1333 3611 3617 1336
8 3566 3575 3618 3612 3568 3577 3619 3613
8 3575 3574 3620 3618 3577 3576 3621 3619
8 3618 3620 3622 3623 3619 3621 3624 3625
8 3612 3618 3623 3614 3613 3619 3625 3616
8 3574 3583 3626 3620 3576 3585 3627 3621
8 3583 3582 3628 3626 3585 3584 3629 3627
8 3626 3628 3630 3631 3627 3629 3632 3633
8 3620 3626 3631 3622 3621 3627 3633 3624
8 3582 3591 3634 3628 3584 3593 3635 3629
8 3591 3590 3636 3634 3593 3592 3637 3635
8 3634 3636 3638 3639 3635 3637 3640 3641
8 3628 3634 3639 3630 3629 3635 3641 3632
8 3590 3599 3642 3636 3592 3601 3643 3637
8 3599 3598 3644 3642 3601 3600 3645 3643
8 3642 3644 3646 3647 3643 3645 3648 3649
8 3636 3642 3647 3638 3637 3643 3649 3640
8 3598 3607 3650 3644 3600 3609 3651 3645
8 3607 3606 3652 3650 3609 3608 3653 3651
8 3650 3652 3654 3655 3651 3653 3656 3657
8 3644 3650 3655 3646 3645 3651 3657 3648
8 1334 3615 3658 1340 1336 3617 3659 1341
8 3615 3614 3660 3658 3617 3616 3661 3659
8 3658 3660 3662 3663 3659 3661 3664 3665
8 1340 3658 3663 1342 1341 3659 3665 1344
8 3614 3623 3666 3660 3616 3625 3667 3661
8 3623 3622 3668 3666 3625 3624 3669 3667
8 3666 3668 3670 3671 3667 3669 3672 3673
8 3660 3666 3671 3662 3661 3667 3673 3664
8 3622 3631 3674 3668 3624 3633 3675 3669
8 3631 3630 3676 3674 3633 3632 3677 3675
8 3674 3676 3678 3679 3675 3677 3680 3681
8 3668 3674 3679 3670 3669 3675 3681 3672
8 3630 3639 3682 3676 3632 3641 3683 3677
8 3639 3638 3684 3682 3641 3640 3685 3683
8 3682 3684 3686 3687 3683 3685 3688 3689
8 3676 3682 3687 3678 3677 3683 3689 3680
8 3638 3647 3690 3684 3640 3649 3691 3685
8 3647 3646 3692 3690 3649 3648 3693 3691
8 3690 3692 3694 3695 3691 3693 3696 3697
8 3684 3690 3695 3686 3685 3691 3697 3688
8 3646 3655 3698 3692 3648 3657 3699 3693
8 3655 3654 3700 3698 3657 3656 3701 3699
8 3698 3700 3702 3703 3699 3701 3704 3705
8 3692 3698 3703 3694 3693 3699 3705 3696
8 1342 3663 3706 1346 1344 3665 3707 1348
8 3663 3662 3708 3706 3665 3664 3709 3707
8 3706 3708 3710 3711 3707 3709 3712 3713
8 1346 3706 3711 1350 1348 3707 3713 1352
8 3662 3671 3714 3708 3664 3673 3715 3709
8 3671 3670 3716 3714 3673 3672 3717 3715
8 3714 3716 3718 3719 3715 3717 3720 3721
8 3708 3714 3719 3710 3709 3715 3721 3712
8 3670 3679 3722 3716 3672 3681 3723 3717
8 3679 3678 3724 3722 3681 3680 3725 3723
8 3722 3724 3726 3727 3723 3725 3728 3729
8 3716 3722 3727 3718 3717 3723 3729 3720
8 3678 3687 3730 3724 3680 3689 3731 3725
8 3687 3686 3732 3730 3689 3688 3733 3731
8 3730 3732 3734 3735 3731 3733 3736 3737
8 3724 3730 3735 3726 3725 3731 3737 3728
8 3686 3695 3738 3732 3688 3697 3739 3733
8 3695 3694 3740 3738 3697 3696 3741 3739
8 3738 3740 3742 3743 3739 3741 3744 3745
8 3732 3738 3743 3734 3733 3739 3745 3736
8 3694 3703 3746 3740 3696 3705 3747 3741
8 3703 3702 3748 3746 3705 3704 3749 3747
8 3746 3748 3750 3751 3747 3749 3752 3753
8 3740 3746 3751 3742 3741 3747 3753 3744
8 1350 3711 3754 1354 1352 3713 3755 1356
8 3711 3710 3756 3754 3713 3712 3757 3755
8 3754 3756 3758 3759 3755 3757 3760 3761
8 1354 3754 3759 286 1356 3755 3761 287
8 3710 3719 3762 3756 3712 3721 3763 3757
8 3719 3718 3764 3762 3721 3720 3765 3763
8 3762 3764 3766 3767 3763 3765 3768 3769
8 3756 3762 3767 3758 3757 3763 3769 3760
8 3718 3727 3770 3764 3720 3729 3771 3765
8 3727 3726 3772 3770 3729 3728 3773 3771
8 3770 3772 3774 3775 3771 3773 3776 3777
8 3764 3770 3775 3766 3765 3771 3777 3768
8 3726 3735 3778 3772 3728 3737 3779 3773
8 3735 3734 3780 3778 3737 3736 3781 3779
8 3778 3780 3782 3783 3779 3781 3784 3785
8 3772 3778 3783 3774 3773 3779 3785 3776
8 3734 3743 3786 3780 3736 3745 3787 3781
8 3743 3742 3788 3786 3745 3744 3789 3787
8 3786 3788 3790 3791 3787 3789 3792 3793
8 3780 3786 3791 3782 3781 3787 3793 3784
8 3742 3751 3794 3788 3744 3753 3795 3789
8 3751 3750 3796 3794 3753 3752 3797 3795
8 3794 3796 3798 3799 3795 3797 3800 3801
8 3788 3794 3799 3790 3789 3795 3801 3792
8 286 3759 3802 279 287 3761 3803 283
8 3759 3758 3804 3802 3761 3760 3805 3803
8 3802 3804 3806 3807 3803 3805 3808 3809
8 279 3802 3807 276 283 3803 3809 280
8 3758 3767 3810 3804 3760 3769 3811 3805
8 3767 3766 3812 3810 3769 3768 3813 3811
8 3810 3812 3814 3815 3811 3813 3816 3817
8 3804 3810 3815 3806 3805 3811 3817 3808
8 3766 3775 3818 3812 3768 3777 3819 3813
8 3775 3774 3820 3818 3777 3776 3821 3819
8 3818 3820 3822 3823 3819 3821 3824 3825
8 3812 3818 3823 3814 3813 3819 3825 3816
8 3774 3783 3826 3820 3776 3785 3827 3821
8 3783 3782 3828 3826 3785 3784 3829 3827
8 3826 3828 3830 3831 3827 3829 3832 3833
8 3820 3826 3831 3822 3821 3827 3833 3824
8 3782 3791 3834 3828 3784 3793 3835 3829
8 3791 3790 3836 3834 3793 3792 3837 3835
8 3834 3836 3838 3839 3835 3837 3840 3841
8 3828 3834 3839 3830 3829 3835 3841 3832
8 3790 3799 3842 3836 3792 3801 3843 3837
8 3799 3798 3844 3842 3801 3800 3845 3843
8 3842 3844 3846 3847 3843 3845 3848 3849
8 3836 3842 3847 3838 3837 3843 3849 3840
8 276 3807 3850 308 280 3809 3851 310
8 3807 3806 3852 3850 3809 3808 3853 3851
8 3850 3852 3854 3855 3851 3853 3856 3857
8 308 3850 3855 288 310 3851 3857 292
8 3806 3815 3858 3852 3808 3817 3859 3853
8 3815 3814 3860 3858 3817 3816 3861 3859
8 3858 3860 3862 3863 3859 3861 3864 3865
8 3852 3858 3863 3854 3853 3859 3865 3856
8 3814 3823 3866 3860 3816 3825 3867 3861
8 3823 3822 3868 3866 3825 3824 3869 3867
8 3866 3868 3870 3871 3867 3869 3872 3873
8 3860 3866 3871 3862 3861 3867 3873 3864
8 3822 3831 3874 3868 3824 3833 3875 3869
8 3831 3830 3876 3874 3833 3832 3877 3875
8 3874 3876 3878 3879 3875 3877 3880 3881
8 3868 3874 3879 3870 3869 3875 3881 3872
8 3830 3839 3882 3876 3832 3841 3883 3877
8 3839 3838 3884 3882 3841 3840 3885 3883
8 3882 3884 3886 3887 3883 3885 3888 3889
8 3876 3882 3887 3878 3877 3883 3889 3880
8 3838 3847 3890 3884 3840 3849 3891 3885
8 3847 3846 3892 3890 3849 3848 3893 3891
8 3890 3892 3894 3895 3891 3893 3896 3897
8 3884 3890 3895 3886 3885 3891 3897 3888
8 288 3855 3898 289 292 3857 3899 293
8 3855 3854 3900 3898 3857 3856 3901 3899
8 3898 3900 3902 3903 3899 3901 3904 3905
8 289 3898 3903 82 293 3899 3905 86
8 3854 3863 3906 3900 3856 3865 3907 3901
8 3863 3862 3908 3906 3865 3864 3909 3907
8 3906 3908 3910 3911 3907 3909 3912 3913
8 3900 3906 3911 3902 3901 3907 3913 3904
8 3862 3871 3914 3908 3864 3873 3915 3909
8 3871 3870 3916 3914 3873 3872 3917 3915
8 3914 3916 3918 3919 3915 3917 3920 3921
8 3908 3914 3919 3910 3909 3915 3921 3912
8 3870 3879 3922 3916 3872 3881 3923 3917
8 3879 3878 3924 3922 3881 3880 3925 3923
8 3922 3924 3926 3927 3923 3925 3928 3929
8 3916 3922 3927 3918 3917 3923 3929 3920
8 3878 3887 3930 3924 3880 3889 3931 3925
8 3887 3886 3932 3930 3889 3888 3933 3931
8 3930 3932 3934 3935 3931 3933 3936 3937
8 3924 3930 3935 3926 3925 3931 3937 3928
8 3886 3895 3938 3932 3888 3897 3939 3933
8 3895 3894 3940 3938 3897 3896 3941 3939
8 3938 3940 3942 3943 3939 3941 3944 3945
8 3932 3938 3943 3934 3933 3939 3945 3936
8 82 3903 3946 83 86 3905 3947 87
8 3903 3902 3948 3946 3905 3904 3949 3947
8 3946 3948 3950 3951 3947 3949 3952 3953
8 83 3946 3951 52 87 3947 3953 56
8 3902 3911 3954 3948 3904 3913 3955 3949
8 3911 3910 3956 3954 3913 3912 3957 3955
8 3954 3956 3958 3959 3955 3957 3960 3961
8 3948 3954 3959 3950 3949 3955 3961 3952
8 3910 3919 3962 3956 3912 3921 3963 3957
8 3919 3918 3964 3962 3921 3920 3965 3963
8 3962 3964 3966 3967 3963 3965 3968 3969
8 3956 3962 3967 3958 3957 3963 3969 3960
8 3918 3927 3970 3964 3920 3929 3971 3965
8 3927 3926 3972 3970 3929 3928 3973 3971
8 3970 3972 3974 3975 3971 3973 3976 3977
8 3964 3970 3975 3966 3965 3971 3977 3968
8 3926 3935 3978 3972 3928 3937 3979 3973
8 3935 3934 3980 3978 3937 3936 3981 3979
8 3978 3980 3982 3983 3979 3981 3984 3985
8 3972 3978 3983 3974 3973 3979 3985 3976
8 3934 3943 3986 3980 3936 3945 3987 3981
8 3943 3942 3988 3986 3945 3944 3989 3987
8 3986 3988 3990 3991 3987 3989 3992 3993
8 3980 3986 3991 3982 3981 3987 3993 3984
8 52 3951 3994 53 56 3953 3995 57
8 3951 3950 3996 3994 3953 3952 3997 3995
8 3994 3996 3998 3999 3995 3997 4000 4001
8 53 3994 3999 60 57 3995 4001 62
8 3950 3959 4002 3996 3952 3961 4003 3997
8 3959 3958 4004 4002 3961 3960 4005 4003
8 4002 4004 4006 4007 4003 4005 4008 4009
8 3996 4002 4007 3998 3997 4003 4009 4000
8 3958 3967 4010 4004 3960 3969 4011 4005
8 3967 3966 4012 4010 3969 3968 4013 4011
8 4010 4012 4014 4015 4011 4013 4016 4017
8 4004 4010 4015 4006 4005 4011 4017 4008
8 3966 3975 4018 4012 3968 3977 4019 4013
8 3975 3974 4020 4018 3977 3976 4021 4019
8 4018 4020 4022 4023 4019 4021 4024 4025
8 4012 4018 4023 4014 4013 4019 4025 4016
8 3974 3983 4026 4020 3976 3985 4027 4021
8 3983 3982 4028 4026 3985 3984 4029 4027
8 4026 4028 4030 4031 4027 4029 4032 4033
8 4020 4026 4031 4022 4021 4027 4033 4024
8 3982 3991 4034 4028 3984 3993 4035 4029
8 3991 3990 4036 4034 3993 3992 4037 4035
8 4034 4036 4038 4039 4035 4037 4040 4041
8 4028 4034 4039 4030 4029 4035 4041 4032
8 60 3999 4042 78 62 4001 4043 79
8 3999 3998 4044 4042 4001 4000 4045 4043
8 4042 4044 4046 4047 4043 4045 4048 4049
8 78 4042 4047 80 79 4043 4049 81
8 3998 4007 4050 4044 4000 4009 4051 4045
8 4007 4006 4052 4050 4009 4008 4053 4051
8 4050 4052 4054 4055 4051 4053 4056 4057
8 4044 4050 4055 4046 4045 4051 4057 4048
8 4006 4015 4058 4052 4008 4017 4059 4053
8 4015 4014 4060 4058 4017 4016 4061 4059
8 4058 4060 4062 4063 4059 4061 4064 4065
8 4052 4058 4063 4054 4053 4059 4065 4056
8 4014 4023 4066 4060 4016 4025 4067 4061
8 4023 4022 4068 4066 4025 4024 4069 4067
8 4066 4068 4070 4071 4067 4069 4072 4073
8 4060 4066 4071 4062 4061 4067 4073 4064
8 4022 4031 4074 4068 4024 4033 4075 4069
8 4031 4030 4076 4074 4033 4032 4077 4075
8 4074 4076 4078 4079 4075 4077 4080 4081
8 4068 4074 4079 4070 4069 4075 4081 4072
8 4030 4039 4082 4076 4032 4041 4083 4077
8 4039 4038 4084 4082 4041 4040 4085 4083
8 4082 4084 4086 4087 4083 4085 4088 4089
8 4076 4082 4087 4078 4077 4083 4089 4080
8 80 4047 4090 366 81 4049 4091 368
8 4047 4046 4092 4090 4049 4048 4093 4091
8 4090 4092 4094 4095 4091 4093 4096 4097
8 366 4090 4095 344 368 4091 4097 348
8 4046 4055 4098 4092 4048 4057 4099 4093
8 4055 4054 4100 4098 4057 4056 4101 4099
8 4098 4100 4102 4103 4099 4101 4104 4105
8 4092 4098 4103 4094 4093 4099 4105 4096
8 4054 4063 4106 4100 4056 4065 4107 4101
8 4063 4062 4108 4106 4065 4064 4109 4107
8 4106 4108 4110 4111 4107 4109 4112 4113
8 4100 4106 4111 4102 4101 4107 4113 4104
8 4062 4071 4114 4108 4064 4073 4115 4109
8 4071 4070 4116 4114 4073 4072 4117 4115
8 4114 4116 4118 4119 4115 4117 4120 4121
8 4108 4114 4119 4110 4109 4115 4121 4112
8 4070 4079 4122 4116 4072 4081 4123 4117
8 4079 4078 4124 4122 4081 4080 4125 4123
8 4122 4124 4126 4127 4123 4125 4128 4129
8 4116 4122 4127 4118 4117 4123 4129 4120
8 4078 4087 4130 4124 4080 4089 4131 4125
8 4087 4086 4132 4130 4089 4088 4133 4131
8 4130 4132 4134 4135 4131 4133 4136 4137
8 4124 4130 4135 4126 4125 4131 4137 4128
8 344 4095 4138 345 348 4097 4139 349
8 4095 4094 4140 4138 4097 4096 4141 4139
8 4138 4140 4142 4143 4139 4141 4144 4145
8 345 4138 4143 130 349 4139 4145 134
8 4094 4103 4146 4140 4096 4105 4147 4141
8 4103 4102 4148 4146 4105 4104 4149 4147
8 4146 4148 4150 4151 4147 4149 4152 4153
8 4140 4146 4151 4142 4141 4147 4153 4144
8 4102 4111 4154 4148 4104 4113 4155 4149
8 4111 4110 4156 4154 4113 4112 4157 4155
8 4154 4156 4158 4159 4155 4157 4160 4161
8 4148 4154 4159 4150 4149 4155 4161 4152
8 4110 4119 4162 4156 4112 4121 4163 4157
8 4119 4118 4164 4162 4121 4120 4165 4163
8 4162 4164 4166 4167 4163 4165 4168 4169
8 4156 4162 4167 4158 4157 4163 4169 4160
8 4118 4127 4170 4164 4120 4129 4171 4165
8 4127 4126 4172 4170 4129 4128 4173 4171
8 4170 4172 4174 4175 4171 4173 4176 4177
8 4164 4170 4175 4166 4165 4171 4177 4168
8 4126 4135 4178 4172 4128 4137 4179 4173
8 4135 4134 4180 4178 4137 4136 4181 4179
8 4178 4180 4182 4183 4179 4181 4184 4185
8 4172 4178 4183 4174 4173 4179 4185 4176
8 130 4143 4186 131 134 4145 4187 135
8 4143 4142 4188 4186 4145 4144 4189 4187
8 4186 4188 4190 4191 4187 4189 4192 4193
8 131 4186 4191 138 135 4187 4193 140
8 4142 4151 4194 4188 4144 4153 4195 4189
8 4151 4150 4196 4194 4153 4152 4197 4195
8 4194 4196 4198 4199 4195 4197 4200 4201
8 4188 4194 4199 4190 4189 4195 4201 4192
8 4150 4159 4202 4196 4152 4161 4203 4197
8 4159 4158 4204 4202 4161 4160 4205 4203
8 4202 4204 4206 4207 4203 4205 4208 4209
8 4196 4202 4207 4198 4197 4203 4209 4200
8 4158 4167 4210 4204 4160 4169 4211 4205
8 4167 4166 4212 4210 4169 4168 4213 4211
8 4210 4212 4214 4215 4211 4213 4216 4217
8 4204 4210 4215 4206 4205 4211 4217 4208
8 4166 4175 4218 4212 4168 4177 4219 4213
8 4175 4174 4220 4218 4177 4176 4221 4219
8 4218 4220 4222 4223 4219 4221 4224 4225
8 4212 4218 4223 4214 4213 4219 4225 4216
8 4174 4183 4226 4220 4176 4185 4227 4221
8 4183 4182 4228 4226 4185 4184 4229 4227
8 4226 4228 4230 4231 4227 4229 4232 4233
8 4220 4226 4231 4222 4221 4227 4233 4224
8 138 4191 4234 399 140 4193 4235 401
8 4191 4190 4236 4234 4193 4192 4237 4235
8 4234 4236 4238 4239 4235 4237 4240 4241
8 399 4234 4239 12 401 4235 4241 14
8 4190 4199 4242 4236 4192 4201 4243 4237
8 4199 4198 4244 4242 4201 4200 4245 4243
8 4242 4244 4246 4247 4243 4245 4248 4249
8 4236 4242 4247 4238 4237 4243 4249 4240
8 4198 4207 4250 4244 4200 4209 4251 4245
8 4207 4206 4252 4250 4209 4208 4253 4251
8 4250 4252 4254 4255 4251 4253 4256 4257
8 4244 4250 4255 4246 4245 4251 4257 4248
8 4206 4215 4258 4252 4208 4217 4259 4253
8 4215 4214 4260 4258 4217 4216 4261 4259
8 4258 4260 4262 4263 4259 4261 4264 4265
8 4252 4258 4263 4254 4253 4259 4265 4256
8 4214 4223 4266 4260 4216 4225 4267 4261
8 4223 4222 4268 4266 4225 4224 4269 4267
8 4266 4268 4270 4271 4267 4269 4272 4273
8 4260 4266 4271 4262 4261 4267 4273 4264
8 4222 4231 4274 4268 4224 4233 4275 4269
8 4231 4230 4276 4274 4233 4232 4277 4275
8 4274 4276 4278 4279 4275 4277 4280 4281
8 4268 4274 4279 4270 4269 4275 4281 4272
8 12 4239 4282 13 14 4241 4283 15
8 4239 4238 4284 4282 4241 4240 4285 4283
8 4282 4284 4286 4287 4283 4285 4288 4289
8 13 4282 4287 16 15 4283 4289 17
8 4238 4247 4290 4284 4240 4249 4291 4285
8 4247 4246 4292 4290 4249 4248 4293 4291
8 4290 4292 4294 4295 4291 4293 4296 4297
8 4284 4290 4295 4286 4285 4291 4297 4288
8 4246 4255 4298 4292 4248 4257 4299 4293
8 4255 4254 4300 4298 4257 4256 4301 4299
8 4298 4300 4302 4303 4299 4301 4304 4305
8 4292 4298 4303 4294 4293 4299 4305 4296
8 4254 4263 4306 4300 4256 4265 4307 4301
8 4263 4262 4308 4306 4265 4264 4309 4307
8 4306 4308 4310 4311 4307 4309 4312 4313
8 4300 4306 4311 4302 4301 4307 4313 4304
8 4262 4271 4314 4308 4264 4273 4315 4309
8 4271 4270 4316 4314 4273 4272 4317 4315
8 4314 4316 4318 4319 4315 4317 4320 4321
8 4308 4314 4319 4310 4309 4315 4321 4312
8 4270 4279 4322 4316 4272 4281 4323 4317
8 4279 4278 4324 4322 4281 4280 4325 4323
8 4322 4324 4326 4327 4323 4325 4328 4329
8 4316 4322 4327 4318 4317 4323 4329 4320
8 16 4287 4330 394 17 4289 4331 396
8 4287 4286 4332 4330 4289 4288 4333 4331
8 4330 4332 4334 4335 4331 4333 4336 4337
8 394 4330 4335 382 396 4331 4337 386
8 4286 4295 4338 4332 4288 4297 4339 4333
8 4295 4294 4340 4338 4297 4296 4341 4339
8 4338 4340 4342 4343 4339 4341 4344 4345
8 4332 4338 4343 4334 4333 4339 4345 4336
8 4294 4303 4346 4340 4296 4305 4347 4341
8 4303 4302 4348 4346 4305 4304 4349 4347
8 4346 4348 4350 4351 4347 4349 4352 4353
8 4340 4346 4351 4342 4341 4347 4353 4344
8 4302 4311 4354 4348 4304 4313 4355 4349
8 4311 4310 4356 4354 4313 4312 4357 4355
8 4354 4356 4358 4359 4355 4357 4360 4361
8 4348 4354 4359 4350 4349 4355 4361 4352
8 4310 4319 4362 4356 4312 4321 4363 4357
8 4319 4318 4364 4362 4321 4320 4365 4363
8 4362 4364 4366 4367 4363 4365 4368 4369
8 4356 4362 4367 4358 4357 4363 4369 4360
8 4318 4327 4370 4364 4320 4329 4371 4365
8 4327 4326 4372 4370 4329 4328 4373 4371
8 4370 4372 4374 4375 4371 4373 4376 4377
8 4364 4370 4375 4366 4365 4371 4377 4368
8 382 4335 4378 383 386 4337 4379 387
8 4335 4334 4380 4378 4337 4336 4381 4379
8 4378 4380 4382 4383 4379 4381 4384 4385
8 383 4378 4383 202 387 4379 4385 204
8 4334 4343 4386 4380 4336 4345 4387 4381
8 4343 4342 4388 4386 4345 4344 4389 4387
8 4386 4388 4390 4391 4387 4389 4392 4393
8 4380 4386 4391 4382 4381 4387 4393 4384
8 4342 4351 4394 4388 4344 4353 4395 4389
8 4351 4350 4396 4394 4353 4352 4397 4395
8 4394 4396 4398 4399 4395 4397 4400 4401
8 4388 4394 4399 4390 4389 4395 4401 4392
8 4350 4359 4402 4396 4352 4361 4403 4397
8 4359 4358 4404 4402 4361 4360 4405 4403
8 4402 4404 4406 4407 4403 4405 4408 4409
8 4396 4402 4407 4398 4397 4403 4409 4400
8 4358 4367 4410 4404 4360 4369 4411 4405
8 4367 4366 4412 4410 4369 4368 4413 4411
8 4410 4412 4414 4415 4411 4413 4416 4417
8 4404 4410 4415 4406 4405 4411 4417 4408
8 4366 4375 4418 4412 4368 4377 4419 4413
8 4375 4374 4420 4418 4377 4376 4421 4419
8 4418 4420 4422 4423 4419 4421 4424 4425
8 4412 4418 4423 4414 4413 4419 4425 4416
8 202 4383 4426 203 204 4385 4427 205
8 4383 4382 4428 4426 4385 4384 4429 4427
8 4426 4428 4430 4431 4427 4429 4432 4433
8 203 4426 4431 206 205 4427 4433 207
8 4382 4391 4434 4428 4384 4393 4435 4429
8 4391 4390 4436 4434 4393 4392 4437 4435
8 4434 4436 4438 4439 4435 4437 4440 4441
8 4428 4434 4439 4430 4429 4435 4441 4432
8 4390 4399 4442 4436 4392 4401 4443 4437
8 4399 4398 4444 4442 4401 4400 4445 4443
8 4442 4444 4446 4447 4443 4445 4448 4449
8 4436 4442 4447 4438 4437 4443 4449 4440
8 4398 4407 4450 4444 4400 4409 4451 4445
8 4407 4406 4452 4450 4409 4408 4453 4451
8 4450 4452 4454 4455 4451 4453 4456 4457
8 4444 4450 4455 4446 4445 4451 4457 4448
8 4406 4415 4458 4452 4408 4417 4459 4453
8 4415 4414 4460 4458 4417 4416 4461 4459
8 4458 4460 4462 4463 4459 4461 4464 4465
8 4452 4458 4463 4454 4453 4459 4465 4456
8 4414 4423 4466 4460 4416 4425 4467 4461
8 4423 4422 4468 4466 4425 4424 4469 4467
8 4466 4468 4470 4471 4467 4469 4472 4473
8 4460 4466 4471 4462 4461 4467 4473 4464
8 206 4431 4474 208 207 4433 4475 210
8 4431 4430 4476 4474 4433 4432 4477 4475
8 4474 4476 4478 4479 4475 4477 4480 4481
8 208 4474 4479 212 210 4475 4481 214
8 4430 4439 4482 4476 4432 4441 4483 4477
8 4439 4438 4484 4482 4441 4440 4485 4483
8 4482 4484 4486 4487 4483 4485 4488 4489
8 4476 4482 4487 4478 4477 4483 4489 4480
8 4438 4447 4490 4484 4440 4449 4491 4485
8 4447 4446 4492 4490 4449 4448 4493 4491
8 4490 4492 4494 4495 4491 4493 4496 4497
8 4484 4490 4495 4486 4485 4491 4497 4488
8 4446 4455 4498 4492 4448 4457 4499 4493
8 4455 4454 4500 4498 4457 4456 4501 4499
8 4498 4500 4502 4503 4499 4501 4504 4505
8 4492 4498 4503 4494 4493 4499 4505 4496
8 4454 4463 4506 4500 4456 4465 4507 4501
8 4463 4462 4508 4506 4465 4464 4509 4507
8 4506 4508 4510 4511 4507 4509 4512 4513
8 4500 4506 4511 4502 4501 4507 4513 4504
8 2784 2787 4514 3092 2785 2789 4515 3094
8 2787 2796 4516 4514 2789 2797 4517 4515
8 4514 4516 4518 4519 4515 4517 4520 4521
8 3092 4514 4519 3096 3094 4515 4521 3098
8 2796 2799 4522 4516 2797 2801 4523 4517
8 2799 2808 4524 4522 2801 2809 4525 4523
8 4522 4524 4526 4527 4523 4525 4528 4529
8 4516 4522 4527 4518 4517 4523 4529 4520
8 2808 2811 4530 4524 2809 2813 4531 4525
8 2811 2820 4532 4530 2813 2821 4533 4531
8 4530 4532 4534 4535 4531 4533 4536 4537
8 4524 4530 4535 4526 4525 4531 4537 4528
8 2820 2823 4538 4532 2821 2825 4539 4533
8 2823 2832 4540 4538 2825 2833 4541 4539
8 4538 4540 4542 4543 4539 4541 4544 4545
8 4532 4538 4543 4534 4533 4539 4545 4536
8 2832 2835 4546 4540 2833 2837 4547 4541
8 2835 2844 4548 4546 2837 2845 4549 4547
8 4546 4548 4550 4551 4547 4549 4552 4553
8 4540 4546 4551 4542 4541 4547 4553 4544
8 2844 2946 4554 4548 2845 2947 4555 4549
8 2946 2940 4556 4554 2947 2942 4557 4555
8 4554 4556 4558 4559 4555 4557 4560 4561
8 4548 4554 4559 4550 4549 4555 4561 4552
8 2940 2938 4562 4556 2942 2939 4563 4557
8 2938 1688 4564 4562 2939 1690 4565 4563
8 4562 4564 4566 4567 4563 4565 4568 4569
8 4556 4562 4567 4558 4557 4563 4569 4560
8 1688 1684 4570 4564 1690 1686 4571 4565
8 1684 1366 4572 4570 1686 1368 4573 4571
8 4570 4572 4574 4575 4571 4573 4576 4577
8 4564 4570 4575 4566 4565 4571 4577 4568
8 1366 1359 4578 4572 1368 1363 4579 4573
8 1359 1358 4580 4578 1363 1362 4581 4579
8 4578 4580 4582 4583 4579 4581 4584 4585
8 4572 4578 4583 4574 4573 4579 4585 4576
8 1358 1672 4586 4580 1362 1673 4587 4581
8 1672 1660 4588 4586 1673 1664 4589 4587
8 4586 4588 4590 4591 4587 4589 4592 4593
8 4580 4586 4591 4582 4581 4587 4593 4584
8 1660 1663 4594 4588 1664 1667 4595 4589
8 1663 1656 4596 4594 1667 1658 4597 4595
8 4594 4596 4598 4599 4595 4597 4600 4601
8 4588 4594 4599 4590 4589 4595 4601 4592
8 1656 1652 4602 4596 1658 1654 4603 4597
8 1652 1458 4604 4602 1654 1462 4605 4603
8 4602 4604 4606 4607 4603 4605 4608 4609
8 4596 4602 4607 4598 4597 4603 4609 4600
8 1458 1461 4610 4604 1462 1465 4611 4605
8 1461 1470 4612 4610 1465 1471 4613 4611
8 4610 4612 4614 4615 4611 4613 4616 4617
8 4604 4610 4615 4606 4605 4611 4617 4608
8 1470 1694 4618 4612 1471 1695 4619 4613
8 1694 1538 4620 4618 1695 1540 4621 4619
8 4618 4620 4622 4623 4619 4621 4624 4625
8 4612 4618 4623 4614 4613 4619 4625 4616
8 1538 1536 4626 4620 1540 1537 4627 4621
8 1536 1520 4628 4626 1537 1524 4629 4627
8 4626 4628 4630 4631 4627 4629 4632 4633
8 4620 4626 4631 4622 4621 4627 4633 4624
8 1520 1523 4634 4628 1524 1527 4635 4629
8 1523 1530 4636 4634 1527 1531 4637 4635
8 4634 4636 4638 4639 4635 4637 4640 4641
8 4628 4634 4639 4630 4629 4635 4641 4632
8 1530 1650 4642 4636 1531 1651 4643 4637
8 1650 1622 4644 4642 1651 1623 4645 4643
8 4642 4644 4646 4647 4643 4645 4648 4649
8 4636 4642 4647 4638 4637 4643 4649 4640
8 1622 1619 4650 4644 1623 1621 4651 4645
8 1619 1618 4652 4650 1621 1620 4653 4651
8 4650 4652 4654 4655 4651 4653 4656 4657
8 4644 4650 4655 4646 4645 4651 4657 4648
8 1618 1712 4658 4652 1620 1713 4659 4653
8 1712 1642 4660 4658 1713 1643 4661 4659
8 4658 4660 4662 4663 4659 4661 4664 4665
8 4652 4658 4663 4654 4653 4659 4665 4656
8 1642 1640 4666 4660 1643 1641 4667 4661
8 1640 1576 4668 4666 1641 1578 4669 4667
8 4666 4668 4670 4671 4667 4669 4672 4673
8 4660 4666 4671 4662 4661 4667 4673 4664
8 1576 1569 4674 4668 1578 1573 4675 4669
8 1569 1568 4676 4674 1573 1572 4677 4675
8 4674 4676 4678 4679 4675 4677 4680 4681
8 4668 4674 4679 4670 4669 4675 4681 4672
8 1568 1634 4682 4676 1572 1635 4683 4677
8 1634 1552 4684 4682 1635 1556 4685 4683
8 4682 4684 4686 4687 4683 4685 4688 4689
8 4676 4682 4687 4678 4677 4683 4689 4680
8 3096 4519 4690 3104 3098 4521 4691 3106
8 4519 4518 4692 4690 4521 4520 4693 4691
8 4690 4692 4694 4695 4691 4693 4696 4697
8 3104 4690 4695 3108 3106 4691 4697 3110
8 4518 4527 4698 4692 4520 4529 4699 4693
8 4527 4526 4700 4698 4529 4528 4701 4699
8 4698 4700 4702 4703 4699 4701 4704 4705
8 4692 4698 4703 4694 4693 4699 4705 4696
8 4526 4535 4706 4700 4528 4537 4707 4701
8 4535 4534 4708 4706 4537 4536 4709 4707
8 4706 4708 4710 4711 4707 4709 4712 4713
8 4700 4706 4711 4702 4701 4707 4713 4704
8 4534 4543 4714 4708 4536 4545 4715 4709
8 4543 4542 4716 4714 4545 4544 4717 4715
8 4714 4716 4718 4719 4715 4717 4720 4721
8 4708 4714 4719 4710 4709 4715 4721 4712
8 4542 4551 4722 4716 4544 4553 4723 4717
8 4551 4550 4724 4722 4553 4552 4725 4723
8 4722 4724 4726 4727 4723 4725 4728 4729
8 4716 4722 4727 4718 4717 4723 4729 4720
8 4550 4559 4730 4724 4552 4561 4731 4725
8 4559 4558 4732 4730 4561 4560 4733 4731
8 4730 4732 4734 4735 4731 4733 4736 4737
8 4724 4730 4735 4726 4725 4731 4737 4728
8 4558 4567 4738 4732 4560 4569 4739 4733
8 4567 4566 4740 4738 4569 4568 4741 4739
8 4738 4740 4742 4743 4739 4741 4744 4745
8 4732 4738 4743 4734 4733 4739 4745 4736
8 4566 4575 4746 4740 4568 4577 4747 4741
8 4575 4574 4748 4746 4577 4576 4749 4747
8 4746 4748 4750 4751 4747 4749 4752 4753
8 4740 4746 4751 4742 4741 4747 4753 4744
8 4574 4583 4754 4748 4576 4585 4755 4749
8 4583 4582 4756 4754 4585 4584 4757 4755
8 4754 4756 4758 4759 4755 4757 4760 4761
8 4748 4754 4759 4750 4749 4755 4761 4752
8 4582 4591 4762 4756 4584 4593 4763 4757
8 4591 4590 4764 4762 4593 4592 4765 4763
8 4762 4764 4766 4767 4763 4765 4768 4769
8 4756 4762 4767 4758 4757 4763 4769 4760
8 4590 4599 4770 4764 4592 4601 4771 4765
8 4599 4598 4772 4770 4601 4600 4773 4771
8 4770 4772 4774 4775 4771 4773 4776 4777
8 4764 4770 4775 4766 4765 4771 4777 4768
8 4598 4607 4778 4772 4600 4609 4779 4773
8 4607 4606 4780 4778 4609 4608 4781 4779
8 4778 4780 4782 4783 4779 4781 4784 4785
8 4772 4778 4783 4774 4773 4779 4785 4776
8 4606 4615 4786 4780 4608 4617 4787 4781
8 4615 4614 4788 4786 4617 4616 4789 4787
8 4786 4788 4790 4791 4787 4789 4792 4793
8 4780 4786 4791 4782 4781 4787 4793 4784
8 4614 4623 4794 4788 4616 4625 4795 4789
8 4623 4622 4796 4794 4625 4624 4797 4795
8 4794 4796 4798 4799 4795 4797 4800 4801
8 4788 4794 4799 4790 4789 4795 4801 4792
8 4622 4631 4802 4796 4624 4633 4803 4797
8 4631 4630 4804 4802 4633 4632 4805 4803
8 4802 4804 4806 4807 4803 4805 4808 4809
8 4796 4802 4807 4798 4797 4803 4809 4800
8 4630 4639 4810 4804 4632 4641 4811 4805
8 4639 4638 4812 4810 4641 4640 4813 4811
8 4810 4812 4814 4815 4811 4813 4816 4817
8 4804 4810 4815 4806 4805 4811 4817 4808
8 4638 4647 4818 4812 4640 4649 4819 4813
8 4647 4646 4820 4818 4649 4648 4821 4819
8 4818 4820 4822 4823 4819 4821 4824 4825
8 4812 4818 4823 4814 4813 4819 4825 4816
8 4646 4655 4826 4820 4648 4657 4827 4821
8 4655 4654 4828 4826 4657 4656 4829 4827
8 4826 4828 4830 4831 4827 4829 4832 4833
8 4820 4826 4831 4822 4821 4827 4833 4824
8 4654 4663 4834 4828 4656 4665 4835 4829
8 4663 4662 4836 4834 4665 4664 4837 4835
8 4834 4836 4838 4839 4835 4837 4840 4841
8 4828 4834 4839 4830 4829 4835 4841 4832
8 4662 4671 4842 4836 4664 4673 4843 4837
8 4671 4670 4844 4842 4673 4672 4845 4843
8 4842 4844 4846 4847 4843 4845 4848 4849
8 4836 4842 4847 4838 4837 4843 4849 4840
8 4670 4679 4850 4844 4672 4681 4851 4845
8 4679 4678 4852 4850 4681 4680 4853 4851
8 4850 4852 4854 4855 4851 4853 4856 4857
8 4844 4850 4855 4846 4845 4851 4857 4848
8 4678 4687 4858 4852 4680 4689 4859 4853
8 4687 4686 4860 4858 4689 4688 4861 4859
8 4858 4860 4862 4863 4859 4861 4864 4865
8 4852 4858 4863 4854 4853 4859 4865 4856
8 3108 4695 4866 3116 3110 4697 4867 3118
8 4695 4694 4868 4866 4697 4696 4869 4867
8 4866 4868 4870 4871 4867 4869 4872 4873
8 3116 4866 4871 3120 3118 4867 4873 3122
8 4694 4703 4874 4868 4696 4705 4875 4869
8 4703 4702 4876 4874 4705 4704 4877 4875
8 4874 4876 4878 4879 4875 4877 4880 4881
8 4868 4874 4879 4870 4869 4875 4881 4872
8 4702 4711 4882 4876 4704 4713 4883 4877
8 4711 4710 4884 4882 4713 4712 4885 4883
8 4882 4884 4886 4887 4883 4885 4888 4889
8 4876 4882 4887 4878 4877 4883 4889 4880
8 4710 4719 4890 4884 4712 4721 4891 4885
8 4719 4718 4892 4890 4721 4720 4893 4891
8 4890 4892 4894 4895 4891 4893 4896 4897
8 4884 4890 4895 4886 4885 4891 4897 4888
8 4718 4727 4898 4892 4720 4729 4899 4893
8 4727 4726 4900 4898 4729 4728 4901 4899
8 4898 4900 4902 4903 4899 4901 4904 4905
8 4892 4898 4903 4894 4893 4899 4905 4896
8 4726 4735 4906 4900 4728 4737 4907 4901
8 4735 4734 4908 4906 4737 4736 4909 4907
8 4906 4908 4910 4911 4907 4909 4912 4913
8 4900 4906 4911 4902 4901 4907 4913 4904
8 4734 4743 4914 4908 4736 4745 4915 4909
8 4743 4742 4916 4914 4745 4744 4917 4915
8 4914 4916 4918 4919 4915 4917 4920 4921
8 4908 4914 4919 4910 4909 4915 4921 4912
8 4742 4751 4922 4916 4744 4753 4923 4917
8 4751 4750 4924 4922 4753 4752 4925 4923
8 4922 4924 4926 4927 4923 4925 4928 4929
8 4916 4922 4927 4918 4917 4923 4929 4920
8 4750 4759 4930 4924 4752 4761 4931 4925
8 4759 4758 4932 4930 4761 4760 4933 4931
8 4930 4932 4934 4935 4931 4933 4936 4937
8 4924 4930 4935 4926 4925 4931 4937 4928
8 4758 4767 4938 4932 4760 4769 4939 4933
8 4767 4766 4940 4938 4769 4768 4941 4939
8 4938 4940 4942 4943 4939 4941 4944 4945
8 4932 4938 4943 4934 4933 4939 4945 4936
8 4766 4775 4946 4940 4768 4777 4947 4941
8 4775 4774 4948 4946 4777 4776 4949 4947
8 4946 4948 4950 4951 4947 4949 4952 4953
8 4940 4946 4951 4942 4941 4947 4953 4944
8 4774 4783 4954 4948 4776 4785 4955 4949
8 4783 4782 4956 4954 4785 4784 4957 4955
8 4954 4956 4958 4959 4955 4957 4960 4961
8 4948 4954 4959 4950 4949 4955 4961 4952
8 4782 4791 4962 4956 4784 4793 4963 4957
8 4791 4790 4964 4962 4793 4792 4965 4963
8 4962 4964 4966 4967 4963 4965 4968 4969
8 4956 4962 4967 4958 4957 4963 4969 4960
8 4790 4799 4970 4964 4792 4801 4971 4965
8 4799 4798 4972 4970 4801 4800 4973 4971
8 4970 4972 4974 4975 4971 4973 4976 4977
8 4964 4970 4975 4966 4965 4971 4977 4968
8 4798 4807 4978 4972 4800 4809 4979 4973
8 4807 4806 4980 4978 4809 4808 4981 4979
8 4978 4980 4982 4983 4979 4981 4984 4985
8 4972 4978 4983 4974 4973 4979 4985 4976
8 4806 4815 4986 4980 4808 4817 4987 4981
8 4815 4814 4988 4986 4817 4816 4989 4987
8 4986 4988 4990 4991 4987 4989 4992 4993
8 4980 4986 4991 4982 4981 4987 4993 4984
8 4814 4823 4994 4988 4816 4825 4995 4989
8 4823 4822 4996 4994 4825 4824 4997 4995
8 4994 4996 4998 4999 4995 4997 5000 5001
8 4988 4994 4999 4990 4989 4995 5001 4992
8 4822 4831 5002 4996 4824 4833 5003 4997
8 4831 4830 5004 5002 4833 4832 5005 5003
8 5002 5004 5006 5007 5003 5005 5008 5009
8 4996 5002 5007 4998 4997 5003 5009 5000
8 4830 4839 5010 5004 4832 4841 5011 5005
8 4839 4838 5012 5010 4841 4840 5013 5011
8 5010 5012 5014 5015 5011 5013 5016 5017
8 5004 5010 5015 5006 5005 5011 5017 5008
8 4838 4847 5018 5012 4840 4849 5019 5013
8 4847 4846 5020 5018 4849 4848 5021 5019
8 5018 5020 5022 5023 5019 5021 5024 5025
8 5012 5018 5023 5014 5013 5019 5025 5016
8 4846 4855 5026 5020 4848 4857 5027 5021
8 4855 4854 5028 5026 4857 4856 5029 5027
8 5026 5028 5030 5031 5027 5029 5032 5033
8 5020 5026 5031 5022 5021 5027 5033 5024
8 4854 4863 5034 5028 4856 4865 5035 5029
8 4863 4862 5036 5034 4865 4864 5037 5035
8 5034 5036 5038 5039 5035 5037 5040 5041
8 5028 5034 5039 5030 5029 5035 5041 5032
8 3120 4871 5042 3128 3122 4873 5043 3130
8 4871 4870 5044 5042 4873 4872 5045 5043
8 5042 5044 5046 5047 5043 5045 5048 5049
8 3128 5042 5047 3132 3130 5043 5049 3134
8 4870 4879 5050 5044 4872 4881 5051 5045
8 4879 4878 5052 5050 4881 4880 5053 5051
8 5050 5052 5054 5055 5051 5053 5056 5057
8 5044 5050 5055 5046 5045 5051 5057 5048
8 4878 4887 5058 5052 4880 4889 5059 5053
8 4887 4886 5060 5058 4889 4888 5061 5059
8 5058 5060 5062 5063 5059 5061 5064 5065
8 5052 5058 5063 5054 5053 5059 5065 5056
8 4886 4895 5066 5060 4888 4897 5067 5061
8 4895 4894 5068 5066 4897 4896 5069 5067
8 5066 5068 5070 5071 5067 5069 5072 5073
8 5060 5066 5071 5062 5061 5067 5073 5064
8 4894 4903 5074 5068 4896 4905 5075 5069
8 4903 4902 5076 5074 4905 4904 5077 5075
8 5074 5076 5078 5079 5075 5077 5080 5081
8 5068 5074 5079 5070 5069 5075 5081 5072
8 4902 4911 5082 5076 4904 4913 5083 5077
8 4911 4910 5084 5082 4913 4912 5085 5083
8 5082 5084 5086 5087 5083 5085 5088 5089
8 5076 5082 5087 5078 5077 5083 5089 5080
8 4910 4919 5090 5084 4912 4921 5091 5085
8 4919 4918 5092 5090 4921 4920 5093 5091
8 5090 5092 5094 5095 5091 5093 5096 5097
8 5084 5090 5095 5086 5085 5091 5097 5088
8 4918 4927 5098 5092 4920 4929 5099 5093
8 4927 4926 5100 5098 4929 4928 5101 5099
8 5098 5100 5102 5103 5099 5101 5104 5105
8 5092 5098 5103 5094 5093 5099 5105 5096
8 4926 4935 5106 5100 4928 4937 5107 5101
8 4935 4934 5108 5106 4937 4936 5109 5107
8 5106 5108 5110 5111 5107 5109 5112 5113
8 5100 5106 5111 5102 5101 5107 5113 5104
8 4934 4943 5114 5108 4936 4945 5115 5109
8 4943 4942 5116 5114 4945 4944 5117 5115
8 5114 5116 5118 5119 5115 5117 5120 5121
8 5108 5114 5119 5110 5109 5115 5121 5112
8 4942 4951 5122 5116 4944 4953 5123 5117
8 4951 4950 5124 5122 4953 4952 5125 5123
8 5122 5124 5126 5127 5123 5125 5128 5129
8 5116 5122 5127 5118 5117 5123 5129 5120
8 4950 4959 5130 5124 4952 4961 5131 5125
8 4959 4958 5132 5130 4961 4960 5133 5131
8 5130 5132 5134 5135 5131 5133 5136 5137
8 5124 5130 5135 5126 5125 5131 5137 5128
8 4958 4967 5138 5132 4960 4969 5139 5133
8 4967 4966 5140 5138 4969 4968 5141 5139
8 5138 5140 5142 5143 5139 5141 5144 5145
8 5132 5138 5143 5134 5133 5139 5145 5136
8 4966 4975 5146 5140 4968 4977 5147 5141
8 4975 4974 5148 5146 4977 4976 5149 5147
8 5146 5148 5150 5151 5147 5149 5152 5153
8 5140 5146 5151 5142 5141 5147 5153 5144
8 4974 4983 5154 5148 4976 4985 5155 5149
8 4983 4982 5156 5154 4985 4984 5157 5155
8 5154 5156 5158 5159 5155 5157 5160 5161
8 5148 5154 5159 5150 5149 5155 5161 5152
8 4982 4991 5162 5156 4984 4993 5163 5157
8 4991 4990 5164 5162 4993 4992 5165 5163
8 5162 5164 5166 5167 5163 5165 5168 5169
8 5156 5162 5167 5158 5157 5163 5169 5160
8 4990 4999 5170 5164 4992 5001 5171 5165
8 4999 4998 5172 5170 5001 5000 5173 5171
8 5170 5172 5174 5175 5171 5173 5176 5177
8 5164 5170 5175 5166 5165 5171 5177 5168
8 4998 5007 5178 5172 5000 5009 5179 5173
8 5007 5006 5180 5178 5009 5008 5181 5179
8 5178 5180 5182 5183 5179 5181 5184 5185
8 5172 5178 5183 5174 5173 5179 5185 5176
8 5006 5015 5186 5180 5008 5017 5187 5181
8 5015 5014 5188 5186 5017 5016 5189 5187
8 5186 5188 5190 5191 5187 5189 5192 5193
8 5180 5186 5191 5182 5181 5187 5193 5184
8 5014 5023 5194 5188 5016 5025 5195 5189
8 5023 5022 5196 5194 5025 5024 5197 5195
8 5194 5196 5198 5199 5195 5197 5200 5201
8 5188 5194 5199 5190 5189 5195 5201 5192
8 5022 5031 5202 5196 5024 5033 5203 5197
8 5031 5030 5204 5202 5033 5032 5205 5203
8 5202 5204 5206 5207 5203 5205 5208 5209
8 5196 5202 5207 5198 5197 5203 5209 5200
8 5030 5039 5210 5204 5032 5041 5211 5205
8 5039 5038 5212 5210 5041 5040 5213 5211
8 5210 5212 5214 5215 5211 5213 5216 5217
8 5204 5210 5215 5206 5205 5211 5217 5208
8 3132 5047 5218 3140 3134 5049 5219 3142
8 5047 5046 5220 5218 5049 5048 5221 5219
8 5218 5220 5222 5223 5219 5221 5224 5225
8 3140 5218 5223 3144 3142 5219 5225 3146
8 5046 5055 5226 5220 5048 5057 5227 5221
8 5055 5054 5228 5226 5057 5056 5229 5227
8 5226 5228 5230 5231 5227 5229 5232 5233
8 5220 5226 5231 5222 5221 5227 5233 5224
8 5054 5063 5234 5228 5056 5065 5235 5229
8 5063 5062 5236 5234 5065 5064 5237 5235
8 5234 5236 5238 5239 5235 5237 5240 5241
8 5228 5234 5239 5230 5229 5235 5241 5232
8 5062 5071 5242 5236 5064 5073 5243 5237
8 5071 5070 5244 5242 5073 5072 5245 5243
8 5242 5244 5246 5247 5243 5245 5248 5249
8 5236 5242 5247 5238 5237 5243 5249 5240
8 5070 5079 5250 5244 5072 5081 5251 5245
8 5079 5078 5252 5250 5081 5080 5253 5251
8 5250 5252 5254 5255 5251 5253 5256 5257
8 5244 5250 5255 5246 5245 5251 5257 5248
8 5078 5087 5258 5252 5080 5089 5259 5253
8 5087 5086 5260 5258 5089 5088 5261 5259
8 5258 5260 5262 5263 5259 5261 5264 5265
8 5252 5258 5263 5254 5253 5259 5265 5256
8 5086 5095 5266 5260 5088 5097 5267 5261
8 5095 5094 5268 5266 5097 5096 5269 5267
8 5266 5268 5270 5271 5267 5269 5272 5273
8 5260 5266 5271 5262 5261 5267 5273 5264
8 5094 5103 5274 5268 5096 5105 5275 5269
8 5103 5102 5276 5274 5105 5104 5277 5275
8 5274 5276 5278 5279 5275 5277 5280 5281
8 5268 5274 5279 5270 5269 5275 5281 5272
8 5102 5111 5282 5276 5104 5113 5283 5277
8 5111 5110 5284 5282 5113 5112 5285 5283
8 5282 5284 5286 5287 5283 5285 5288 5289
8 5276 5282 5287 5278 5277 5283 5289 5280
8 5110 5119 5290 5284 5112 5121 5291 5285
8 5119 5118 5292 5290 5121 5120 5293 5291
8 5290 5292 5294 5295 5291 5293 5296 5297
8 5284 5290 5295 5286 5285 5291 5297 5288
8 5118 5127 5298 5292 5120 5129 5299 5293
8 5127 5126 5300 5298 5129 5128 5301 5299
8 5298 5300 5302 5303 5299 5301 5304 5305
8 5292 5298 5303 5294 5293 5299 5305 5296
8 5126 5135 5306 5300 5128 5137 5307 5301
8 5135 5134 5308 5306 5137 5136 5309 5307
8 5306 5308 5310 5311 5307 5309 5312 5313
8 5300 5306 5311 5302 5301 5307 5313 5304
8 5134 5143 5314 5308 5136 5145 5315 5309
8 5143 5142 5316 5314 5145 5144 5317 5315
8 5314 5316 5318 5319 5315 5317 5320 5321
8 5308 5314 5319 5310 5309 5315 5321 5312
8 5142 5151 5322 5316 5144 5153 5323 5317
8 5151 5150 5324 5322 5153 5152 5325 5323
8 5322 5324 5326 5327 5323 5325 5328 5329
8 5316 5322 5327 5318 5317 5323 5329 5320
8 5150 5159 5330 5324 5152 5161 5331 5325
8 5159 5158 5332 5330 5161 5160 5333 5331
8 5330 5332 5334 5335 5331 5333 5336 5337
8 5324 5330 5335 5326 5325 5331 5337 5328
8 5158 5167 5338 5332 5160 5169 5339 5333
8 5167 5166 5340 5338 5169 5168 5341 5339
8 5338 5340 5342 5343 5339 5341 5344 5345
8 5332 5338 5343 5334 5333 5339 5345 5336
8 5166 5175 5346 5340 5168 5177 5347 5341
8 5175 5174 5348 5346 5177 5176 5349 5347
8 5346 5348 5350 5351 5347 5349 5352 5353
8 5340 5346 5351 5342 5341 5347 5353 5344
8 5174 5183 5354 5348 5176 5185 5355 5349
8 5183 5182 5356 5354 5185 5184 5357 5355
8 5354 5356 5358 5359 5355 5357 5360 5361
8 5348 5354 5359 5350 5349 5355 5361 5352
8 5182 5191 5362 5356 5184 5193 5363 5357
8 5191 5190 5364 5362 5193 5192 5365 5363
8 5362 5364 5366 5367 5363 5365 5368 5369
8 5356 5362 5367 5358 5357 5363 5369 5360
8 5190 5199 5370 5364 5192 5201 5371 5365
8 5199 5198 5372 5370 5201 5200 5373 5371
8 5370 5372 5374 5375 5371 5373 5376 5377
8 5364 5370 5375 5366 5365 5371 5377 5368
8 5198 5207 5378 5372 5200 5209 5379 5373
8 5207 5206 5380 5378 5209 5208 5381 5379
8 5378 5380 5382 5383 5379 5381 5384 5385
8 5372 5378 5383 5374 5373 5379 5385 5376
8 5206 5215 5386 5380 5208 5217 5387 5381
8 5215 5214 5388 5386 5217 5216 5389 5387
8 5386 5388 5390 5391 5387 5389 5392 5393
8 5380 5386 5391 5382 5381 5387 5393 5384
8 3144 5223 5394 3152 3146 5225 5395 3154
8 5223 5222 5396 5394 5225 5224 5397 5395
8 5394 5396 3510 3508 5395 5397 3512 3509
8 3152 5394 3508 2698 3154 5395 3509 2699
8 5222 5231 5398 5396 5224 5233 5399 5397
8 5231 5230 5400 5398 5233 5232 5401 5399
8 5398 5400 3558 3556 5399 5401 3560 3557
8 5396 5398 3556 3510 5397 5399 3557 3512
8 5230 5239 5402 5400 5232 5241 5403 5401
8 5239 5238 5404 5402 5241 5240 5405 5403
8 5402 5404 3606 3604 5403 5405 3608 3605
8 5400 5402 3604 3558 5401 5403 3605 3560
8 5238 5247 5406 5404 5240 5249 5407 5405
8 5247 5246 5408 5406 5249 5248 5409 5407
8 5406 5408 3654 3652 5407 5409 3656 3653
8 5404 5406 3652 3606 5405 5407 3653 3608
8 5246 5255 5410 5408 5248 5257 5411 5409
8 5255 5254 5412 5410 5257 5256 5413 5411
8 5410 5412 3702 3700 5411 5413 3704 3701
8 5408 5410 3700 3654 5409 5411 3701 3656
8 5254 5263 5414 5412 5256 5265 5415 5413
8 5263 5262 5416 5414 5265 5264 5417 5415
8 5414 5416 3750 3748 5415 5417 3752 3749
8 5412 5414 3748 3702 5413 5415 3749 3704
8 5262 5271 5418 5416 5264 5273 5419 5417
8 5271 5270 5420 5418 5273 5272 5421 5419
8 5418 5420 3798 3796 5419 5421 3800 3797
8 5416 5418 3796 3750 5417 5419 3797 3752
8 5270 5279 5422 5420 5272 5281 5423 5421
8 5279 5278 5424 5422 5281 5280 5425 5423
8 5422 5424 3846 3844 5423 5425 3848 3845
8 5420 5422 3844 3798 5421 5423 3845 3800
8 5278 5287 5426 5424 5280 5289 5427 5425
8 5287 5286 5428 5426 5289 5288 5429 5427
8 5426 5428 3894 3892 5427 5429 3896 3893
8 5424 5426 3892 3846 5425 5427 3893 3848
8 5286 5295 5430 5428 5288 5297 5431 5429
8 5295 5294 5432 5430 5297 5296 5433 5431
8 5430 5432 3942 3940 5431 5433 3944 3941
8 5428 5430 3940 3894 5429 5431 3941 3896
8 5294 5303 5434 5432 5296 5305 5435 5433
8 5303 5302 5436 5434 5305 5304 5437 5435
8 5434 5436 3990 3988 5435 5437 3992 3989
8 5432 5434 3988 3942 5433 5435 3989 3944
8 5302 5311 5438 5436 5304 5313 5439 5437
8 5311 5310 5440 5438 5313 5312 5441 5439
8 5438 5440 4038 4036 5439 5441 4040 4037
8 5436 5438 4036 3990 5437 5439 4037 3992
8 5310 5319 5442 5440 5312 5321 5443 5441
8 5319 5318 5444 5442 5321 5320 5445 5443
8 5442 5444 4086 4084 5443 5445 4088 4085
8 5440 5442 4084 4038 5441 5443 4085 4040
8 5318 5327 5446 5444 5320 5329 5447 5445
8 5327 5326 5448 5446 5329 5328 5449 5447
8 5446 5448 4134 4132 5447 5449 4136 4133
8 5444 5446 4132 4086 5445 5447 4133 4088
8 5326 5335 5450 5448 5328 5337 5451 5449
8 5335 5334 5452 5450 5337 5336 5453 5451
8 5450 5452 4182 4180 5451 5453 4184 4181
8 5448 5450 4180 4134 5449 5451 4181 4136
8 5334 5343 5454 5452 5336 5345 5455 5453
8 5343 5342 5456 5454 5345 5344 5457 5455
8 5454 5456 4230 4228 5455 5457 4232 4229
8 5452 5454 4228 4182 5453 5455 4229 4184
8 5342 5351 5458 5456 5344 5353 5459 5457
8 5351 5350 5460 5458 5353 5352 5461 5459
8 5458 5460 4278 4276 5459 5461 4280 4277
8 5456 5458 4276 4230 5457 5459 4277 4232
8 5350 5359 5462 5460 5352 5361 5463 5461
8 5359 5358 5464 5462 5361 5360 5465 5463
8 5462 5464 4326 4324 5463 5465 4328 4325
8 5460 5462 4324 4278 5461 5463 4325 4280
8 5358 5367 5466 5464 5360 5369 5467 5465
8 5367 5366 5468 5466 5369 5368 5469 5467
8 5466 5468 4374 4372 5467 5469 4376 4373
8 5464 5466 4372 4326 5465 5467 4373 4328
8 5366 5375 5470 5468 5368 5377 5471 5469
8 5375 5374 5472 5470 5377 5376 5473 5471
8 5470 5472 4422 4420 5471 5473 4424 4421
8 5468 5470 4420 4374 5469 5471 4421 4376
8 5374 5383 5474 5472 5376 5385 5475 5473
8 5383 5382 5476 5474 5385 5384 5477 5475
8 5474 5476 4470 4468 5475 5477 4472 4469
8 5472 5474 4468 4422 5473 5475 4469 4424
8 5478 5544 5550 5484 5479 5545 5551 5485
8 5479 5545 5551 5485 5480 5546 5552 5486
8 5480 5546 5552 5486 5481 5547 5553 5487
8 5481 5547 5553 5487 5482 5548 5554 5488
8 5482 5548 5554 5488 5483 5549 5555 5489
8 5484 5550 5556 5490 5485 5551 5557 5491
8 5485 5551 5557 5491 5486 5552 5558 5492
8 5486 5552 5558 5492 5487 5553 5559 5493
8 5487 5553 5559 5493 5488 5554 5560 5494
8 5488 5554 5560 5494 5489 5555 5561 5495
8 5490 5556 5562 5496 5491 5557 5563 5497
8 5491 5557 5563 5497 5492 5558 5564 5498
8 5492 5558 5564 5498 5493 5559 5565 5499
8 5493 5559 5565 5499 5494 5560 5566 5500
8 5494 5560 5566 5500 5495 5561 5567 5501
8 5496 5562 5568 5502 5497 5563 5569 5503
8 5497 5563 5569 5503 5498 5564 5570 5504
8 5498 5564 5570 5504 5499 5565 5571 5505
8 5499 5565 5571 5505 5500 5566 5572 5506
8 5500 5566 5572 5506 5501 5567 5573 5507
8 5502 5568 5574 5508 5503 5569 5575 5509
8 5503 5569 5575 5509 5504 5570 5576 5510
8 5504 5570 5576 5510 5505 5571 5577 5511
8 5505 5571 5577 5511 5506 5572 5578 5512
8 5506 5572 5578 5512 5507 5573 5579 5513
8 5508 5574 5580 5514 5509 5575 5581 5515
8 5509 5575 5581 5515 5510 5576 5582 5516
8 5510 5576 5582 5516 5511 5577 5583 5517
8 5511 5577 5583 5517 5512 5578 5584 5518
8 5512 5578 5584 5518 5513 5579 5585 5519
8 5514 5580 5586 5520 5515 5581 5587 5521
8 5515 5581 5587 5521 5516 5582 5588 5522
8 5516 5582 5588 5522 5517 5583 5589 5523
8 5517 5583 5589 5523 5518 5584 5590 5524
8 5518 5584 5590 5524 5519 5585 5591 5525
8 5520 5586 5592 5526 5521 5587 5593 5527
8 5521 5587 5593 5527 5522 5588 5594 5528
8 5522 5588 5594 5528 5523 5589 5595 5529
8 5523 5589 5595 5529 5524 5590 5596 5530
8 5524 5590 5596 5530 5525 5591 5597 5531
8 5526 5592 5598 5532 5527 5593 5599 5533
8 5527 5593 5599 5533 5528 5594 5600 5534
8 5528 5594 5600 5534 5529 5595 5601 5535
8 5529 5595 5601 5535 5530 5596 5602 5536
8 5530 5596 5602 5536 5531 5597 5603 5537
8 5532 5598 5604 5538 5533 5599 5605 5539
8 5533 5599 5605 5539 5534 5600 5606 5540
8 5534 5600 5606 5540 5535 5601 5607 5541
8 5535 5601 5607 5541 5536 5602 5608 5542
8 5536 5602 5608 5542 5537 5603 5609 5543
8 5544 5610 5616 5550 5545 5611 5617 5551
8 5545 5611 5617 5551 5546 5612 5618 5552
8 5546 5612 5618 5552 5547 5613 5619 5553
8 5547 5613 5619 5553 5548 5614 5620 5554
8 5548 5614 5620 5554 5549 5615 5621 5555
8 5550 5616 5622 5556 5551 5617 5623 5557
8 5551 5617 5623 5557 5552 5618 5624 5558
8 5552 5618 5624 5558 5553 5619 5625 5559
8 5553 5619 5625 5559 5554 5620 5626 5560
8 5554 5620 5626 5560 5555 5621 5627 5561
8 5556 5622 5628 5562 5557 5623 5629 5563
8 5557 5623 5629 5563 5558 5624 5630 5564
8 5558 5624 5630 5564 5559 5625 5631 5565
8 5559 5625 5631 5565 5560 5626 5632 5566
8 5560 5626 5632 5566 5561 5627 5633 5567
8 5562 5628 5634 5568 5563 5629 5635 5569
8 5563 5629 5635 5569 5564 5630 5636 5570
8 5564 5630 5636 5570 5565 5631 5637 5571
8 5565 5631 5637 5571 5566 5632 5638 5572
8 5566 5632 5638 5572 5567 5633 5639 5573
8 5568 5634 5640 5574 5569 5635 5641 5575
8 5569 5635 5641 5575 5570 5636 5642 5576
8 5570 5636 5642 5576 5571 5637 5643 5577
8 5571 5637 5643 5577 5572 5638 5644 5578
8 5572 5638 5644 5578 5573 5639 5645 5579
8 5574 5640 5646 5580 5575 5641 5647 5581
8 5575 5641 5647 5581 5576 5642 5648 5582
8 5576 5642 5648 5582 5577 5643 5649 5583
8 5577 5643 5649 5583 5578 5644 5650 5584
8 5578 5644 5650 5584 5579 5645 5651 5585
8 5580 5646 5652 5586 5581 5647 5653 5587
8 5581 5647 5653 5587 5582 5648 5654 5588
8 5582 5648 5654 5588 5583 5649 5655 5589
8 5583 5649 5655 5589 5584 5650 5656 5590
8 5584 5650 5656 5590 5585 5651 5657 5591
8 5586 5652 5658 5592 5587 5653 5659 5593
8 5587 5653 5659 5593 5588 5654 5660 5594
8 5588 5654 5660 5594 5589 5655 5661 5595
8 5589 5655 5661 5595 5590 5656 5662 5596
8 5590 5656 5662 5596 5591 5657 5663 5597
8 5592 5658 5664 5598 5593 5659 5665 5599
8 5593 5659 5665 5599 5594 5660 5666 5600
8 5594 5660 5666 5600 5595 5661 5667 5601
8 5595 5661 5667 5601 5596 5662 5668 5602
8 5596 5662 5668 5602 5597 5663 5669 5603
8 5598 5664 5670 5604 5599 5665 5671 5605
8 5599 5665 5671 5605 5600 5666 5672 5606
8 5600 5666 5672 5606 5601 5667 5673 5607
8 5601 5667 5673 5607 5602 5668 5674 5608
8 5602 5668 5674 5608 5603 5669 5675 5609
8 5610 5676 5682 5616 5611 5677 5683 5617
8 5611 5677 5683 5617 5612 5678 5684 5618
8 5612 5678 5684 5618 5613 5679 5685 5619
8 5613 5679 5685 5619 5614 5680 5686 5620
8 5614 5680 5686 5620 5615 5681 5687 5621
8 5616 5682 5688 5622 5617 5683 5689 5623
8 5617 5683 5689 5623 5618 5684 5690 5624
8 5618 5684 5690 5624 5619 5685 5691 5625
8 5619 5685 5691 5625 5620 5686 5692 5626
8 5620 5686 5692 5626 5621 5687 5693 5627
8 5622 5688 5694 5628 5623 5689 5695 5629
8 5623 5689 5695 5629 5624 5690 5696 5630
8 5624 5690 5696 5630 5625 5691 5697 5631
8 5625 5691 5697 5631 5626 5692 5698 5632
8 5626 5692 5698 5632 5627 5693 5699 5633
8 5628 5694 5700 5634 5629 5695 5701 5635
8 5629 5695 5701 5635 5630 5696 5702 5636
8 5630 5696 5702 5636 5631 5697 5703 5637
8 5631 5697 5703 5637 5632 5698 5704 5638
8 5632 5698 5704 5638 5633 5699 5705 5639
8 5634 5700 5706 5640 5635 5701 5707 5641
8 5635 5701 5707 5641 5636 5702 5708 5642
8 5636 5702 5708 5642 5637 5703 5709 5643
8 5637 5703 5709 5643 5638 5704 5710 5644
8 5638 5704 5710 5644 5639 5705 5711 5645
8 5640 5706 5712 5646 5641 5707 5713 5647
8 5641 5707 5713 5647 5642 5708 5714 5648
8 5642 5708 5714 5648 5643 5709 5715 5649
8 5643 5709 5715 5649 5644 5710 5716 5650
8 5644 5710 5716 5650 5645 5711 5717 5651
8 5646 5712 5718 5652 5647 5713 5719 5653
8 5647 5713 5719 5653 5648 5714 5720 5654
8 5648 5714 5720 5654 5649 5715 5721 5655
8 5649 5715 5721 5655 5650 5716 5722 5656
8 5650 5716 5722 5656 5651 5717 5723 5657
8 5652 5718 5724 5658 5653 5719 5725 5659
8 5653 5719 5725 5659 5654 5720 5726 5660
8 5654 5720 5726 5660 5655 5721 5727 5661
8 5655 5721 5727 5661 5656 5722 5728 5662
8 5656 5722 5728 5662 5657 5723 5729 5663
8 5658 5724 5730 5664 5659 5725 5731 5665
8 5659 5725 5731 5665 5660 5726 5732 5666
8 5660 5726 5732 5666 5661 5727 5733 5667
8 5661 5727 5733 5667 5662 5728 5734 5668
8 5662 5728 5734 5668 5663 5729 5735 5669
8 5664 5730 5736 5670 5665 5731 5737 5671
8 5665 5731 5737 5671 5666 5732 5738 5672
8 5666 5732 5738 5672 5667 5733 5739 5673
8 5667 5733 5739 5673 5668 5734 5740 5674
8 5668 5734 5740 5674 5669 5735 5741 5675
8 5676 5742 5748 5682 5677 5743 5749 5683
8 5677 5743 5749 5683 5678 5744 5750 5684
8 5678 5744 5750 5684 5679 5745 5751 5685
8 5679 5745 5751 5685 5680 5746 5752 5686
8 5680 5746 5752 5686 5681 5747 5753 5687
8 5682 5748 5754 5688 5683 5749 5755 5689
8 5683 5749 5755 5689 5684 5750 5756 5690
8 5684 5750 5756 5690 5685 5751 5757 5691
8 5685 5751 5757 5691 5686 5752 5758 5692
8 5686 5752 5758 5692 5687 5753 5759 5693
8 5688 5754 5760 5694 5689 5755 5761 5695
8 5689 5755 5761 5695 5690 5756 5762 5696
8 5690 5756 5762 5696 5691 5757 5763 5697
8 5691 5757 5763 5697 5692 5758 5764 5698
8 5692 5758 5764 5698 5693 5759 5765 5699
8 5694 5760 5766 5700 5695 5761 5767 5701
8 5695 5761 5767 5701 5696 5762 5768 5702
8 5696 5762 5768 5702 5697 5763 5769 5703
8 5697 5763 5769 5703 5698 5764 5770 5704
8 5698 5764 5770 5704 5699 5765 5771 5705
8 5700 5766 5772 5706 5701 5767 5773 5707
8 5701 5767 5773 5707 5702 5768 5774 5708
8 5702 5768 5774 5708 5703 5769 5775 5709
8 5703 5769 5775 5709 5704 5770 5776 5710
8 5704 5770 5776 5710 5705 5771 5777 5711
8 5706 5772 5778 5712 5707 5773 5779 5713
8 5707 5773 5779 5713 5708 5774 5780 5714
8 5708 5774 5780 5714 5709 5775 5781 5715
8 5709 5775 5781 5715 5710 5776 5782 5716
8 5710 5776 5782 5716 5711 5777 5783 5717
8 5712 5778 5784 5718 5713 5779 5785 5719
8 5713 5779 5785 5719 5714 5780 5786 5720
8 5714 5780 5786 5720 5715 5781 5787 5721
8 5715 5781 5787 5721 5716 5782 5788 5722
8 5716 5782 5788 5722 5717 5783 5789 5723
8 5718 5784 5790 5724 5719 5785 5791 5725
8 5719 5785 5791 5725 5720 5786 5792 5726
8 5720 5786 5792 5726 5721 5787 5793 5727
8 5721 5787 5793 5727 5722 5788 5794 5728
8 5722 5788 5794 5728 5723 5789 5795 5729
8 5724 5790 5796 5730 5725 5791 5797 5731
8 5725 5791 5797 5731 5726 5792 5798 5732
8 5726 5792 5798 5732 5727 5793 5799 5733
8 5727 5793 5799 5733 5728 5794 5800 5734
8 5728 5794 5800 5734 5729 5795 5801 5735
8 5730 5796 5802 5736 5731 5797 5803 5737
8 5731 5797 5803 5737 5732 5798 5804 5738
8 5732 5798 5804 5738 5733 5799 5805 5739
8 5733 5799 5805 5739 5734 5800 5806 5740
8 5734 5800 5806 5740 5735 5801 5807 5741
8 5742 5808 5814 5748 5743 5809 5815 5749
8 5743 5809 5815 5749 5744 5810 5816 5750
8 5744 5810 5816 5750 5745 5811 5817 5751
8 5745 5811 5817 5751 5746 5812 5818 5752
8 5746 5812 5818 5752 5747 5813 5819 5753
8 5748 5814 5820 5754 5749 5815 5821 5755
8 5749 5815 5821 5755 5750 5816 5822 5756
8 5750 5816 5822 5756 5751 5817 5823 5757
8 5751 5817 5823 5757 5752 5818 5824 5758
8 5752 5818 5824 5758 5753 5819 5825 5759
8 5754 5820 5826 5760 5755 5821 5827 5761
8 5755 5821 5827 5761 5756 5822 5828 5762
8 5756 5822 5828 5762 5757 5823 5829 5763
8 5757 5823 5829 5763 5758 5824 5830 5764
8 5758 5824 5830 5764 5759 5825 5831 5765
8 5760 5826 5832 5766 5761 5827 5833 5767
8 5761 5827 5833 5767 5762 5828 5834 5768
8 5762 5828 5834 5768 5763 5829 5835 5769
8 5763 5829 5835 5769 5764 5830 5836 5770
8 5764 5830 5836 5770 5765 5831 5837 5771
8 5766 5832 5838 5772 5767 5833 5839 5773
8 5767 5833 5839 5773 5768 5834 5840 5774
8 5768 5834 5840 5774 5769 5835 5841 5775
8 5769 5835 5841 5775 5770 5836 5842 5776
8 5770 5836 5842 5776 5771 5837 5843 5777
8 5772 5838 5844 5778 5773 5839 5845 5779
8 5773 5839 5845 5779 5774 5840 5846 5780
8 5774 5840 5846 5780 5775 5841 5847 5781
8 5775 5841 5847 5781 5776 5842 5848 5782
8 5776 5842 5848 5782 5777 5843 5849 5783
8 5778 5844 5850 5784 5779 5845 5851 5785
8 5779 5845 5851 5785 5780 5846 5852 5786
8 5780 5846 5852 5786 5781 5847 5853 5787
8 5781 5847 5853 5787 5782 5848 5854 5788
8 5782 5848 5854 5788 5783 5849 5855 5789
8 5784 5850 5856 5790 5785 5851 5857 5791
8 5785 5851 5857 5791 5786 5852 5858 5792
8 5786 5852 5858 5792 5787 5853 5859 5793
8 5787 5853 5859 5793 5788 5854 5860 5794
8 5788 5854 5860 5794 5789 5855 5861 5795
8 5790 5856 5862 5796 5791 5857 5863 5797
8 5791 5857 5863 5797 5792 5858 5864 5798
8 5792 5858 5864 5798 5793 5859 5865 5799
8 5793 5859 5865 5799 5794 5860 5866 5800
8 5794 5860 5866 5800 5795 5861 5867 5801
8 5796 5862 5868 5802 5797 5863 5869 5803
8 5797 5863 5869 5803 5798 5864 5870 5804
8 5798 5864 5870 5804 5799 5865 5871 5805
8 5799 5865 5871 5805 5800 5866 5872 5806
8 5800 5866 5872 5806 5801 5867 5873 5807
CELL_TYPES 2898
12
12
12
12
12
12
12
12
12
12
12
12
12
12
12
12
12
12
12
12
12
12
12
12
12
12
12
12
12
12
12
12
12
12
12
12
12
12
12
12
12
12
12
12
12
12
12
12
12
12
12
12
12
12
12
12
12
12
12
12
12
12
12
12
12
12
12
12
12
12
12
12
12
12
12
12
12
12
12
12
12
12
12
12
12
12
12
12
12
12
12
12
12
12
12
12
12
12
12
12
12
12
12
12
12
12
12
12
12
12
12
12
12
12
12
12
12
12
12
12
12
12
12
12
12
12
12
12
12
12
12
12
12
12
12
12
12
12
12
12
12
12
12
12
12
12
12
12
12
12
12
12
12
12
12
12
12
12
12
12
12
12
12
12
12
12
12
12
12
12
12
12
12
12
12
12
12
12
12
12
12
12
12
12
12
12
12
12
12
12
12
12
12
12
12
12
12
12
12
12
12
12
12
12
12
12
12
12
12
12
12
12
12
12
12
12
12
12
12
12
12
12
12
12
12
12
12
12
12
12
12
12
12
12
12
12
12
12
12
12
12
12
12
12
12
12
12
12
12
12
12
12
12
12
12
12
12
12
12
12
12
12
12
12
12
12
12
12
12
12
12
12
12
12
12
12
12
12
12
12
12
12
12
12
12
12
12
12
12
12
12
12
12
12
12
12
12
12
12
12
12
12
12
12
12
12
12
12
12
12
12
12
12
12
12
12
12
12
12
12
12
12
12
12
12
12
12
12
12
12
12
12
12
12
12
12
12
12
12
12
12
12
12
12
12
12
12
12
12
12
12
12
12
12
12
12
12
12
12
12
12
12
12
12
12
12
12
12
12
12
12
12
12
12
12
12
12
12
12
12
12
12
12
12
12
12
12
12
12
12
12
12
12
12
12
12
12
12
12
12
12
12
12
12
12
12
12
12
12
12
12
12
12
12
12
12
12
12
12
12
12
12
12
12
12
12
12
12
12
12
12
12
12
12
12
12
12
12
12
12
12
12
12
12
12
12
12
12
12
12
12
12
12
12
12
12
12
12
12
12
12
12
12
12
12
12
12
12
12
12
12
12
12
12
12
12
12
12
12
12
12
12
12
12
12
12
12
12
12
12
12
12
12
12
12
12
12
12
12
12
12
12
12
12
12
12
12
12
12
12
12
12
12
12
12
12
12
12
12
12
12
12
12
12
12
12
12
12
12
12
12
12
12
12
12
12
12
12
12
12
12
12
12
12
12
12
12
12
12
12
12
12
12
12
12
12
12
12
12
12
12
12
12
12
12
12
12
12
12
12
12
12
12
12
12
12
12
12
12
12
12
12
12
12
12
12
12
12
12
12
12
12
12
12
12
12
12
12
12
12
12
12
12
12
12
12
12
12
12
12
12
12
12
12
12
12
12
12
12
12
12
12
12
12
12
12
12
12
12
12
12
12
12
12
12
12
12
12
12
12
12
12
12
12
12
12
12
12
12
12
12
12
12
12
12
12
12
12
12
12
12
12
12
12
12
12
12
12
12
12
12
12
12
12
12
12
12
12
12
12
12
12
12
12
12
12
12
12
12
12
12
12
12
12
12
12
12
12
12
12
12
12
12
12
12
12
12
12
12
12
12
12
12
12
12
12
12
12
12
12
12
12
12
12
12
12
12
12
12
12
12
12
12
12
12
12
12
12
12
12
12
12
12
12
12
12
12
12
12
12
12
12
12
12
12
12
12
12
12
12
12
12
12
12
12
12
12
12
12
12
12
12
12
12
12
12
12
12
12
12
12
12
12
12
12
12
12
12
12
12
12
12
12
12
12
12
12
12
12
12
12
12
12
12
12
12
12
12
12
12
12
12
12
12
12
12
12
12
12
12
12
12
12
12
12
12
12
12
12
12
12
12
12
12
12
12
12
12
12
12
12
12
12
12
12
12
12
12
12
12
12
12
12
12
12
12
12
12
12
12
12
12
12
12
12
12
12
12
12
12
12
12
12
12
12
12
12
12
12
12
12
12
12
12
12
12
12
12
12
12
12
12
12
12
12
12
12
12
12
12
12
12
12
12
12
12
12
12
12
12
12
12
12
12
12
12
12
12
12
12
12
12
12
12
12
12
12
12
12
12
12
12
12
12
12
12
12
12
12
12
12
12
12
12
12
12
12
12
12
12
12
12
12
12
12
12
12
12
12
12
12
12
12
12
12
12
12
12
12
12
12
12
12
12
12
12
12
12
12
12
12
12
12
12
12
12
12
12
12
12
12
12
12
12
12
12
12
12
12
12
12
12
12
12
12
12
12
12
12
12
12
12
12
12
12
12
12
12
12
12
12
12
12
12
12
12
12
12
12
12
12
12
12
12
12
12
12
12
12
12
12
12
12
12
12
12
12
12
12
12
12
12
12
12
12
12
12
12
12
12
12
12
12
12
12
12
12
12
12
12
12
12
12
12
12
12
12
12
12
12
12
12
12
12
12
12
12
12
12
12
12
12
12
12
12
12
12
12
12
12
12
12
12
12
12
12
12
12
12
12
12
12
12
12
12
12
12
12
12
12
12
12
12
12
12
12
12
12
12
12
12
12
12
12
12
12
12
12
12
12
12
12
12
12
12
12
12
12
12
12
12
12
12
12
12
12
12
12
12
12
12
12
12
12
12
12
12
12
12
12
12
12
12
12
12
12
12
12
12
12
12
12
12
12
12
12
12
12
12
12
12
12
12
12
12
12
12
12
12
12
12
12
12
12
12
12
12
12
12
12
12
12
12
12
12
12
12
12
12
12
12
12
12
12
12
12
12
12
12
12
12
12
12
12
12
12
12
12
12
12
12
12
12
12
12
12
12
12
12
12
12
12
12
12
12
12
12
12
12
12
12
12
12
12
12
12
12
12
12
12
12
12
12
12
12
12
12
12
12
12
12
12
12
12
12
12
12
12
12
12
12
12
12
12
12
12
12
12
12
12
12
12
12
12
12
12
12
12
12
12
12
12
12
12
12
12
12
12
12
12
12
12
12
12
12
12
12
12
12
12
12
12
12
12
12
12
12
12
12
12
12
12
12
12
12
12
12
12
12
12
12
12
12
12
12
12
12
12
12
12
12
12
12
12
12
12
12
12
12
12
12
12
12
12
12
12
12
12
12
12
12
12
12
12
12
12
12
12
12
12
12
12
12
12
12
12
12
12
12
12
12
12
12
12
12
12
12
12
12
12
12
12
12
12
12
12
12
12
12
12
12
12
12
12
12
12
12
12
12
12
12
12
12
12
12
12
12
12
12
12
12
12
12
12
12
12
12
12
12
12
12
12
12
12
12
12
12
12
12
12
12
12
12
12
12
12
12
12
12
12
12
12
12
12
12
12
12
12
12
12
12
12
12
12
12
12
12
12
12
12
12
12
12
12
12
12
12
12
12
12
12
12
12
12
12
12
12
12
12
12
12
12
12
12
12
12
12
12
12
12
12
12
12
12
12
12
12
12
12
12
12
12
12
12
12
12
12
12
12
12
12
12
12
12
12
12
12
12
12
12
12
12
12
12
12
12
12
12
12
12
12
12
12
12
12
12
12
12
12
12
12
12
12
12
12
12
12
12
12
12
12
12
12
12
12
12
12
12
12
12
12
12
12
12
12
12
12
12
12
12
12
12
12
12
12
12
12
12
12
12
12
12
12
12
12
12
12
12
12
12
12
12
12
12
12
12
12
12
12
12
12
12
12
12
12
12
12
12
12
12
12
12
12
12
12
12
12
12
12
12
12
12
12
12
12
12
12
12
12
12
12
12
12
12
12
12
12
12
12
12
12
12
12
12
12
12
12
12
12
12
12
12
12
12
12
12
12
12
12
12
12
12
12
12
12
12
12
12
12
12
12
12
12
12
12
12
12
12
12
12
12
12
12
12
12
12
12
12
12
12
12
12
12
12
12
12
12
12
12
12
12
12
12
12
12
12
12
12
12
12
12
12
12
12
12
12
12
12
12
12
12
12
12
12
12
12
12
12
12
12
12
12
12
12
12
12
12
12
12
12
12
12
12
12
12
12
12
12
12
12
12
12
12
12
12
12
12
12
12
12
12
12
12
12
12
12
12
12
12
12
12
12
12
12
12
12
12
12
12
12
12
12
12
12
12
12
12
12
12
12
12
12
12
12
12
12
12
12
12
12
12
12
12
12
12
12
12
12
12
12
12
12
12
12
12
12
12
12
12
12
12
12
12
12
12
12
12
12
12
12
12
12
12
12
12
12
12
12
12
12
12
12
12
12
12
12
12
12
12
12
12
12
12
12
12
12
12
12
12
12
12
12
12
12
12
12
12
12
12
12
12
12
12
12
12
12
12
12
12
12
12
12
12
12
12
12
12
12
12
12
12
12
12
12
12
12
12
12
12
12
12
12
12
12
12
12
12
12
12
12
12
12
12
12
12
12
12
12
12
12
12
12
12
12
12
12
12
12
12
12
12
12
12
12
12
12
12
12
12
12
12
12
12
12
12
12
12
12
12
12
12
12
12
12
12
12
12
12
12
12
12
12
12
12
12
12
12
12
12
12
12
12
12
12
12
12
12
12
12
12
12
12
12
12
12
12
12
12
12
12
12
12
12
12
12
12
12
12
12
12
12
12
12
12
12
12
12
12
12
12
12
12
12
12
12
12
12
12
12
12
12
12
12
12
12
12
12
12
12
12
12
12
12
12
12
12
12
12
12
12
12
12
12
12
12
12
12
12
12
12
12
12
12
12
12
12
12
12
12
12
12
12
12
12
12
12
12
12
12
12
12
12
12
12
12
12
12
12
12
12
12
12
12
12
12
12
12
12
12
12
12
12
12
12
12
12
12
12
12
12
12
12
12
12
12
12
12
12
12
12
12
12
12
12
12
12
12
12
12
12
12
12
12
12
12
12
12
12
12
12
12
12
12
12
12
12
12
12
12
12
12
12
12
12
12
12
12
12
12
12
12
12
12
12
12
12
12
12
12
12
12
12
12
12
12
12
12
12
12
12
12
12
12
12
12
12
12
12
12
12
12
12
12
12
12
12
12
12
12
12
12
12
12
12
12
12
12
12
12
12
12
12
12
12
12
12
12
12
12
12
12
12
12
12
12
12
12
12
12
12
12
12
12
12
12
12
12
12
12
12
12
12
12
12
12
12
12
12
12
12
12
12
12
12
12
12
12
12
12
12
12
12
12
12
12
12
12
12
12
12
12
12
12
12
12
12
12
12
12
12
12
12
12
12
12
12
12
12
12
12
12
12
12
12
12
12
12
12
12
12
12
12
12
12
12
12
12
12
12
12
12
12
12
12
12
12
12
12
12
12
12
12
12
12
12
12
12
12
12
12
12
12
12
12
12
12
12
12
12
12
12
12
12
12
12
12
12
12
12
12
12
12
12
12
12
12
12
12
12
12
12
12
12
12
12
12
12
12
12
12
12
12
12
12
12
12
12
12
12
12
12
12
12
12
12
12
12
12
12
12
12
12
12
12
12
12
12
12
12
12
12
12
12
12
12
12
12
12
12
12
12
12
12
12
12
12
12
12
12
12
12
12
12
12
12
12
12
12
12
12
12
12
12
12
12
12
12
12
12
12
12
12
12
12
12
12
12
12
12
12
12
12
12
12
12
12
12
12
12
12
12
12
12
12
12
12
12
12
12
12
12
12
12
12
12
12
12
12
12
12
12
12
12
12
12
12
12
12
12
12
12
12
12
12
12
12
12
12
12
12
12
12
12
12
12
12
12
12
12
12
12
12
12
12
12
12
12
12
12
12
12
12
12
12
12
12
12
12
12
12
12
12
12
12
12
12
12
12
12
12
12
12
12
12
12
12
12
12
12
12
12
12
12
12
12
12
12
12
12
12
12
12
12
12
12
12
12
12
12
12
12
12
12
12
12
12
12
12
12
12
12
12
12
12
12
12
12
12
12
12
12
12
12
12
12
12
12
12
12
12
12
12
12
12
12
12
12
12
12
12
12
12
12
12
12
12
12
12
12
12
12
12
12
12
12
12
12
12
12
12
12
12
12
12
12
12
12
12
12
12
12
12
12
12
12
12
12
12
12
12
12
12
12
12
12
12
12
12
12
12
12
12
12
12
12
12
12
12
12
12
12
12
12
12
12
12
12
12
12
12
12
12
12
12
12
12
12
12
12
12
12
12
12
12
12
12
12
12
12
12
12
12
12
12
12
12
12
12
12
12
12
12
12
12
12
12
12
12
12
12
12
12
12
12
12
12
12
12
12
12
12
12
12
12
12
12
12
12
12
12
12
12
12
12
12
12
12
12
12
12
12
12
12
12
12
12
12
12
12
12
12
12
12
12
12
12
12
12
12
12
12
12
12
12
12
12
12
12
12
12
12
12
12
12
12
12
12
12
12
12
12
12
12
12
12
12
12
12
12
12
12
12
12
12
12
12
12
12
12
12
12
12
12
12
12
12
12
12
12
12
12
12
12
12
12
12
12
12
12
12
12
12
12
12
12
12
12
12
12
12
12
12
12
12
12
12
12
12
12
12
12
12
12
12
12
12
12
12
12
12
12
12
12
12
12
12
12
12
12
12
12
12
12
12
12
12
12
12
POINT_DATA 5874
VECTORS DISPLACEMENT float
7.592218e-02 -9.170238e-03 2.800444e+01
7.632660e-02 -1.726340e-02 2.799997e+01
1.051820e-01 -1.740885e-02 2.800448e+01
9.949974e-02 -1.509496e-02 2.801145e+01
7.584579e-02 -9.167438e-03 2.800387e+01
7.628040e-02 -1.729911e-02 2.799938e+01
1.053065e-01 -1.736842e-02 2.800407e+01
9.963244e-02 -1.528968e-02 2.801107e+01
8.122242e-02 -2.134285e-02 2.800163e+01
9.354310e-02 -1.478875e-02 2.801208e+01
8.123942e-02 -2.136896e-02 2.800140e+01
9.377456e-02 -1.448166e-02 2.801173e+01
8.724964e-02 2.765730e-04 2.804413e+01
1.010528e-01 -1.324218e-02 2.803075e+01
8.871744e-02 4.909777e-04 2.804462e+01
1.019465e-01 -1.302366e-02 2.803099e+01
1.088357e-01 -2.095289e-02 2.802896e+01
1.088946e-01 -2.088310e-02 2.802874e+01
3.864530e-02 -5.473154e-03 2.800190e+01
3.898945e-02 -8.864472e-03 2.799928e+01
3.401901e-02 -8.587278e-03 2.799678e+01
3.762987e-02 -3.007981e-03 2.800040e+01
3.872665e-02 -5.451384e-03 2.800184e+01
3.907615e-02 -8.886511e-03 2.799916e+01
3.408284e-02 -8.703092e-03 2.799658e+01
3.768569e-02 -3.098857e-03 2.800036e+01
3.971558e-02 -1.413440e-02 2.799790e+01
3.302912e-02 -1.491429e-02 2.799556e+01
3.980732e-02 -1.416548e-02 2.799780e+01
3.314522e-02 -1.496673e-02 2.799528e+01
2.426002e-02 -1.480850e-02 2.799301e+01
2.847682e-02 -4.229782e-03 2.799425e+01
2.436287e-02 -1.494906e-02 2.799275e+01
2.854899e-02 -4.377198e-03 2.799412e+01
3.429570e-02 1.682192e-03 2.800101e+01
3.434545e-02 1.605927e-03 2.800088e+01
3.187013e-02 3.975369e-03 2.800347e+01
3.678880e-02 6.161168e-03 2.800478e+01
3.826798e-02 3.047342e-03 2.800445e+01
3.191281e-02 3.932222e-03 2.800334e+01
3.681987e-02 6.173212e-03 2.800476e+01
3.831984e-02 3.061532e-03 2.800442e+01
3.095842e-02 5.485404e-03 2.800530e+01
3.346625e-02 7.119333e-03 2.800538e+01
3.099360e-02 5.473779e-03 2.800525e+01
3.350558e-02 7.156455e-03 2.800532e+01
3.419440e-02 8.202943e-03 2.800610e+01
3.398249e-02 7.964820e-03 2.800686e+01
3.422859e-02 8.217308e-03 2.800615e+01
3.403636e-02 8.011821e-03 2.800683e+01
3.779170e-02 5.845334e-03 2.800779e+01
3.784793e-02 5.883453e-03 2.800771e+01
1.871780e-02 1.042777e-02 2.799387e+01
2.090685e-02 9.929686e-03 2.799382e+01
2.077737e-02 8.775944e-03 2.799647e+01
1.914537e-02 7.620643e-03 2.799518e+01
1.873762e-02 1.043615e-02 2.799385e+01
2.092651e-02 9.932550e-03 2.799387e+01
2.080997e-02 8.792709e-03 2.799646e+01
1.915463e-02 7.625697e-03 2.799515e+01
2.330642e-02 1.516402e-02 2.799627e+01
2.210120e-02 1.231518e-02 2.799964e+01
2.329870e-02 1.514466e-02 2.799628e+01
2.212321e-02 1.231162e-02 2.799965e+01
2.449804e-02 1.041225e-02 2.800193e+01
2.275242e-02 7.295373e-03 2.799884e+01
2.454836e-02 1.047107e-02 2.800190e+01
2.277938e-02 7.326079e-03 2.799885e+01
2.064104e-02 5.174773e-03 2.799707e+01
2.066791e-02 5.229212e-03 2.799702e+01
3.152444e-02 1.110870e-02 2.800724e+01
2.721946e-02 1.165988e-02 2.800456e+01
2.493213e-02 1.513653e-02 2.800267e+01
3.060985e-02 1.718806e-02 2.800654e+01
3.160065e-02 1.115080e-02 2.800712e+01
2.727439e-02 1.176926e-02 2.800451e+01
2.498120e-02 1.510849e-02 2.800262e+01
3.070056e-02 1.722411e-02 2.800648e+01
2.686755e-02 1.822988e-02 2.799974e+01
2.688898e-02 1.821624e-02 2.799976e+01
3.018684e-02 2.248886e-02 2.800435e+01
3.024404e-02 2.247481e-02 2.800440e+01
1.540461e-02 7.918859e-03 2.799232e+01
1.644201e-02 8.339587e-03 2.799290e+01
1.735207e-02 6.974319e-03 2.799424e+01
1.590100e-02 6.589069e-03 2.799311e+01
1.541033e-02 7.927406e-03 2.799232e+01
1.648609e-02 8.373822e-03 2.799290e+01
1.739369e-02 6.997809e-03 2.799423e+01
1.593053e-02 6.613274e-03 2.799310e+01
1.832919e-02 5.172828e-03 2.799554e+01
1.834667e-02 5.176555e-03 2.799555e+01
1.639769e-02 4.753758e-03 2.799398e+01
1.641926e-02 4.791880e-03 2.799398e+01
-1.096073e-04 -3.547603e-03 2.798939e+01
-5.379937e-04 -2.397820e-03 2.798943e+01
7.905388e-03 -2.126061e-03 2.799195e+01
8.567088e-03 -2.832684e-03 2.799313e+01
-1.060470e-04 -3.622445e-03 2.798936e+01
-5.146520e-04 -2.483740e-03 2.798941e+01
7.946949e-03 -2.265168e-03 2.799188e+01
8.609637e-03 -2.969102e-03 2.799303e+01
2.627522e-04 -1.257741e-03 2.798957e+01
7.003219e-03 -1.461992e-03 2.799121e+01
2.745571e-04 -1.342549e-03 2.798956e+01
7.054422e-03 -1.592627e-03 2.799112e+01
1.355205e-02 -3.739286e-04 2.799269e+01
1.542828e-02 -6.460196e-04 2.799430e+01
1.358177e-02 -4.753257e-04 2.799266e+01
1.546921e-02 -7.287570e-04 2.799422e+01
1.828616e-02 -1.010669e-03 2.799661e+01
1.834312e-02 -1.106017e-03 2.799654e+01
1.393849e-02 1.293892e-03 2.799252e+01
1.400642e-02 1.799406e-03 2.799222e+01
1.452916e-02 1.495121e-03 2.799234e+01
1.390817e-02 9.444179e-04 2.799227e+01
1.393687e-02 1.282590e-03 2.799247e+01
1.401947e-02 1.847074e-03 2.799226e+01
1.453540e-02 1.485512e-03 2.799235e+01
1.390522e-02 9.347824e-04 2.799223e+01
1.439295e-02 3.108501e-03 2.799228e+01
1.503242e-02 2.340536e-03 2.799256e+01
1.440012e-02 3.090242e-03 2.799229e+01
1.506401e-02 2.397185e-03 2.799251e+01
1.556913e-02 1.532702e-03 2.799272e+01
1.408327e-02 2.940956e-04 2.799216e+01
1.556604e-02 1.536099e-03 2.799268e+01
1.409599e-02 2.826897e-04 2.799212e+01
1.230729e-02 -2.458734e-04 2.799170e+01
1.232370e-02 -3.130832e-04 2.799167e+01
6.268144e-02 1.981508e-02 2.802654e+01
7.215943e-02 1.922012e-02 2.803379e+01
8.643167e-02 5.537052e-03 2.801232e+01
7.169350e-02 7.667175e-03 2.801533e+01
6.303950e-02 2.007599e-02 2.802650e+01
7.277613e-02 1.960772e-02 2.803376e+01
8.655173e-02 5.456167e-03 2.801206e+01
7.182461e-02 7.693580e-03 2.801503e+01
8.917228e-02 9.390533e-03 2.804066e+01
8.681729e-02 3.578686e-03 2.801125e+01
8.998710e-02 9.976270e-03 2.804051e+01
8.694197e-02 3.171954e-03 2.801107e+01
6.481087e-02 -2.426589e-03 2.800625e+01
5.309828e-02 -1.428400e-03 2.801150e+01
6.483116e-02 -2.540923e-03 2.800583e+01
5.307859e-02 -1.800945e-03 2.801126e+01
5.364939e-02 -6.759043e-04 2.801314e+01
5.366867e-02 -8.713924e-04 2.801304e+01
5.002119e-02 -1.734159e-03 2.801284e+01
4.852043e-02 1.866858e-03 2.801124e+01
5.216883e-02 2.675605e-03 2.801311e+01
5.004223e-02 -1.733609e-03 2.801282e+01
4.854179e-02 1.825176e-03 2.801115e+01
5.222009e-02 2.683970e-03 2.801301e+01
4.702649e-02 -2.334486e-03 2.801053e+01
4.371357e-02 1.491527e-03 2.800853e+01
4.706974e-02 -2.384294e-03 2.801039e+01
4.376361e-02 1.436056e-03 2.800841e+01
4.181924e-02 5.971012e-03 2.800990e+01
4.185266e-02 5.933686e-03 2.800970e+01
4.570049e-02 5.829457e-03 2.801259e+01
4.577332e-02 5.839301e-03 2.801244e+01
3.864647e-02 -1.398138e-03 2.800458e+01
4.106234e-02 -4.443947e-03 2.800637e+01
3.872384e-02 -1.408733e-03 2.800455e+01
4.115217e-02 -4.456701e-03 2.800628e+01
5.680345e-02 -4.673053e-03 2.801124e+01
6.012913e-02 -5.133429e-03 2.800677e+01
6.536862e-02 -1.115685e-02 2.800174e+01
5.762511e-02 -8.249966e-03 2.800754e+01
5.675686e-02 -4.797653e-03 2.801126e+01
6.005072e-02 -5.142214e-03 2.800661e+01
6.524015e-02 -1.147288e-02 2.800145e+01
5.750150e-02 -8.273105e-03 2.800730e+01
7.637896e-02 -1.162659e-02 2.800152e+01
7.645798e-02 -1.152713e-02 2.800133e+01
4.988176e-02 -1.331868e-02 2.800636e+01
4.709240e-02 -7.941638e-03 2.800871e+01
5.436997e-02 -6.857346e-03 2.801287e+01
5.384314e-02 -1.295517e-02 2.801118e+01
4.995936e-02 -1.328717e-02 2.800624e+01
4.717071e-02 -7.946261e-03 2.800854e+01
5.442992e-02 -6.889982e-03 2.801280e+01
5.391919e-02 -1.296242e-02 2.801116e+01
5.440794e-02 -3.942743e-03 2.801318e+01
5.442354e-02 -3.926152e-03 2.801307e+01
5.478698e-02 -8.181846e-03 2.801400e+01
5.479938e-02 -8.187237e-03 2.801401e+01
5.668447e-02 -1.096487e-02 2.801518e+01
5.675363e-02 -1.090184e-02 2.801505e+01
5.433553e-02 -3.326400e-03 2.801212e+01
5.432555e-02 -3.158254e-03 2.801205e+01
4.368778e-02 -9.057537e-03 2.800373e+01
4.378242e-02 -9.013149e-03 2.800365e+01
4.401448e-02 -1.383594e-02 2.800182e+01
4.411329e-02 -1.384449e-02 2.800172e+01
5.378097e-02 -1.753928e-02 2.800981e+01
4.889970e-02 -1.852766e-02 2.800393e+01
5.387293e-02 -1.750400e-02 2.800966e+01
4.901591e-02 -1.856505e-02 2.800385e+01
5.994121e-02 -1.639586e-02 2.801561e+01
6.004990e-02 -1.639787e-02 2.801543e+01
6.397806e-02 -2.609895e-02 2.801633e+01
5.465230e-02 -2.462039e-02 2.800898e+01
6.403196e-02 -2.606409e-02 2.801623e+01
5.474616e-02 -2.463880e-02 2.800895e+01
4.680920e-02 -2.517680e-02 2.800342e+01
4.691158e-02 -2.521530e-02 2.800337e+01
3.923311e-02 -2.388118e-02 2.799951e+01
4.368970e-02 -1.873792e-02 2.799915e+01
3.936901e-02 -2.393445e-02 2.799950e+01
4.377713e-02 -1.876407e-02 2.799901e+01
3.625284e-02 -2.611311e-02 2.799636e+01
3.564155e-02 -2.098465e-02 2.799543e+01
3.634470e-02 -2.617334e-02 2.799635e+01
3.571020e-02 -2.095434e-02 2.799521e+01
2.949102e-02 -2.174357e-02 2.799289e+01
2.453333e-02 -2.264844e-02 2.799024e+01
2.961545e-02 -2.173534e-02 2.799272e+01
2.459472e-02 -2.252779e-02 2.798998e+01
3.333984e-02 -2.661793e-02 2.799325e+01
3.338720e-02 -2.647432e-02 2.799305e+01
2.882493e-02 -2.811096e-02 2.799040e+01
2.892637e-02 -2.809062e-02 2.799031e+01
2.920806e-02 8.466538e-03 2.800420e+01
2.372901e-02 5.585036e-03 2.800139e+01
2.923309e-02 8.533109e-03 2.800412e+01
2.376991e-02 5.599188e-03 2.800134e+01
2.645565e-02 3.590355e-03 2.800365e+01
2.650572e-02 3.634566e-03 2.800360e+01
2.243743e-02 2.480173e-03 2.800070e+01
2.299465e-02 4.078890e-03 2.799890e+01
2.248510e-02 2.454596e-03 2.800066e+01
2.302064e-02 4.092874e-03 2.799893e+01
7.858383e-04 -1.273742e-03 2.798944e+01
7.594922e-04 -8.170290e-04 2.798940e+01
5.371245e-03 -1.136752e-03 2.799021e+01
5.533025e-03 -6.754608e-04 2.799046e+01
7.936042e-04 -1.334263e-03 2.798941e+01
7.479127e-04 -8.341754e-04 2.798945e+01
5.378700e-03 -1.236153e-03 2.799019e+01
5.529790e-03 -7.745617e-04 2.799043e+01
2.172664e-03 -6.315396e-04 2.798957e+01
4.801268e-03 -1.001906e-03 2.799008e+01
2.171896e-03 -6.588100e-04 2.798956e+01
4.806218e-03 -1.068178e-03 2.799007e+01
6.475103e-03 7.330813e-04 2.799071e+01
9.862163e-03 1.071077e-03 2.799119e+01
6.481890e-03 7.268106e-04 2.799064e+01
9.867767e-03 1.017002e-03 2.799113e+01
1.171849e-03 -3.704034e-05 2.798963e+01
1.085814e-03 1.539143e-04 2.798928e+01
3.476744e-04 9.028975e-05 2.798920e+01
7.844747e-04 4.667236e-04 2.798975e+01
1.178018e-03 -1.979686e-05 2.798963e+01
1.091696e-03 1.626517e-04 2.798929e+01
3.497733e-04 1.027309e-04 2.798924e+01
7.883226e-04 4.703733e-04 2.798977e+01
1.206892e-03 6.296347e-05 2.798915e+01
5.325119e-04 -2.375314e-04 2.798892e+01
1.208755e-03 7.565051e-05 2.798914e+01
5.344879e-04 -2.645555e-04 2.798896e+01
-6.380717e-04 -4.099035e-04 2.798858e+01
-4.496821e-04 2.098043e-04 2.798894e+01
-6.405044e-04 -3.825792e-04 2.798862e+01
-4.522930e-04 2.179391e-04 2.798895e+01
-4.567221e-04 7.446878e-04 2.798956e+01
-4.545986e-04 7.440257e-04 2.798958e+01
9.887505e-03 1.311648e-03 2.799161e+01
9.730185e-03 9.718247e-04 2.799217e+01
9.900280e-03 1.305585e-03 2.799154e+01
9.725275e-03 9.616812e-04 2.799207e+01
5.777144e-03 1.120982e-03 2.799097e+01
5.769958e-03 1.111370e-03 2.799087e+01
5.436222e-03 9.177619e-04 2.799126e+01
5.425169e-03 9.089928e-04 2.799121e+01
1.231564e-02 8.545430e-04 2.799200e+01
1.301186e-02 1.444826e-03 2.799228e+01
9.353834e-03 6.399406e-04 2.799219e+01
9.288484e-03 1.035256e-03 2.799271e+01
1.234274e-02 8.843360e-04 2.799201e+01
1.302258e-02 1.484561e-03 2.799225e+01
9.358422e-03 6.591012e-04 2.799213e+01
9.267548e-03 1.030721e-03 2.799268e+01
5.732163e-03 8.443769e-04 2.799190e+01
5.724474e-03 8.208780e-04 2.799183e+01
5.919350e-03 1.037608e-03 2.799243e+01
5.911889e-03 1.052678e-03 2.799241e+01
1.371017e-02 4.057399e-03 2.799148e+01
1.441448e-02 5.998908e-03 2.799146e+01
1.461878e-02 4.971866e-03 2.799241e+01
1.392969e-02 3.621700e-03 2.799187e+01
1.373296e-02 4.078286e-03 2.799150e+01
1.442274e-02 6.009404e-03 2.799148e+01
1.462294e-02 4.976462e-03 2.799241e+01
1.395433e-02 3.644177e-03 2.799186e+01
1.506887e-02 4.049866e-03 2.799302e+01
1.508848e-02 4.072672e-03 2.799299e+01
1.983121e-02 2.343700e-03 2.799636e+01
2.045769e-02 3.835030e-03 2.799701e+01
2.121527e-02 2.795646e-03 2.799811e+01
1.994902e-02 1.144434e-03 2.799669e+01
1.986343e-02 2.356031e-03 2.799638e+01
2.048229e-02 3.863139e-03 2.799696e+01
2.125484e-02 2.791794e-03 2.799807e+01
1.998802e-02 1.143456e-03 2.799664e+01
2.087722e-02 6.797236e-04 2.799899e+01
2.090652e-02 6.936583e-04 2.799897e+01
1.247013e-02 3.414213e-03 2.799153e+01
1.351688e-02 2.181875e-03 2.799205e+01
1.247312e-02 3.431163e-03 2.799155e+01
1.352417e-02 2.204182e-03 2.799205e+01
3.529581e-02 8.903232e-03 2.800833e+01
3.851437e-02 9.612563e-03 2.801021e+01
3.533647e-02 8.861749e-03 2.800821e+01
3.859000e-02 9.675533e-03 2.801010e+01
3.315316e-02 8.584006e-03 2.800664e+01
3.320619e-02 8.627829e-03 2.800666e+01
1.848096e-02 1.121924e-03 2.799501e+01
1.851528e-02 1.143631e-03 2.799497e+01
1.694000e-02 9.286556e-04 2.799363e+01
1.697280e-02 8.990855e-04 2.799360e+01
1.755554e-02 2.120941e-03 2.799414e+01
1.863954e-02 2.360489e-03 2.799520e+01
1.757117e-02 2.143756e-03 2.799414e+01
1.865055e-02 2.345416e-03 2.799516e+01
1.247205e-02 -2.148442e-04 2.799191e+01
1.558530e-02 6.854948e-04 2.799272e+01
1.250462e-02 -3.102816e-04 2.799184e+01
1.560350e-02 6.656297e-04 2.799270e+01
1.638874e-02 1.796029e-03 2.799331e+01
1.639810e-02 1.812349e-03 2.799327e+01
-1.515100e-03 -8.326170e-04 2.798816e+01
-1.116040e-03 -5.556094e-04 2.798835e+01
-1.043837e-03 -8.918349e-04 2.798858e+01
-1.199880e-03 -9.341467e-04 2.798845e+01
-1.528995e-03 -8.375429e-04 2.798815e+01
-1.120372e-03 -5.696452e-04 2.798840e+01
-1.057058e-03 -9.213114e-04 2.798857e+01
-1.208067e-03 -9.552360e-04 2.798847e+01
-4.528044e-04 -1.097882e-03 2.798876e+01
-4.511728e-04 -1.117750e-03 2.798878e+01
8.185259e-04 -1.165424e-03 2.798943e+01
8.186504e-04 -1.231765e-03 2.798941e+01
4.439379e-02 2.256694e-02 2.801658e+01
5.417776e-02 2.568678e-02 2.802170e+01
5.617996e-02 1.231630e-02 2.801629e+01
4.544889e-02 1.428286e-02 2.801482e+01
4.453421e-02 2.262715e-02 2.801654e+01
5.428618e-02 2.573513e-02 2.802162e+01
5.633072e-02 1.244497e-02 2.801608e+01
4.559067e-02 1.436763e-02 2.801469e+01
3.158815e-02 8.720141e-03 2.800530e+01
3.162283e-02 8.781060e-03 2.800524e+01
1.833796e-02 3.905457e-03 2.799552e+01
1.835221e-02 3.966039e-03 2.799548e+01
1.718690e-02 3.380593e-03 2.799413e+01
1.719880e-02 3.425474e-03 2.799409e+01
5.747077e-02 -6.112597e-03 2.801276e+01
6.167730e-02 -7.019753e-03 2.801645e+01
5.741622e-02 -6.065663e-03 2.801252e+01
6.172138e-02 -6.938662e-03 2.801627e+01
7.399760e-02 -5.809398e-03 2.801108e+01
7.396454e-02 -5.847550e-03 2.801062e+01
6.954517e-02 -6.864257e-03 2.801698e+01
6.961927e-02 -6.930306e-03 2.801666e+01
3.690985e-02 2.663402e-02 2.801248e+01
3.701024e-02 1.778734e-02 2.801120e+01
3.694674e-02 2.662299e-02 2.801239e+01
3.714142e-02 1.785789e-02 2.801111e+01
-1.093319e-03 -6.869996e-05 2.798842e+01
-1.104801e-03 -4.486784e-05 2.798846e+01
-1.482591e-03 -6.131890e-04 2.798795e+01
-1.463773e-03 -5.988635e-04 2.798796e+01
-1.207039e-03 -2.303390e-04 2.798792e+01
-8.122063e-04 3.909683e-04 2.798879e+01
-1.214869e-03 -3.008352e-04 2.798790e+01
-8.101728e-04 4.001329e-04 2.798882e+01
1.442627e-03 -1.218568e-04 2.798924e+01
9.637763e-04 -5.383443e-04 2.798906e+01
1.437214e-03 -1.263712e-04 2.798927e+01
9.716811e-04 -5.197822e-04 2.798911e+01
8.809898e-02 -2.604397e-02 2.802800e+01
7.519752e-02 -2.391364e-02 2.802071e+01
6.914046e-02 -1.473077e-02 2.801980e+01
7.813286e-02 -1.485521e-02 2.802336e+01
8.794694e-02 -2.590198e-02 2.802780e+01
7.522374e-02 -2.388068e-02 2.802064e+01
6.928301e-02 -1.464102e-02 2.801955e+01
7.827835e-02 -1.493751e-02 2.802304e+01
-1.057049e-03 -1.775650e-03 2.798799e+01
-1.071663e-03 -1.764194e-03 2.798794e+01
-1.268900e-03 -2.320470e-03 2.798736e+01
-1.268564e-03 -2.293833e-03 2.798739e+01
1.009097e-01 -2.408113e-02 2.802622e+01
8.892084e-02 -1.253030e-02 2.801831e+01
1.007502e-01 -2.405977e-02 2.802593e+01
8.902149e-02 -1.263631e-02 2.801788e+01
7.922217e-02 -1.099715e-02 2.801021e+01
9.992901e-02 6.083439e-03 2.803547e+01
7.940360e-02 -1.131174e-02 2.800973e+01
1.009502e-01 6.274433e-03 2.803570e+01
1.613433e-02 2.909296e-03 2.799321e+01
1.613656e-02 2.918826e-03 2.799322e+01
6.354665e-03 -7.864872e-04 2.799067e+01
6.361974e-03 -8.811024e-04 2.799064e+01
2.692531e-03 1.136368e-03 2.799131e+01
2.804190e-03 1.112721e-03 2.799167e+01
2.687602e-03 1.131810e-03 2.799127e+01
2.807411e-03 1.069475e-03 2.799161e+01
2.735262e-03 1.011196e-03 2.799100e+01
2.731310e-03 1.018439e-03 2.799095e+01
1.059645e-03 1.066354e-03 2.799061e+01
9.710141e-04 1.010781e-03 2.799070e+01
1.058705e-03 1.059717e-03 2.799059e+01
9.687920e-04 9.972212e-04 2.799069e+01
7.591873e-04 1.193884e-03 2.799086e+01
7.404116e-04 1.203666e-03 2.799084e+01
2.720544e-03 8.634999e-04 2.799052e+01
2.704911e-03 8.859930e-04 2.799049e+01
2.484265e-03 6.769173e-04 2.799001e+01
2.489877e-03 6.586411e-04 2.798997e+01
1.126552e-03 8.197511e-04 2.798973e+01
1.036506e-03 9.789579e-04 2.799016e+01
1.114628e-03 8.294459e-04 2.798972e+01
1.037422e-03 9.402415e-04 2.799013e+01
2.498670e-03 7.519547e-04 2.798980e+01
2.499836e-03 7.630931e-04 2.798974e+01
2.368220e-03 4.035266e-04 2.798948e+01
2.355627e-03 3.941081e-04 2.798950e+01
1.253332e-03 6.258645e-04 2.798945e+01
1.149528e-03 6.688832e-04 2.798961e+01
1.256121e-03 6.092044e-04 2.798943e+01
1.142883e-03 6.659934e-04 2.798959e+01
1.737047e-03 2.278231e-04 2.798930e+01
1.738937e-03 2.125531e-04 2.798930e+01
1.428746e-03 2.791319e-04 2.798918e+01
1.424885e-03 2.765159e-04 2.798918e+01
1.316876e-03 4.318197e-04 2.798917e+01
1.391082e-03 4.723439e-04 2.798931e+01
1.316245e-03 4.192128e-04 2.798918e+01
1.391991e-03 4.793703e-04 2.798930e+01
1.259149e-03 2.651160e-04 2.798914e+01
1.256562e-03 2.544593e-04 2.798913e+01
9.210224e-04 7.423780e-05 2.798909e+01
9.182341e-04 7.770292e-05 2.798908e+01
9.873517e-04 4.542677e-04 2.798888e+01
1.155791e-03 4.567565e-04 2.798905e+01
9.754319e-04 4.220547e-04 2.798887e+01
1.154651e-03 4.539029e-04 2.798905e+01
3.012180e-04 9.481157e-04 2.799031e+01
2.564686e-04 1.026952e-03 2.799032e+01
3.004693e-04 9.596229e-04 2.799032e+01
2.621522e-04 1.014043e-03 2.799030e+01
3.707181e-04 9.469557e-04 2.799026e+01
3.684884e-04 9.695951e-04 2.799025e+01
2.944036e-04 8.143602e-04 2.798997e+01
1.234381e-04 8.599075e-04 2.799005e+01
2.995643e-04 8.145703e-04 2.798997e+01
1.170899e-04 8.602362e-04 2.799004e+01
-1.489411e-05 9.012539e-04 2.799003e+01
1.076114e-06 9.108140e-04 2.799004e+01
5.864612e-04 8.830915e-04 2.798997e+01
5.827895e-04 8.853010e-04 2.798997e+01
6.745526e-04 7.773766e-04 2.798971e+01
6.709735e-04 7.867265e-04 2.798969e+01
5.073512e-04 7.104619e-04 2.798960e+01
3.423286e-04 7.556324e-04 2.798978e+01
5.067181e-04 7.031990e-04 2.798957e+01
3.373562e-04 7.503069e-04 2.798977e+01
7.651633e-04 6.504664e-04 2.798955e+01
7.629557e-04 6.489191e-04 2.798956e+01
8.300685e-04 5.102070e-04 2.798945e+01
8.248895e-04 5.170713e-04 2.798942e+01
5.536339e-04 5.146623e-04 2.798939e+01
5.690753e-04 6.138157e-04 2.798948e+01
5.569155e-04 5.107981e-04 2.798940e+01
5.630218e-04 6.042721e-04 2.798948e+01
8.531542e-04 4.382944e-04 2.798931e+01
8.592384e-04 4.582456e-04 2.798930e+01
9.052572e-04 4.615341e-04 2.798919e+01
9.031111e-04 4.649265e-04 2.798919e+01
5.710121e-04 4.604151e-04 2.798922e+01
5.491415e-04 4.652875e-04 2.798930e+01
5.604416e-04 4.445213e-04 2.798920e+01
5.370806e-04 4.710484e-04 2.798928e+01
9.488603e-04 5.280929e-04 2.798910e+01
9.464591e-04 5.306530e-04 2.798907e+01
9.542348e-04 5.931890e-04 2.798901e+01
9.452759e-04 5.919153e-04 2.798902e+01
7.710201e-04 5.769535e-04 2.798918e+01
6.394452e-04 4.869299e-04 2.798917e+01
7.552650e-04 5.863304e-04 2.798917e+01
6.327972e-04 4.917879e-04 2.798917e+01
-1.904942e-05 7.241593e-04 2.798979e+01
-2.376557e-04 6.684104e-04 2.798982e+01
-1.611795e-05 7.055083e-04 2.798980e+01
-2.422245e-04 6.786570e-04 2.798983e+01
9.681319e-05 6.653411e-04 2.798975e+01
9.422945e-05 6.717892e-04 2.798973e+01
-4.975429e-05 5.772624e-04 2.798958e+01
-1.676798e-04 5.657860e-04 2.798962e+01
-4.563737e-05 5.810897e-04 2.798958e+01
-1.698754e-04 5.646470e-04 2.798962e+01
-2.453824e-04 5.334831e-04 2.798963e+01
-2.449349e-04 5.405993e-04 2.798962e+01
2.277587e-04 6.634242e-04 2.798961e+01
2.305749e-04 6.885305e-04 2.798962e+01
2.645305e-04 6.267433e-04 2.798947e+01
2.640800e-04 6.273913e-04 2.798946e+01
8.962995e-05 5.567388e-04 2.798937e+01
2.551726e-05 5.606786e-04 2.798949e+01
9.866150e-05 5.663218e-04 2.798939e+01
3.640166e-05 5.399652e-04 2.798949e+01
3.047408e-04 5.661874e-04 2.798939e+01
3.140216e-04 5.750714e-04 2.798941e+01
3.399534e-04 5.370624e-04 2.798935e+01
3.303145e-04 5.405984e-04 2.798933e+01
2.077049e-04 4.663007e-04 2.798928e+01
1.462263e-04 5.408956e-04 2.798935e+01
2.157021e-04 4.685872e-04 2.798931e+01
1.416870e-04 5.298423e-04 2.798932e+01
3.679847e-04 4.766581e-04 2.798927e+01
3.661786e-04 4.551300e-04 2.798927e+01
4.292918e-04 4.391201e-04 2.798924e+01
4.146662e-04 4.582480e-04 2.798922e+01
3.409593e-04 4.115547e-04 2.798926e+01
2.621300e-04 4.357426e-04 2.798926e+01
3.275587e-04 4.049761e-04 2.798926e+01
2.680880e-04 4.456918e-04 2.798926e+01
5.167573e-04 4.457772e-04 2.798924e+01
5.034482e-04 4.476837e-04 2.798922e+01
6.099254e-04 4.957365e-04 2.798929e+01
6.042119e-04 4.843069e-04 2.798928e+01
5.068230e-04 4.124212e-04 2.798932e+01
4.520173e-04 4.155418e-04 2.798928e+01
5.133600e-04 4.227419e-04 2.798933e+01
4.379496e-04 4.137243e-04 2.798927e+01
-2.504704e-04 4.828093e-04 2.798952e+01
-3.900468e-04 3.917870e-04 2.798955e+01
-2.429892e-04 4.765833e-04 2.798952e+01
-3.944902e-04 3.823369e-04 2.798956e+01
-1.601636e-04 4.438550e-04 2.798948e+01
-1.567700e-04 4.507154e-04 2.798948e+01
-1.890051e-04 3.777586e-04 2.798942e+01
-2.924485e-04 3.425828e-04 2.798944e+01
-2.019426e-04 3.597385e-04 2.798940e+01
-2.910237e-04 3.675741e-04 2.798944e+01
-3.529783e-04 3.107551e-04 2.798949e+01
-3.494485e-04 3.002412e-04 2.798946e+01
-5.315497e-05 4.692028e-04 2.798941e+01
-5.822365e-05 4.686091e-04 2.798941e+01
2.655969e-05 4.763847e-04 2.798934e+01
3.771049e-05 4.678905e-04 2.798934e+01
-2.161905e-06 3.769416e-04 2.798931e+01
-8.322441e-05 3.715043e-04 2.798935e+01
-3.273768e-06 3.756766e-04 2.798932e+01
-8.635780e-05 3.831805e-04 2.798936e+01
7.254260e-05 4.395022e-04 2.798929e+01
8.494013e-05 4.490436e-04 2.798932e+01
1.613598e-04 3.897947e-04 2.798928e+01
1.614996e-04 3.841410e-04 2.798927e+01
1.383341e-04 3.086007e-04 2.798929e+01
6.637238e-05 3.203790e-04 2.798929e+01
1.390141e-04 2.954558e-04 2.798928e+01
7.448375e-05 3.356441e-04 2.798929e+01
2.223296e-04 3.469363e-04 2.798927e+01
2.291383e-04 3.483827e-04 2.798926e+01
2.846410e-04 3.672747e-04 2.798928e+01
2.859262e-04 3.622576e-04 2.798928e+01
2.561598e-04 2.615328e-04 2.798929e+01
2.035252e-04 2.825680e-04 2.798927e+01
2.679820e-04 2.706391e-04 2.798930e+01
2.056222e-04 2.931257e-04 2.798929e+01
3.573999e-04 3.279753e-04 2.798930e+01
3.617899e-04 3.419275e-04 2.798931e+01
4.107284e-04 3.583820e-04 2.798934e+01
4.185084e-04 3.428174e-04 2.798936e+01
3.300391e-04 2.405709e-04 2.798936e+01
2.797617e-04 2.792278e-04 2.798932e+01
3.392397e-04 2.407475e-04 2.798937e+01
2.908986e-04 2.683780e-04 2.798931e+01
-3.150865e-04 3.007876e-04 2.798940e+01
-3.941131e-04 2.262686e-04 2.798942e+01
-3.220798e-04 2.904146e-04 2.798939e+01
-3.992402e-04 2.310403e-04 2.798943e+01
-1.825536e-04 2.795418e-04 2.798937e+01
-1.924816e-04 3.057725e-04 2.798936e+01
-2.041787e-04 2.330520e-04 2.798935e+01
-2.889170e-04 2.424895e-04 2.798937e+01
-2.211328e-04 2.235270e-04 2.798934e+01
-2.977912e-04 2.471064e-04 2.798937e+01
-3.546546e-04 1.750095e-04 2.798941e+01
-3.710513e-04 1.776233e-04 2.798942e+01
-1.071812e-04 3.066767e-04 2.798933e+01
-1.128678e-04 2.992999e-04 2.798933e+01
-4.508321e-06 2.969352e-04 2.798932e+01
-9.416984e-06 2.947182e-04 2.798930e+01
-1.389410e-05 2.442215e-04 2.798931e+01
-7.036615e-05 2.145804e-04 2.798934e+01
-1.295738e-05 2.334599e-04 2.798932e+01
-7.623575e-05 2.267807e-04 2.798932e+01
6.461492e-05 2.791689e-04 2.798930e+01
5.779077e-05 2.739641e-04 2.798929e+01
1.274817e-04 2.387734e-04 2.798929e+01
1.284787e-04 2.419076e-04 2.798929e+01
1.038427e-04 2.041294e-04 2.798929e+01
8.224986e-05 2.040718e-04 2.798930e+01
1.076314e-04 2.148981e-04 2.798930e+01
8.324516e-05 2.037627e-04 2.798930e+01
1.670624e-04 2.321912e-04 2.798930e+01
1.679062e-04 2.281764e-04 2.798928e+01
2.123785e-04 2.192112e-04 2.798930e+01
2.100010e-04 2.151587e-04 2.798930e+01
1.564549e-04 1.758966e-04 2.798930e+01
1.375584e-04 1.896611e-04 2.798929e+01
1.624130e-04 1.716055e-04 2.798930e+01
1.425567e-04 1.977785e-04 2.798929e+01
2.297770e-04 1.859521e-04 2.798931e+01
2.397572e-04 1.892470e-04 2.798934e+01
2.672290e-04 2.181046e-04 2.798938e+01
2.691633e-04 2.188103e-04 2.798934e+01
2.031613e-04 1.461468e-04 2.798934e+01
1.912496e-04 1.623617e-04 2.798932e+01
2.126830e-04 1.245975e-04 2.798937e+01
1.879103e-04 1.795283e-04 2.798932e+01
-2.556535e-04 1.914320e-04 2.798936e+01
-3.392621e-04 1.716218e-04 2.798940e+01
-2.732236e-04 2.021619e-04 2.798937e+01
-3.462865e-04 1.614832e-04 2.798939e+01
-1.496129e-04 1.858958e-04 2.798935e+01
-1.642256e-04 1.829987e-04 2.798933e+01
-1.171482e-04 1.472383e-04 2.798933e+01
-1.975251e-04 1.711540e-04 2.798938e+01
-1.327041e-04 1.491856e-04 2.798934e+01
-1.997624e-04 1.610628e-04 2.798934e+01
-2.450164e-04 1.058187e-04 2.798937e+01
-2.550251e-04 1.104929e-04 2.798940e+01
-6.251247e-05 1.851754e-04 2.798932e+01
-7.841065e-05 1.631921e-04 2.798933e+01
3.887048e-05 1.503765e-04 2.798932e+01
3.282934e-05 1.680637e-04 2.798930e+01
4.295272e-05 1.455617e-04 2.798929e+01
-3.347036e-05 1.507540e-04 2.798933e+01
3.580755e-05 1.394756e-04 2.798931e+01
-4.879847e-05 1.403358e-04 2.798930e+01
7.130039e-05 1.635601e-04 2.798929e+01
7.563795e-05 1.689180e-04 2.798930e+01
1.049950e-04 1.382888e-04 2.798928e+01
1.167958e-04 1.300309e-04 2.798930e+01
9.521464e-05 1.058177e-04 2.798929e+01
7.939497e-05 1.027118e-04 2.798929e+01
9.750431e-05 1.194649e-04 2.798928e+01
7.758719e-05 9.737311e-05 2.798928e+01
1.056661e-04 1.465853e-04 2.798929e+01
1.178514e-04 1.423799e-04 2.798929e+01
1.259491e-04 1.369076e-04 2.798930e+01
1.393597e-04 1.391921e-04 2.798930e+01
9.984879e-05 8.662690e-05 2.798931e+01
1.001155e-04 1.028164e-04 2.798928e+01
9.980192e-05 9.162348e-05 2.798929e+01
1.088719e-04 9.001817e-05 2.798930e+01
1.352817e-04 1.112557e-04 2.798931e+01
1.412751e-04 1.147905e-04 2.798932e+01
1.761412e-04 1.250156e-04 2.798935e+01
1.711367e-04 1.124091e-04 2.798934e+01
1.379005e-04 7.867489e-05 2.798933e+01
1.115279e-04 9.337872e-05 2.798931e+01
1.354367e-04 8.728287e-05 2.798933e+01
1.197306e-04 9.548974e-05 2.798931e+01
-1.497840e-04 1.148168e-04 2.798933e+01
-2.089718e-04 1.023066e-04 2.798937e+01
-1.546716e-04 1.100944e-04 2.798934e+01
-2.010003e-04 1.190260e-04 2.798935e+01
-1.044446e-04 1.176019e-04 2.798931e+01
-1.136986e-04 1.195659e-04 2.798931e+01
-5.924236e-05 7.290009e-05 2.798930e+01
-1.440685e-04 8.834080e-05 2.798931e+01
-6.594449e-05 8.380460e-05 2.798929e+01
-1.445691e-04 7.930347e-05 2.798930e+01
-1.461721e-04 6.454296e-05 2.798932e+01
-1.474958e-04 6.616040e-05 2.798933e+01
-2.792695e-05 1.187868e-04 2.798931e+01
-3.090884e-05 1.174176e-04 2.798929e+01
2.436812e-05 9.875904e-05 2.798929e+01
1.170683e-05 1.056129e-04 2.798928e+01
4.188827e-05 9.656193e-05 2.798930e+01
-4.269121e-05 1.004386e-04 2.798928e+01
2.414297e-05 1.132335e-04 2.798926e+01
-4.766862e-05 8.509452e-05 2.798929e+01
8.111330e-05 9.906296e-05 2.798927e+01
7.202360e-05 1.058391e-04 2.798929e+01
8.583546e-05 7.417998e-05 2.798929e+01
9.374508e-05 8.160846e-05 2.798928e+01
9.389674e-05 1.111025e-04 2.798928e+01
6.937182e-05 1.002050e-04 2.798928e+01
7.592055e-05 9.987147e-05 2.798927e+01
6.426458e-05 9.545484e-05 2.798928e+01
9.708008e-05 8.583938e-05 2.798929e+01
8.787068e-05 9.088558e-05 2.798929e+01
7.879964e-05 9.091090e-05 2.798928e+01
8.944855e-05 8.149588e-05 2.798931e+01
6.562018e-05 7.345484e-05 2.798930e+01
7.682007e-05 8.571971e-05 2.798928e+01
6.553125e-05 7.573136e-05 2.798928e+01
8.551569e-05 8.774316e-05 2.798929e+01
9.290498e-05 6.600745e-05 2.798931e+01
8.512007e-05 7.200468e-05 2.798930e+01
1.128159e-04 6.454343e-05 2.798933e+01
1.128949e-04 5.894889e-05 2.798932e+01
8.660978e-05 5.944456e-05 2.798932e+01
6.312822e-05 6.777364e-05 2.798929e+01
7.702702e-05 6.093210e-05 2.798931e+01
6.744249e-05 7.334043e-05 2.798930e+01
-7.972606e-05 3.323890e-05 2.798929e+01
-1.514367e-04 2.113974e-05 2.798930e+01
-7.858855e-05 2.905402e-05 2.798929e+01
-1.583421e-04 3.641848e-05 2.798930e+01
-6.223235e-05 6.794142e-05 2.798929e+01
-6.968052e-05 5.018245e-05 2.798928e+01
1.024884e-05 6.400289e-05 2.798929e+01
-5.796195e-05 2.978890e-05 2.798929e+01
-1.769807e-06 5.465833e-05 2.798926e+01
-8.384744e-05 5.481448e-05 2.798927e+01
-8.074306e-05 1.468420e-05 2.798929e+01
-7.934933e-05 -1.524016e-05 2.798928e+01
1.637718e-05 7.362739e-05 2.798929e+01
3.638042e-06 8.757136e-05 2.798927e+01
3.136389e-05 1.197029e-04 2.798927e+01
2.278031e-05 1.089631e-04 2.798928e+01
6.499071e-05 1.099982e-04 2.798928e+01
2.229283e-05 1.074015e-04 2.798927e+01
6.012083e-05 1.134308e-04 2.798927e+01
8.990823e-06 1.015251e-04 2.798928e+01
8.847655e-05 1.277301e-04 2.798929e+01
7.960936e-05 1.135276e-04 2.798926e+01
6.022065e-05 9.589646e-05 2.798927e+01
7.300640e-05 1.185933e-04 2.798928e+01
5.559557e-05 9.891817e-05 2.798928e+01
5.329753e-05 9.396327e-05 2.798927e+01
6.142573e-05 6.799126e-05 2.798928e+01
6.394894e-05 1.186225e-04 2.798928e+01
6.369145e-05 9.935205e-05 2.798928e+01
6.509709e-05 9.692520e-05 2.798928e+01
3.588311e-05 8.507097e-05 2.798928e+01
4.455918e-05 7.498069e-05 2.798929e+01
2.923647e-06 4.404060e-05 2.798929e+01
3.393950e-05 7.739680e-05 2.798926e+01
1.403225e-05 5.054928e-05 2.798928e+01
5.308348e-05 6.219266e-05 2.798930e+01
4.218372e-05 5.357912e-05 2.798929e+01
3.956642e-05 5.137391e-05 2.798930e+01
4.496088e-05 2.970854e-05 2.798930e+01
5.179865e-05 5.385081e-05 2.798931e+01
3.201396e-05 2.838754e-05 2.798930e+01
1.846128e-05 4.592459e-05 2.798929e+01
2.872441e-05 2.972535e-05 2.798929e+01
2.115345e-05 2.631832e-05 2.798929e+01
2.871965e-06 7.770095e-05 2.798928e+01
-1.473982e-05 2.892720e-05 2.798929e+01
-6.743441e-06 6.797951e-05 2.798928e+01
-2.412075e-05 3.421720e-05 2.798927e+01
2.348230e-05 1.031126e-04 2.798928e+01
6.016206e-06 9.562485e-05 2.798927e+01
3.872654e-05 9.734641e-05 2.798927e+01
2.941148e-05 8.895724e-05 2.798928e+01
3.666035e-05 1.030170e-04 2.798927e+01
2.677873e-05 1.173802e-04 2.798927e+01
4.879232e-05 7.520530e-05 2.798928e+01
4.259989e-05 6.173969e-05 2.798927e+01
5.671846e-05 8.418150e-05 2.798927e+01
5.393075e-05 9.618642e-05 2.798927e+01
4.088686e-05 9.966589e-05 2.798926e+01
4.395418e-05 1.014163e-04 2.798928e+01
9.886173e-06 5.501529e-05 2.798927e+01
4.110773e-05 9.860514e-05 2.798928e+01
2.805029e-05 5.839184e-05 2.798928e+01
4.480437e-05 1.093441e-04 2.798926e+01
3.696373e-05 7.451623e-05 2.798927e+01
4.463376e-05 5.293083e-05 2.798928e+01
3.643291e-05 3.958584e-05 2.798927e+01
4.985722e-05 6.323474e-05 2.798929e+01
2.343116e-06 -5.879162e-06 2.798927e+01
1.525542e-05 4.784021e-05 2.798928e+01
1.723957e-05 -3.962398e-06 2.798929e+01
1.722741e-05 3.498986e-05 2.798927e+01
-2.780033e-07 8.541127e-06 2.798928e+01
1.426607e-05 3.357586e-05 2.798929e+01
3.981266e-06 2.030707e-05 2.798928e+01
1.075684e-05 1.259321e-05 2.798929e+01
1.784579e-06 -1.343407e-05 2.798928e+01
-7.692426e-06 -6.267444e-06 2.798928e+01
2.896005e-06 -1.178146e-05 2.798928e+01
2.829138e-06 -1.441848e-05 2.798929e+01
3.897172e-06 1.462952e-05 2.798929e+01
5.644958e-06 3.189722e-05 2.798929e+01
2.592214e-05 1.884562e-05 2.798930e+01
2.442786e-05 1.558387e-05 2.798929e+01
2.447402e-05 2.352631e-06 2.798929e+01
1.348553e-05 3.185267e-06 2.798929e+01
2.661532e-05 2.479454e-05 2.798929e+01
1.786766e-05 -1.167362e-05 2.798928e+01
4.992306e-05 1.231238e-04 2.798928e+01
7.481487e-05 8.456404e-05 2.798926e+01
5.351038e-05 1.082133e-04 2.798927e+01
7.903492e-05 8.102032e-05 2.798928e+01
2.588255e-05 1.167512e-04 2.798927e+01
2.935029e-05 1.226929e-04 2.798927e+01
-2.730622e-05 8.990182e-05 2.798926e+01
5.917377e-05 9.618488e-05 2.798926e+01
2.166505e-06 7.591036e-05 2.798928e+01
9.311949e-05 1.011970e-04 2.798929e+01
9.359298e-05 6.382744e-05 2.798926e+01
9.346619e-05 7.455915e-05 2.798928e+01
-8.662569e-07 7.398851e-05 2.798927e+01
1.841311e-05 5.214499e-05 2.798928e+01
-2.563428e-05 4.204775e-05 2.798928e+01
-9.490408e-06 3.741119e-05 2.798927e+01
-6.058911e-05 -5.921345e-07 2.798928e+01
-4.126484e-05 3.488689e-05 2.798927e+01
-5.657998e-05 -8.773217e-06 2.798927e+01
-3.499607e-05 7.407958e-05 2.798928e+01
-1.934059e-05 -2.051975e-05 2.798927e+01
-1.445242e-05 -1.067969e-05 2.798928e+01
-2.141382e-05 -1.250249e-05 2.798928e+01
-6.221509e-06 -3.690900e-05 2.798928e+01
-3.275531e-05 -6.340356e-05 2.798928e+01
-4.826520e-05 -2.669645e-05 2.798927e+01
-4.318389e-05 -6.565022e-05 2.798928e+01
-4.700990e-05 -1.342821e-05 2.798928e+01
-9.362069e-06 -5.423038e-05 2.798928e+01
-1.693470e-05 -4.467872e-05 2.798928e+01
1.967374e-05 -3.894831e-05 2.798928e+01
2.289977e-05 -2.898712e-05 2.798928e+01
3.273787e-05 -3.509875e-05 2.798928e+01
3.744320e-06 -4.711163e-05 2.798929e+01
2.334154e-05 -4.339300e-05 2.798928e+01
-5.015181e-07 -4.773649e-05 2.798928e+01
2.615697e-05 1.873768e-06 2.798928e+01
2.491722e-05 -1.499363e-05 2.798929e+01
5.077090e-05 -1.642311e-05 2.798930e+01
4.799997e-05 -1.204116e-05 2.798928e+01
8.033570e-05 9.075742e-06 2.798928e+01
5.387929e-05 -3.004474e-05 2.798929e+01
7.432052e-05 -5.586792e-06 2.798928e+01
4.776332e-05 -2.906207e-05 2.798927e+01
3.745171e-05 3.276138e-05 2.798926e+01
1.194121e-04 3.850183e-05 2.798928e+01
6.796942e-05 3.596111e-05 2.798928e+01
1.382826e-04 3.110460e-05 2.798927e+01
-3.804309e-05 3.402281e-05 2.798926e+01
-5.190825e-06 2.636410e-05 2.798929e+01
-6.042038e-05 -1.577911e-05 2.798926e+01
3.712380e-05 -2.041511e-06 2.798927e+01
-3.437444e-05 -6.669226e-06 2.798929e+01
7.011649e-05 -3.424939e-06 2.798928e+01
8.274639e-05 2.737704e-05 2.798927e+01
9.624843e-05 2.976428e-05 2.798928e+01
-9.105605e-05 1.165102e-05 2.798927e+01
-7.695687e-05 1.289283e-05 2.798928e+01
-9.107756e-05 4.065171e-07 2.798928e+01
-8.307827e-05 6.909969e-06 2.798928e+01
-1.181709e-04 -3.935337e-05 2.798928e+01
-9.703415e-05 -1.818021e-05 2.798927e+01
-1.140801e-04 -3.094613e-05 2.798928e+01
-8.342629e-05 -1.304763e-05 2.798929e+01
-7.713153e-05 -3.689507e-05 2.798929e+01
-8.442348e-05 -4.435062e-05 2.798927e+01
-3.063060e-05 -3.495738e-05 2.798929e+01
-4.750619e-05 -2.474424e-05 2.798927e+01
-4.889210e-05 -4.975479e-05 2.798927e+01
-7.913675e-05 -2.136663e-05 2.798928e+01
-5.204929e-05 -3.967998e-05 2.798929e+01
-8.591447e-05 -1.922510e-05 2.798927e+01
7.838716e-06 -5.173291e-05 2.798928e+01
-3.720765e-06 -4.633070e-05 2.798928e+01
4.809630e-05 -3.789540e-05 2.798928e+01
3.385292e-05 -4.795769e-05 2.798928e+01
6.752718e-05 -3.742839e-05 2.798928e+01
5.271941e-06 -3.963089e-05 2.798929e+01
5.963074e-05 -3.182588e-05 2.798928e+01
-1.199691e-05 -4.831688e-05 2.798927e+01
8.076780e-05 -1.783096e-05 2.798928e+01
7.859295e-05 -1.144587e-07 2.798928e+01
1.028302e-04 -1.235002e-05 2.798928e+01
9.383560e-05 -1.554039e-05 2.798928e+01
1.254221e-04 -1.162604e-05 2.798927e+01
1.044819e-04 -2.421625e-05 2.798929e+01
1.243349e-04 -6.903073e-06 2.798929e+01
8.821637e-05 -3.098299e-05 2.798927e+01
-1.391108e-05 -2.427462e-05 2.798927e+01
7.825552e-05 -8.134624e-06 2.798927e+01
9.448715e-06 -2.288096e-05 2.798929e+01
9.600661e-05 1.780030e-07 2.798928e+01
-4.897197e-05 -5.705699e-05 2.798928e+01
-2.942307e-05 -4.532139e-05 2.798928e+01
-7.853168e-05 -5.218794e-05 2.798927e+01
-1.144205e-05 -4.708678e-05 2.798927e+01
-7.588916e-05 -5.649001e-05 2.798929e+01
6.898249e-06 -5.976811e-05 2.798928e+01
1.961815e-05 -8.172185e-06 2.798928e+01
3.906263e-05 -1.866069e-05 2.798928e+01
-1.146067e-04 -4.309440e-05 2.798927e+01
-9.811611e-05 -4.847173e-05 2.798928e+01
-1.026798e-04 -2.774451e-05 2.798928e+01
-1.049241e-04 -2.222320e-05 2.798927e+01
-1.037244e-04 -2.447193e-05 2.798927e+01
-6.082175e-05 -4.648006e-05 2.798928e+01
-1.043805e-04 -1.901557e-05 2.798928e+01
-6.430636e-05 -4.931147e-05 2.798928e+01
-9.082478e-05 -3.452330e-05 2.798927e+01
-1.016527e-04 -4.669844e-05 2.798928e+01
-4.486990e-05 -2.999767e-05 2.798929e+01
-6.908719e-05 -4.332763e-05 2.798926e+01
-3.409742e-05 2.904752e-06 2.798928e+01
-7.860044e-05 -2.784474e-06 2.798928e+01
-6.365692e-05 1.554805e-05 2.798927e+01
-9.944907e-05 4.621437e-06 2.798927e+01
1.964930e-05 -3.711144e-05 2.798929e+01
-4.250620e-06 -3.538915e-05 2.798927e+01
8.009343e-05 -3.648123e-05 2.798929e+01
6.003610e-05 -2.668406e-05 2.798927e+01
9.361003e-05 2.982476e-05 2.798930e+01
2.924191e-05 9.234700e-06 2.798928e+01
6.615973e-05 1.553678e-05 2.798926e+01
-2.330507e-06 2.540767e-05 2.798927e+01
1.255564e-04 -1.020785e-05 2.798929e+01
1.179516e-04 -4.749489e-06 2.798927e+01
1.415737e-04 3.620680e-07 2.798928e+01
1.332877e-04 -9.199077e-06 2.798928e+01
1.412594e-04 5.351122e-06 2.798929e+01
1.274991e-04 3.540992e-06 2.798927e+01
1.336336e-04 -4.160617e-06 2.798927e+01
1.174849e-04 1.093160e-05 2.798928e+01
-3.190277e-05 -4.074893e-05 2.798927e+01
1.218476e-05 -4.373755e-05 2.798927e+01
-2.622165e-05 -4.270664e-05 2.798928e+01
1.477419e-05 -2.996856e-05 2.798929e+01
-4.831988e-05 -3.718503e-05 2.798928e+01
-5.523597e-05 -3.217915e-05 2.798927e+01
-2.790856e-05 -4.764763e-06 2.798928e+01
-2.764694e-05 -1.274038e-05 2.798928e+01
-2.290223e-05 -4.920317e-06 2.798927e+01
-3.290217e-05 -3.490417e-05 2.798927e+01
-1.244180e-06 -1.689986e-05 2.798928e+01
6.524298e-06 -1.062392e-05 2.798928e+01
-5.922487e-05 -1.796219e-05 2.798928e+01
-6.331152e-05 -6.909207e-06 2.798927e+01
-6.061231e-05 8.499710e-06 2.798927e+01
-7.070911e-05 -6.601491e-07 2.798928e+01
-3.436946e-05 3.451813e-05 2.798928e+01
-4.391356e-05 1.682641e-05 2.798927e+01
-3.876031e-05 3.708966e-05 2.798927e+01
-5.491383e-05 6.808362e-06 2.798928e+01
-5.945399e-05 4.027615e-05 2.798928e+01
-6.951659e-05 4.764951e-05 2.798927e+01
-2.993865e-05 6.422632e-05 2.798928e+01
-4.968185e-05 6.795785e-05 2.798927e+01
-1.086125e-05 8.579595e-05 2.798928e+01
-3.209206e-05 5.596390e-05 2.798927e+01
-2.013193e-05 8.047804e-05 2.798927e+01
-3.739059e-05 5.233137e-05 2.798927e+01
3.256955e-05 6.819650e-05 2.798928e+01
2.915164e-06 6.223529e-05 2.798926e+01
7.982023e-05 4.199479e-05 2.798928e+01
6.548176e-05 5.999285e-05 2.798927e+01
4.881005e-05 7.941630e-05 2.798927e+01
1.466880e-05 9.614344e-05 2.798928e+01
3.719088e-05 6.996857e-05 2.798927e+01
1.188596e-05 1.019550e-04 2.798927e+01
1.067487e-04 4.475891e-05 2.798927e+01
9.155048e-05 2.338441e-05 2.798928e+01
1.231846e-04 1.135448e-05 2.798928e+01
1.141899e-04 1.578530e-05 2.798928e+01
7.985938e-05 2.978064e-05 2.798928e+01
7.100501e-05 2.540722e-05 2.798928e+01
8.206475e-05 1.062475e-05 2.798927e+01
6.992421e-05 3.878203e-05 2.798927e+01
-3.181000e-06 -8.291455e-06 2.798927e+01
-1.976278e-05 -1.123593e-05 2.798928e+01
-9.093824e-06 3.553924e-07 2.798928e+01
-1.818883e-05 -1.152095e-05 2.798927e+01
-8.109835e-06 1.185173e-05 2.798928e+01
-1.802328e-05 1.394096e-05 2.798927e+01
2.872295e-06 1.974498e-05 2.798927e+01
-3.895233e-06 2.839266e-05 2.798928e+01
1.382324e-05 2.046649e-05 2.798928e+01
-1.781803e-05 6.953796e-06 2.798927e+01
-4.937368e-06 -1.128918e-05 2.798928e+01
-6.412374e-06 1.205731e-05 2.798928e+01
-2.519282e-05 3.878799e-05 2.798928e+01
-1.607738e-05 3.653568e-05 2.798927e+01
-2.272340e-05 4.801968e-05 2.798927e+01
-3.294399e-05 5.216524e-05 2.798927e+01
-1.610830e-05 6.395661e-05 2.798928e+01
-1.869175e-05 2.167242e-05 2.798927e+01
-2.081390e-05 7.162967e-05 2.798926e+01
-1.673765e-05 4.039053e-05 2.798927e+01
2.686279e-07 7.078463e-05 2.798927e+01
-8.799400e-06 6.737639e-05 2.798927e+01
-4.046835e-06 8.624933e-05 2.798927e+01
6.429015e-08 7.930206e-05 2.798928e+01
2.878323e-07 6.904871e-05 2.798927e+01
9.253235e-06 8.821462e-05 2.798927e+01
2.390276e-06 7.580875e-05 2.798926e+01
3.950742e-06 7.050999e-05 2.798927e+01
6.780735e-06 6.881753e-05 2.798927e+01
8.222712e-06 7.680427e-05 2.798927e+01
1.606938e-05 6.856477e-05 2.798927e+01
1.219819e-05 5.470194e-05 2.798928e+01
1.950296e-05 6.339341e-05 2.798928e+01
-4.117122e-06 7.599330e-05 2.798927e+01
1.289781e-05 7.161597e-05 2.798926e+01
-7.168161e-06 7.959691e-05 2.798926e+01
3.983961e-05 3.542017e-05 2.798927e+01
3.568414e-05 4.777154e-05 2.798927e+01
4.170493e-05 2.552979e-05 2.798929e+01
4.019533e-05 1.122079e-05 2.798926e+01
2.204964e-05 8.607467e-06 2.798926e+01
1.538255e-05 3.860541e-05 2.798927e+01
2.073506e-05 3.386228e-05 2.798928e+01
1.489220e-05 3.547296e-05 2.798927e+01
-1.821283e-05 -2.408339e-05 2.798925e+01
1.188532e-05 -1.780392e-05 2.798928e+01
-8.276911e-06 -3.065007e-05 2.798927e+01
-5.921553e-05 -5.589398e-05 2.798927e+01
-2.406216e-05 -2.583328e-05 2.798926e+01
9.923668e-06 -6.086493e-06 2.798928e+01
-1.396460e-05 -2.297542e-05 2.798928e+01
-6.725972e-05 -5.014194e-05 2.798925e+01
6.558814e-05 -2.032473e-05 2.798929e+01
-6.716330e-06 -2.843856e-05 2.798930e+01
6.347458e-05 -2.041216e-05 2.798930e+01
-1.320535e-05 -2.655210e-05 2.798928e+01
-1.797875e-05 -5.009104e-06 2.798928e+01
-4.677621e-05 -1.900238e-05 2.798928e+01
-2.595565e-05 2.555135e-06 2.798928e+01
-6.084729e-05 -1.058402e-05 2.798927e+01
-6.979927e-05 -3.199295e-05 2.798927e+01
-7.964120e-05 -2.727743e-05 2.798927e+01
4.012960e-05 -6.282747e-05 2.798931e+01
2.228678e-05 -2.783353e-06 2.798929e+01
3.111082e-05 -5.820995e-05 2.798929e+01
1.945886e-05 -1.717946e-05 2.798929e+01
1.728426e-05 -6.935479e-05 2.798929e+01
1.050503e-05 -1.976973e-05 2.798929e+01
9.129022e-06 -7.169216e-05 2.798930e+01
2.344060e-06 -9.135927e-06 2.798928e+01
3.592997e-05 1.796159e-05 2.798928e+01
1.801871e-05 -1.487480e-05 2.798929e+01
3.651112e-05 1.805129e-05 2.798928e+01
7.917027e-06 -1.269284e-05 2.798927e+01
-7.115576e-05 -5.902917e-05 2.798930e+01
9.188658e-06 3.302105e-06 2.798928e+01
-7.003806e-05 -5.247165e-05 2.798928e+01
1.508382e-06 7.486394e-06 2.798929e+01
3.222683e-05 4.322729e-05 2.798928e+01
2.772514e-05 2.548758e-05 2.798927e+01
-7.522810e-05 7.341306e-06 2.798927e+01
-8.701163e-05 4.503870e-06 2.798928e+01
-7.806587e-05 2.627304e-05 2.798928e+01
-1.024797e-04 -6.962313e-06 2.798927e+01
-1.921497e-05 1.151652e-05 2.798928e+01
-3.925112e-05 8.047411e-07 2.798927e+01
-5.271842e-05 1.470408e-05 2.798927e+01
-6.503127e-05 7.132353e-06 2.798928e+01
-6.118340e-05 2.752988e-05 2.798928e+01
-6.895665e-05 1.369233e-05 2.798926e+01
-1.174550e-04 8.781948e-06 2.798927e+01
-1.215916e-04 8.579644e-06 2.798928e+01
2.026376e-05 1.129461e-05 2.798928e+01
5.484886e-06 1.571337e-05 2.798927e+01
6.244130e-05 -7.443240e-07 2.798927e+01
5.139534e-05 -1.060785e-06 2.798929e+01
6.005254e-05 2.542055e-05 2.798928e+01
3.825912e-05 3.374149e-06 2.798928e+01
4.465358e-05 2.488646e-05 2.798927e+01
2.141555e-05 -2.023810e-06 2.798927e+01
6.651305e-05 4.527134e-05 2.798928e+01
6.478313e-05 3.918617e-05 2.798927e+01
1.213566e-04 3.449675e-05 2.798928e+01
1.190279e-04 2.385818e-05 2.798927e+01
-7.770260e-05 1.822956e-05 2.798928e+01
-1.088398e-04 6.114842e-06 2.798927e+01
-9.059088e-05 3.822517e-06 2.798927e+01
-1.174930e-04 9.257212e-06 2.798927e+01
-2.565726e-05 1.423340e-05 2.798928e+01
-4.178810e-05 2.520135e-05 2.798927e+01
-2.573221e-05 4.888301e-05 2.798929e+01
-6.828995e-05 2.900820e-05 2.798928e+01
-4.025913e-05 4.228990e-05 2.798926e+01
-8.360676e-05 4.643311e-05 2.798927e+01
-9.821092e-05 -1.177835e-05 2.798927e+01
-9.315071e-05 -1.135893e-05 2.798928e+01
1.262204e-05 2.821639e-05 2.798929e+01
-1.315854e-05 3.726893e-05 2.798926e+01
1.147853e-04 2.139992e-05 2.798929e+01
9.524573e-05 2.370894e-05 2.798926e+01
8.105390e-05 5.353169e-05 2.798929e+01
4.248661e-05 6.440634e-05 2.798927e+01
6.465748e-05 6.840452e-05 2.798926e+01
2.035534e-05 6.173380e-05 2.798927e+01
1.134222e-04 5.504980e-05 2.798926e+01
1.086042e-04 4.942386e-05 2.798929e+01
1.392583e-04 1.655220e-05 2.798927e+01
1.346585e-04 2.238678e-05 2.798928e+01
-6.468615e-05 4.493051e-05 2.798927e+01
-6.517833e-05 1.955259e-05 2.798928e+01
-7.083538e-05 3.968698e-05 2.798928e+01
-6.363187e-05 1.713393e-05 2.798926e+01
-7.421497e-06 4.937656e-05 2.798928e+01
-1.852994e-05 8.218473e-05 2.798926e+01
-9.212207e-06 4.963998e-05 2.798927e+01
-3.842764e-05 4.591644e-05 2.798927e+01
-1.087119e-05 5.235491e-05 2.798927e+01
-4.259907e-05 4.104857e-05 2.798928e+01
-4.412169e-05 -8.873569e-06 2.798927e+01
-4.308661e-05 -9.188454e-06 2.798927e+01
2.926086e-05 6.208229e-05 2.798926e+01
1.590961e-05 5.122238e-05 2.798928e+01
8.789216e-05 6.045722e-05 2.798928e+01
8.079301e-05 4.193004e-05 2.798926e+01
6.684945e-05 5.075078e-05 2.798927e+01
3.206841e-05 6.571310e-05 2.798929e+01
6.087230e-05 4.768495e-05 2.798928e+01
2.426278e-05 6.844809e-05 2.798926e+01
9.423442e-05 5.347921e-05 2.798927e+01
9.556219e-05 5.096816e-05 2.798928e+01
6.992317e-05 -2.193338e-06 2.798927e+01
8.216958e-05 1.365959e-05 2.798928e+01
-8.584696e-06 9.262279e-06 2.798928e+01
-3.131016e-05 1.389912e-05 2.798928e+01
-7.961107e-06 1.492500e-05 2.798927e+01
-3.633428e-05 1.721759e-05 2.798927e+01
-5.471050e-06 4.530675e-05 2.798927e+01
-1.161334e-05 3.145243e-05 2.798928e+01
8.795728e-06 1.774526e-05 2.798927e+01
-8.491188e-06 2.465329e-05 2.798928e+01
4.017988e-06 1.375635e-05 2.798928e+01
-7.255902e-06 2.801690e-05 2.798927e+01
-1.097789e-05 2.059048e-05 2.798928e+01
-2.339974e-05 1.962074e-05 2.798927e+01
3.444318e-05 2.540859e-05 2.798927e+01
3.815442e-05 3.526798e-05 2.798928e+01
3.459595e-05 2.441017e-05 2.798927e+01
3.978290e-05 2.701051e-05 2.798928e+01
2.812433e-05 9.541798e-07 2.798928e+01
2.174396e-05 1.232472e-05 2.798928e+01
3.794246e-05 6.046645e-06 2.798928e+01
1.302598e-05 2.633962e-05 2.798927e+01
3.348257e-05 -5.591310e-07 2.798929e+01
4.079707e-05 5.202296e-06 2.798927e+01
4.985210e-06 -4.357875e-06 2.798927e+01
4.609643e-06 -9.068029e-06 2.798928e+01
-8.125645e-06 1.709878e-05 2.798928e+01
-9.547165e-06 4.362222e-05 2.798926e+01
-5.797255e-06 2.882038e-05 2.798927e+01
-6.301057e-06 3.761269e-05 2.798929e+01
-3.304493e-06 2.643591e-05 2.798928e+01
-5.645718e-08 2.007396e-05 2.798927e+01
1.372868e-05 8.542965e-06 2.798928e+01
-2.532401e-05 9.997848e-06 2.798927e+01
1.543016e-05 2.018859e-05 2.798928e+01
-2.009001e-05 4.590306e-06 2.798928e+01
-9.728397e-06 1.231083e-05 2.798928e+01
-6.761012e-06 1.268232e-05 2.798927e+01
1.785317e-05 1.714488e-05 2.798927e+01
1.594654e-05 6.464796e-06 2.798928e+01
5.153053e-06 -8.149055e-07 2.798927e+01
3.056911e-06 3.760933e-07 2.798928e+01
1.697860e-05 1.066912e-06 2.798929e+01
-1.401495e-05 1.388886e-05 2.798928e+01
1.714385e-05 5.548622e-06 2.798926e+01
-3.013977e-06 9.075678e-06 2.798927e+01
1.365198e-05 -3.387932e-06 2.798928e+01
1.522858e-05 -8.711507e-06 2.798927e+01
-6.554786e-06 -6.440580e-06 2.798926e+01
-4.316840e-07 -1.078267e-05 2.798929e+01
6.861221e-04 1.352548e-03 2.799026e+01
8.298369e-04 1.378186e-03 2.799066e+01
7.211363e-04 1.346097e-03 2.799024e+01
8.585001e-04 1.324655e-03 2.799069e+01
3.668675e-04 1.057578e-03 2.799008e+01
3.756905e-04 1.030685e-03 2.799006e+01
1.201774e-03 1.232917e-03 2.799003e+01
1.118193e-03 1.342987e-03 2.799020e+01
1.205100e-03 1.193435e-03 2.799005e+01
1.160908e-03 1.296311e-03 2.799021e+01
1.326624e-03 1.559766e-03 2.799047e+01
1.332962e-03 1.451205e-03 2.799044e+01
2.767681e-04 8.188282e-04 2.798987e+01
2.895317e-04 7.927022e-04 2.798983e+01
3.169112e-05 6.302605e-04 2.798965e+01
3.402342e-05 6.380004e-04 2.798968e+01
7.285343e-04 8.427759e-04 2.798970e+01
9.681035e-04 1.049746e-03 2.798989e+01
7.413914e-04 7.919402e-04 2.798968e+01
9.583107e-04 1.036716e-03 2.798986e+01
-4.557240e-05 5.124051e-04 2.798962e+01
-3.722754e-05 4.719910e-04 2.798957e+01
-1.378450e-04 3.574248e-04 2.798948e+01
-1.556326e-04 3.533562e-04 2.798954e+01
3.541271e-04 4.984287e-04 2.798958e+01
5.191283e-04 6.458701e-04 2.798962e+01
3.543764e-04 4.855427e-04 2.798955e+01
5.217744e-04 6.395027e-04 2.798961e+01
-1.384201e-04 2.774201e-04 2.798948e+01
-1.481973e-04 2.676289e-04 2.798945e+01
-1.609103e-04 2.217396e-04 2.798945e+01
-1.630167e-04 2.053607e-04 2.798944e+01
1.499920e-04 2.793691e-04 2.798948e+01
2.402470e-04 3.531056e-04 2.798952e+01
1.492635e-04 2.830897e-04 2.798948e+01
2.357282e-04 3.340599e-04 2.798951e+01
-1.513655e-04 1.659896e-04 2.798943e+01
-1.514500e-04 1.531968e-04 2.798943e+01
-1.556065e-04 9.470266e-05 2.798941e+01
-1.614382e-04 9.180279e-05 2.798940e+01
3.243014e-05 1.470758e-04 2.798946e+01
8.119900e-05 2.014211e-04 2.798947e+01
2.822487e-05 1.298666e-04 2.798944e+01
7.146197e-05 1.967861e-04 2.798948e+01
-1.066136e-04 5.567280e-05 2.798938e+01
-1.099388e-04 3.783506e-05 2.798938e+01
-9.394915e-05 3.614985e-05 2.798934e+01
-9.320735e-05 5.157016e-05 2.798934e+01
-1.476695e-05 1.396236e-05 2.798936e+01
4.205376e-06 5.196600e-05 2.798941e+01
-7.748775e-06 1.504637e-05 2.798936e+01
-3.878207e-08 5.533940e-05 2.798941e+01
-7.066023e-05 3.032440e-05 2.798930e+01
-6.708655e-05 1.486511e-05 2.798932e+01
-1.577280e-05 2.359953e-07 2.798932e+01
-1.367307e-05 -2.675228e-06 2.798932e+01
2.401975e-03 1.266938e-03 2.799005e+01
2.735641e-03 2.016812e-03 2.799066e+01
2.383132e-03 1.252989e-03 2.799003e+01
2.741514e-03 1.997603e-03 2.799070e+01
2.089001e-03 1.473598e-03 2.799005e+01
2.116385e-03 1.409490e-03 2.799000e+01
2.588601e-03 1.500215e-03 2.799000e+01
3.492010e-03 2.311100e-03 2.799034e+01
2.589385e-03 1.483042e-03 2.798997e+01
3.520167e-03 2.207324e-03 2.799039e+01
1.183104e-03 -7.664576e-04 2.798939e+01
1.185134e-03 -6.515734e-04 2.798932e+01
1.878751e-03 1.246023e-03 2.798986e+01
1.877227e-03 1.246201e-03 2.798988e+01
1.723180e-03 1.113184e-03 2.798971e+01
1.721530e-03 1.079323e-03 2.798969e+01
2.214432e-03 1.303905e-03 2.798968e+01
2.561311e-03 1.512857e-03 2.798984e+01
2.213879e-03 1.311168e-03 2.798967e+01
2.551752e-03 1.484210e-03 2.798984e+01
1.439608e-03 8.769303e-04 2.798963e+01
1.434964e-03 8.710844e-04 2.798960e+01
1.219816e-03 7.328243e-04 2.798963e+01
1.222484e-03 7.016318e-04 2.798964e+01
1.738856e-03 9.575248e-04 2.798968e+01
2.071217e-03 1.222715e-03 2.798963e+01
1.733788e-03 9.716740e-04 2.798966e+01
2.050089e-03 1.204126e-03 2.798962e+01
9.216792e-04 5.637041e-04 2.798957e+01
9.213725e-04 5.585141e-04 2.798955e+01
7.463448e-04 4.453670e-04 2.798953e+01
7.312862e-04 4.371608e-04 2.798954e+01
1.183915e-03 7.336148e-04 2.798960e+01
1.559785e-03 8.527026e-04 2.798961e+01
1.197489e-03 7.260947e-04 2.798957e+01
1.539658e-03 8.392202e-04 2.798963e+01
5.029643e-04 3.443305e-04 2.798954e+01
5.109567e-04 3.534125e-04 2.798952e+01
3.665119e-04 2.580826e-04 2.798950e+01
3.526056e-04 2.583461e-04 2.798951e+01
5.907871e-04 4.756983e-04 2.798958e+01
9.193549e-04 5.952249e-04 2.798958e+01
5.994034e-04 4.616127e-04 2.798957e+01
9.168374e-04 5.897711e-04 2.798959e+01
2.357563e-04 1.104405e-04 2.798945e+01
2.389613e-04 1.146669e-04 2.798944e+01
1.407459e-04 5.667116e-05 2.798938e+01
1.415648e-04 4.412045e-05 2.798939e+01
1.563925e-04 1.408393e-04 2.798940e+01
3.496435e-04 2.969483e-04 2.798948e+01
1.548819e-04 1.556537e-04 2.798938e+01
3.449324e-04 2.983466e-04 2.798948e+01
6.324041e-05 2.538268e-05 2.798933e+01
6.581690e-05 2.951564e-05 2.798933e+01
1.057627e-04 5.745846e-05 2.798933e+01
9.999664e-05 5.139877e-05 2.798933e+01
6.316157e-05 5.156050e-05 2.798930e+01
5.697065e-05 4.791855e-05 2.798929e+01
2.625850e-06 4.629476e-05 2.798926e+01
2.186455e-06 4.129879e-05 2.798926e+01
4.007193e-05 9.286754e-05 2.798930e+01
1.120108e-04 1.270042e-04 2.798934e+01
3.352723e-05 8.782274e-05 2.798930e+01
1.083718e-04 1.359666e-04 2.798934e+01
1.783333e-04 2.393326e-04 2.798941e+01
1.712299e-04 2.295216e-04 2.798942e+01
1.474011e-04 1.263569e-04 2.798936e+01
1.551200e-04 1.333109e-04 2.798933e+01
2.301979e-04 2.816784e-04 2.798942e+01
4.761746e-04 3.530632e-04 2.798949e+01
2.313450e-04 2.866057e-04 2.798943e+01
4.772721e-04 3.546791e-04 2.798949e+01
6.986634e-04 5.026190e-04 2.798950e+01
7.213774e-04 4.937010e-04 2.798951e+01
6.508556e-04 3.846573e-04 2.798943e+01
6.539713e-04 3.690359e-04 2.798944e+01
9.034227e-04 4.838169e-04 2.798946e+01
1.107991e-03 5.176662e-04 2.798948e+01
9.244612e-04 4.878596e-04 2.798945e+01
1.124294e-03 5.053134e-04 2.798951e+01
1.351338e-03 6.414103e-04 2.798948e+01
1.366130e-03 6.696327e-04 2.798946e+01
1.255122e-03 5.881907e-04 2.798938e+01
1.240986e-03 5.812559e-04 2.798938e+01
1.512022e-03 8.079847e-04 2.798944e+01
1.704512e-03 8.665106e-04 2.798955e+01
1.508829e-03 8.267938e-04 2.798943e+01
1.664658e-03 8.676165e-04 2.798953e+01
1.861634e-03 1.088152e-03 2.798954e+01
1.842596e-03 1.108511e-03 2.798952e+01
1.695515e-03 1.088759e-03 2.798948e+01
1.673923e-03 1.115384e-03 2.798949e+01
2.021050e-03 1.311706e-03 2.798953e+01
2.104280e-03 1.352349e-03 2.798960e+01
2.018325e-03 1.309848e-03 2.798953e+01
2.098524e-03 1.379097e-03 2.798961e+01
2.377626e-03 1.463101e-03 2.798985e+01
2.396587e-03 1.461919e-03 2.798985e+01
2.147907e-03 1.492683e-03 2.798985e+01
2.150764e-03 1.512290e-03 2.798985e+01
2.460804e-03 1.567917e-03 2.799009e+01
2.514985e-03 1.629520e-03 2.799000e+01
2.471459e-03 1.566762e-03 2.799008e+01
2.531862e-03 1.659401e-03 2.799001e+01
2.602990e-03 1.626183e-03 2.798996e+01
2.682776e-03 1.623640e-03 2.798996e+01
2.722048e-03 1.421754e-03 2.799009e+01
2.713870e-03 1.407262e-03 2.799010e+01
3.093642e-03 1.266856e-03 2.799032e+01
3.784081e-03 2.325560e-03 2.799082e+01
3.151917e-03 1.282317e-03 2.799033e+01
3.747176e-03 2.287813e-03 2.799076e+01
3.464081e-03 1.386746e-03 2.799088e+01
3.330059e-03 4.603953e-04 2.799041e+01
3.453701e-03 1.390328e-03 2.799087e+01
3.346603e-03 4.727218e-04 2.799040e+01
4.036765e-03 1.399666e-03 2.799124e+01
3.362114e-03 1.623355e-03 2.799101e+01
4.054358e-03 1.391152e-03 2.799128e+01
3.365948e-03 1.581843e-03 2.799098e+01
4.719152e-03 1.757479e-03 2.799199e+01
3.253102e-03 8.923597e-04 2.799137e+01
4.709092e-03 1.761786e-03 2.799196e+01
3.263051e-03 8.002964e-04 2.799131e+01
-8.504657e-06 -6.062191e-04 2.798936e+01
1.321340e-05 -4.831321e-04 2.798935e+01
1.029514e-04 -4.353261e-04 2.798931e+01
1.981188e-04 -5.409218e-04 2.798930e+01
6.724532e-06 -6.099862e-04 2.798936e+01
2.400568e-05 -4.949028e-04 2.798936e+01
1.034274e-04 -4.423474e-04 2.798930e+01
2.062101e-04 -5.232673e-04 2.798929e+01
5.792476e-05 -4.236029e-04 2.798930e+01
-6.433407e-06 -3.758219e-04 2.798929e+01
6.292417e-05 -4.146231e-04 2.798929e+01
-1.305538e-05 -3.631713e-04 2.798929e+01
1.159020e-04 -3.791534e-04 2.798928e+01
2.146751e-05 -4.541273e-04 2.798928e+01
1.094439e-04 -3.822668e-04 2.798929e+01
2.817155e-05 -4.618000e-04 2.798929e+01
3.241789e-05 -3.454826e-04 2.798927e+01
3.226467e-05 -3.395469e-04 2.798926e+01
2.034583e-04 -1.371530e-04 2.798909e+01
1.723758e-04 -1.937342e-04 2.798912e+01
1.499199e-04 -1.610960e-04 2.798912e+01
1.957174e-04 -1.107669e-04 2.798911e+01
1.997243e-04 -1.510679e-04 2.798908e+01
1.788462e-04 -1.826000e-04 2.798911e+01
1.470136e-04 -1.480025e-04 2.798912e+01
1.875332e-04 -1.228358e-04 2.798911e+01
1.138225e-04 -2.293795e-04 2.798915e+01
1.363809e-04 -1.914257e-04 2.798918e+01
1.087172e-04 -2.290043e-04 2.798917e+01
1.404814e-04 -2.087465e-04 2.798917e+01
1.120090e-04 -2.038513e-04 2.798920e+01
8.525268e-05 -1.088565e-04 2.798916e+01
1.187059e-04 -2.017344e-04 2.798921e+01
8.767197e-05 -1.179093e-04 2.798915e+01
8.677829e-05 -1.284648e-04 2.798917e+01
9.124926e-05 -1.126288e-04 2.798917e+01
-1.225244e-04 -2.231080e-03 2.798960e+01
-4.611997e-04 -1.860528e-03 2.798949e+01
2.035148e-04 -1.394684e-03 2.798919e+01
4.115935e-04 -2.179438e-03 2.798926e+01
-1.182476e-04 -2.257007e-03 2.798959e+01
-4.558535e-04 -1.874958e-03 2.798950e+01
2.050483e-04 -1.403314e-03 2.798921e+01
4.027681e-04 -2.155263e-03 2.798925e+01
-1.223329e-03 -1.431388e-03 2.798949e+01
-5.951371e-05 -8.472247e-04 2.798922e+01
-1.214199e-03 -1.441398e-03 2.798948e+01
-6.288888e-05 -8.806536e-04 2.798923e+01
2.303865e-04 -6.504350e-04 2.798890e+01
2.062102e-04 -1.393863e-03 2.798873e+01
2.310291e-04 -6.646752e-04 2.798888e+01
1.948035e-04 -1.395199e-03 2.798873e+01
1.736007e-04 -2.037633e-03 2.798890e+01
1.827129e-04 -2.027825e-03 2.798893e+01
1.364022e-04 -2.236550e-03 2.798889e+01
5.271177e-04 -2.404658e-03 2.798915e+01
4.049276e-04 -2.017350e-03 2.798917e+01
1.146944e-04 -2.259868e-03 2.798889e+01
5.171489e-04 -2.380455e-03 2.798912e+01
3.945757e-04 -2.003434e-03 2.798917e+01
1.406100e-04 -2.698980e-03 2.798886e+01
7.361682e-04 -2.850706e-03 2.798909e+01
1.275899e-04 -2.681895e-03 2.798888e+01
7.423909e-04 -2.856639e-03 2.798908e+01
1.583096e-04 -2.992913e-03 2.798930e+01
2.594686e-04 -2.397770e-03 2.798937e+01
1.506082e-04 -2.982385e-03 2.798928e+01
2.520133e-04 -2.412303e-03 2.798937e+01
3.404104e-04 -2.145582e-03 2.798942e+01
3.297011e-04 -2.194536e-03 2.798946e+01
-4.855798e-04 -3.594724e-03 2.798999e+01
1.216772e-05 -2.585670e-03 2.798972e+01
-1.480134e-04 -3.077099e-03 2.798969e+01
-8.692759e-04 -4.214122e-03 2.798999e+01
-4.575897e-04 -3.645511e-03 2.798994e+01
1.704789e-05 -2.568483e-03 2.798971e+01
-1.418066e-04 -3.094747e-03 2.798966e+01
-8.643344e-04 -4.222549e-03 2.799004e+01
-7.341557e-04 -3.748995e-03 2.798958e+01
-7.207095e-04 -3.749600e-03 2.798959e+01
-1.059763e-03 -4.495389e-03 2.798982e+01
-1.041977e-03 -4.496756e-03 2.798981e+01
-3.558156e-04 -3.291018e-03 2.798894e+01
-1.138588e-03 -4.174278e-03 2.798839e+01
1.901498e-04 -3.865446e-03 2.798922e+01
8.322292e-05 -2.808540e-03 2.798931e+01
-3.406274e-04 -3.331076e-03 2.798892e+01
-1.130698e-03 -4.180522e-03 2.798838e+01
2.047343e-04 -3.853913e-03 2.798921e+01
9.893730e-05 -2.785729e-03 2.798930e+01
-5.751692e-04 -4.961949e-03 2.798805e+01
-2.049496e-04 -5.223903e-03 2.798894e+01
-5.573663e-04 -4.932112e-03 2.798805e+01
-1.990763e-04 -5.230351e-03 2.798892e+01
1.149824e-04 -4.499590e-03 2.798952e+01
7.092891e-04 -3.462963e-03 2.798953e+01
1.154177e-04 -4.505740e-03 2.798955e+01
7.184251e-04 -3.474626e-03 2.798950e+01
7.570556e-04 -3.098535e-03 2.798929e+01
7.544034e-04 -3.087838e-03 2.798926e+01
-3.817610e-03 -5.019097e-03 2.799080e+01
-1.142778e-03 -3.576849e-03 2.798977e+01
-1.746092e-03 -4.897488e-03 2.798977e+01
-4.472294e-03 -8.918099e-03 2.798944e+01
-3.799474e-03 -4.999114e-03 2.799071e+01
-1.112776e-03 -3.609845e-03 2.798978e+01
-1.704283e-03 -4.950356e-03 2.798972e+01
-4.436329e-03 -8.944427e-03 2.798943e+01
-2.931019e-04 -3.220467e-03 2.798968e+01
-2.896645e-04 -3.216220e-03 2.798971e+01
-9.662963e-04 -6.338657e-03 2.799006e+01
-9.689018e-04 -6.329023e-03 2.799011e+01
2.177790e-04 -8.899899e-03 2.798990e+01
2.318762e-04 -8.948426e-03 2.798994e+01
5.753608e-05 -4.358922e-04 2.798915e+01
4.474082e-04 -4.011961e-04 2.798906e+01
6.374403e-05 -4.248185e-04 2.798916e+01
4.439050e-04 -4.162836e-04 2.798906e+01
-8.651155e-05 -5.238285e-04 2.798940e+01
-8.865805e-05 -5.450830e-04 2.798938e+01
1.677655e-04 -3.739204e-04 2.798922e+01
3.321902e-04 -2.751835e-04 2.798916e+01
1.647973e-04 -3.632092e-04 2.798923e+01
3.316583e-04 -3.117856e-04 2.798916e+01
2.742794e-04 -2.460545e-04 2.798910e+01
2.771337e-04 -2.080955e-04 2.798910e+01
4.750512e-05 -1.625765e-04 2.798927e+01
3.234306e-05 -1.851793e-04 2.798925e+01
9.703614e-05 -2.111639e-04 2.798927e+01
5.364068e-06 -1.884797e-04 2.798928e+01
4.548525e-05 -1.585886e-04 2.798926e+01
2.193378e-05 -1.759344e-04 2.798925e+01
1.019038e-04 -2.250749e-04 2.798925e+01
1.243702e-05 -1.884573e-04 2.798929e+01
6.947153e-05 -2.125894e-04 2.798926e+01
6.378550e-05 -2.149454e-04 2.798923e+01
1.084036e-04 -2.266948e-04 2.798928e+01
3.270725e-05 -1.972261e-04 2.798927e+01
1.041816e-04 -1.983420e-04 2.798926e+01
4.092241e-05 -2.201917e-04 2.798930e+01
9.733718e-05 -2.033153e-04 2.798928e+01
1.011255e-04 -2.106376e-04 2.798927e+01
2.041803e-05 -1.363546e-04 2.798925e+01
3.411808e-05 -1.227819e-04 2.798920e+01
5.979667e-05 -1.640347e-04 2.798922e+01
2.304754e-06 -1.449217e-04 2.798925e+01
2.320274e-05 -1.379837e-04 2.798925e+01
3.661839e-05 -1.111045e-04 2.798922e+01
6.425103e-05 -1.668744e-04 2.798921e+01
5.589362e-06 -1.348946e-04 2.798925e+01
4.462307e-05 -9.100434e-05 2.798923e+01
5.547950e-05 -7.120439e-05 2.798920e+01
4.390801e-05 -1.061653e-04 2.798923e+01
5.763765e-05 -6.777066e-05 2.798919e+01
1.716375e-05 -1.054368e-04 2.798925e+01
1.546587e-05 -1.103568e-04 2.798925e+01
6.365535e-07 -9.637054e-05 2.798925e+01
2.032755e-05 -7.902751e-05 2.798923e+01
4.938301e-06 -8.451360e-05 2.798926e+01
2.550530e-05 -6.481141e-05 2.798925e+01
3.456887e-05 -4.598671e-05 2.798923e+01
3.746916e-05 -5.743943e-05 2.798922e+01
-5.366816e-05 -8.444546e-03 2.799047e+01
9.468781e-05 -6.858937e-03 2.798973e+01
-1.004825e-03 -6.772823e-03 2.798878e+01
-1.976223e-03 -9.420879e-03 2.798905e+01
-4.790926e-05 -8.411933e-03 2.799046e+01
1.165377e-04 -6.846176e-03 2.798971e+01
-9.852900e-04 -6.788509e-03 2.798874e+01
-1.963439e-03 -9.369323e-03 2.798908e+01
1.883692e-04 -6.895420e-03 2.798861e+01
1.877740e-04 -6.925968e-03 2.798868e+01
1.229047e-03 -9.091056e-03 2.799038e+01
1.247663e-03 -9.133958e-03 2.799038e+01
-5.235041e-04 -7.168336e-03 2.798987e+01
-6.504816e-04 -4.113352e-03 2.798970e+01
-5.113651e-04 -7.155264e-03 2.798992e+01
-6.374242e-04 -4.140204e-03 2.798969e+01
1.670448e-03 -9.844505e-03 2.799016e+01
1.710683e-03 -9.878721e-03 2.799018e+01
-3.998869e-03 -1.023828e-02 2.798989e+01
-1.506647e-03 -6.267667e-03 2.799005e+01
-3.974470e-03 -1.022455e-02 2.798988e+01
-1.475379e-03 -6.293475e-03 2.799003e+01
5.593170e-04 -3.333314e-03 2.798925e+01
8.204923e-04 -2.967892e-03 2.798902e+01
1.189197e-03 -2.872741e-03 2.798900e+01
5.752815e-04 -3.363680e-03 2.798926e+01
8.117901e-04 -2.969860e-03 2.798902e+01
1.192533e-03 -2.899106e-03 2.798901e+01
4.648709e-04 -2.791451e-03 2.798893e+01
4.671857e-04 -2.763689e-03 2.798897e+01
7.371193e-04 -2.484904e-03 2.798895e+01
7.281981e-04 -2.506079e-03 2.798896e+01
1.936907e-03 -2.919349e-03 2.799007e+01
2.011196e-03 -2.795176e-03 2.798941e+01
1.186921e-03 -2.629018e-03 2.798929e+01
1.345363e-03 -3.058507e-03 2.798985e+01
1.961550e-03 -2.902941e-03 2.799012e+01
1.987790e-03 -2.830915e-03 2.798941e+01
1.197075e-03 -2.630983e-03 2.798934e+01
1.332798e-03 -3.063122e-03 2.798988e+01
1.743224e-03 -2.424629e-03 2.798908e+01
1.124911e-03 -2.354902e-03 2.798901e+01
1.736828e-03 -2.410278e-03 2.798912e+01
1.125665e-03 -2.362659e-03 2.798901e+01
5.589246e-04 -2.674885e-03 2.798917e+01
5.467022e-04 -2.667888e-03 2.798918e+01
3.815625e-04 -3.056412e-03 2.798975e+01
4.334246e-04 -2.999225e-03 2.798970e+01
3.067538e-03 -4.025451e-03 2.798984e+01
2.908566e-03 -3.950400e-03 2.799043e+01
1.340574e-03 -2.593541e-03 2.799002e+01
2.749281e-03 -3.859544e-03 2.798965e+01
3.059131e-03 -4.028977e-03 2.798985e+01
2.889563e-03 -3.977388e-03 2.799042e+01
1.310415e-03 -2.596478e-03 2.798997e+01
2.723765e-03 -3.875646e-03 2.798967e+01
8.936678e-04 -1.933719e-03 2.799118e+01
1.103183e-03 -1.315445e-03 2.799060e+01
8.571054e-04 -1.944746e-03 2.799116e+01
1.076350e-03 -1.356812e-03 2.799058e+01
1.244576e-03 -1.183589e-03 2.799019e+01
1.780524e-03 -2.220422e-03 2.798980e+01
1.225084e-03 -1.138767e-03 2.799019e+01
1.771766e-03 -2.198165e-03 2.798981e+01
2.133828e-03 -2.685444e-03 2.798955e+01
2.110034e-03 -2.701411e-03 2.798954e+01
2.615392e-03 -2.739772e-03 2.798946e+01
2.447787e-03 -2.490565e-03 2.798956e+01
2.493601e-03 -2.112741e-03 2.798977e+01
3.249329e-03 -2.243579e-03 2.798965e+01
2.616136e-03 -2.782754e-03 2.798949e+01
2.438558e-03 -2.466019e-03 2.798955e+01
2.471816e-03 -2.093834e-03 2.798978e+01
3.251245e-03 -2.270282e-03 2.798961e+01
2.581214e-03 -1.243228e-03 2.799008e+01
2.607846e-03 -1.193518e-03 2.799011e+01
3.443213e-03 -1.484524e-03 2.798982e+01
3.420532e-03 -1.496744e-03 2.798981e+01
1.660452e-03 -2.804511e-03 2.798904e+01
1.657631e-03 -2.796575e-03 2.798905e+01
1.610436e-03 -2.562182e-03 2.798909e+01
1.611044e-03 -2.573900e-03 2.798911e+01
1.641325e-03 -2.856588e-03 2.798920e+01
8.710278e-04 -3.189102e-03 2.798921e+01
1.632579e-03 -2.870535e-03 2.798920e+01
8.725684e-04 -3.195790e-03 2.798922e+01
-5.280240e-05 -3.060942e-03 2.798772e+01
1.530199e-03 -1.768425e-03 2.798748e+01
-5.603945e-04 -1.483348e-03 2.798809e+01
1.424311e-03 -2.848193e-03 2.798987e+01
-3.694451e-05 -3.061869e-03 2.798772e+01
1.538685e-03 -1.750978e-03 2.798746e+01
-5.765456e-04 -1.456716e-03 2.798813e+01
1.424838e-03 -2.760000e-03 2.798995e+01
2.521346e-06 -9.587640e-04 2.798773e+01
-5.113026e-04 2.089583e-04 2.798800e+01
2.421524e-05 -9.801365e-04 2.798769e+01
-5.190956e-04 1.889233e-04 2.798806e+01
2.413609e-03 1.870412e-03 2.798977e+01
5.534266e-03 -3.087019e-04 2.799335e+01
2.421266e-03 1.913114e-03 2.798976e+01
5.424063e-03 -2.531429e-04 2.799340e+01
6.601191e-03 -1.318862e-03 2.799503e+01
6.451860e-03 -1.332942e-03 2.799509e+01
1.111032e-03 -3.164201e-03 2.798933e+01
1.372485e-03 -3.039955e-03 2.798924e+01
1.110542e-03 -3.241081e-03 2.798934e+01
1.373623e-03 -3.054849e-03 2.798926e+01
2.175832e-03 -2.758618e-03 2.798935e+01
2.174518e-03 -2.748335e-03 2.798937e+01
2.581179e-03 -2.993525e-03 2.798945e+01
2.510886e-03 -2.722906e-03 2.798926e+01
2.557791e-03 -3.019373e-03 2.798943e+01
2.496586e-03 -2.693409e-03 2.798928e+01
3.459140e-03 -3.537836e-03 2.798974e+01
3.435426e-03 -3.549788e-03 2.798975e+01
8.128531e-04 -2.424803e-04 2.799053e+01
2.649093e-03 2.057276e-04 2.799055e+01
8.270565e-04 -1.663563e-04 2.799054e+01
2.660625e-03 2.244702e-04 2.799051e+01
7.374192e-04 -2.238963e-04 2.799142e+01
7.194471e-04 -2.544994e-04 2.799136e+01
5.087852e-04 1.789379e-03 2.799157e+01
5.332568e-04 1.800550e-03 2.799154e+01
2.203763e-03 -2.598815e-03 2.798928e+01
2.194248e-03 -2.632930e-03 2.798930e+01
1.899198e-03 -5.585601e-03 2.798916e+01
-2.102685e-04 -3.646888e-03 2.798760e+01
1.881104e-03 -5.520690e-03 2.798923e+01
-2.019045e-04 -3.652542e-03 2.798766e+01
4.754153e-03 -6.495138e-03 2.799351e+01
4.711455e-03 -6.556450e-03 2.799350e+01
-2.132296e-03 -1.019053e-03 2.799099e+01
-2.660500e-03 -2.398807e-03 2.798989e+01
-2.151384e-03 -9.974894e-04 2.799097e+01
-2.650633e-03 -2.428551e-03 2.798988e+01
-1.387623e-03 -5.772642e-04 2.799031e+01
-1.837356e-03 -8.293382e-04 2.798990e+01
-1.397366e-03 -5.770649e-04 2.799028e+01
-1.855253e-03 -8.079140e-04 2.798988e+01
-4.084402e-04 -1.062312e-03 2.798958e+01
-4.370679e-05 -6.075033e-04 2.798940e+01
-3.240765e-04 -8.813900e-04 2.798958e+01
-2.581206e-04 -1.026142e-03 2.798974e+01
-3.871942e-04 -1.077626e-03 2.798958e+01
-4.572130e-05 -6.091079e-04 2.798940e+01
-3.200135e-04 -8.808203e-04 2.798955e+01
-2.628643e-04 -1.027734e-03 2.798975e+01
3.373252e-05 -4.496614e-04 2.798934e+01
1.287109e-05 -2.904823e-04 2.798925e+01
3.881324e-05 -4.513802e-04 2.798934e+01
2.118791e-05 -2.904971e-04 2.798925e+01
8.088484e-05 -9.143924e-04 2.798946e+01
6.165728e-05 -8.994013e-04 2.798946e+01
1.341963e-04 -2.596570e-04 2.798928e+01
2.203710e-06 -2.365704e-04 2.798927e+01
1.241337e-04 -2.523819e-04 2.798926e+01
6.089495e-06 -2.271953e-04 2.798929e+01
1.956339e-04 -3.066515e-04 2.798926e+01
2.056196e-04 -3.240203e-04 2.798927e+01
2.216999e-05 -3.111470e-04 2.798929e+01
2.639373e-05 -3.133567e-04 2.798927e+01
7.581641e-05 -2.657509e-04 2.798927e+01
6.167153e-05 -2.711188e-04 2.798927e+01
-6.345559e-05 -3.564006e-04 2.798926e+01
4.249188e-05 -3.420098e-04 2.798926e+01
-6.759602e-05 -3.479942e-04 2.798926e+01
4.123795e-05 -3.239401e-04 2.798928e+01
-3.748260e-05 -3.315164e-04 2.798926e+01
-7.797876e-05 -2.720349e-04 2.798926e+01
-3.508128e-05 -3.249987e-04 2.798924e+01
-8.697664e-05 -2.952508e-04 2.798927e+01
-6.639594e-04 -6.190278e-03 2.799043e+01
-6.485061e-04 -6.182958e-03 2.799039e+01
-4.339436e-04 -7.758673e-03 2.799122e+01
-4.316788e-04 -7.749817e-03 2.799118e+01
4.958737e-05 -3.760210e-03 2.798957e+01
4.637747e-05 -3.792794e-03 2.798958e+01
1.649700e-04 -2.157761e-03 2.798948e+01
1.743780e-04 -2.196822e-03 2.798948e+01
6.213587e-05 -2.167082e-04 2.798920e+01
6.333464e-05 -1.855546e-04 2.798924e+01
6.998481e-05 -2.163212e-04 2.798920e+01
6.915228e-05 -2.274371e-04 2.798919e+01
-2.038098e-05 -2.051626e-04 2.798925e+01
5.372554e-05 -1.662183e-04 2.798926e+01
-2.147918e-05 -2.436685e-04 2.798923e+01
5.898551e-05 -1.600255e-04 2.798926e+01
1.848191e-03 5.349764e-04 2.798929e+01
1.418622e-03 -1.408423e-03 2.798877e+01
1.830301e-03 4.564261e-04 2.798928e+01
1.420938e-03 -1.449875e-03 2.798880e+01
1.485719e-03 4.016932e-03 2.798936e+01
1.517795e-03 4.017346e-03 2.798934e+01
1.377430e-03 -2.513017e-03 2.798902e+01
1.366945e-03 -2.581747e-03 2.798902e+01
1.588625e-04 -2.734122e-03 2.798832e+01
1.788451e-04 -2.736129e-03 2.798831e+01
-1.175533e-04 -3.151045e-03 2.798775e+01
-1.047416e-04 -3.185634e-03 2.798780e+01
1.611470e-04 -2.296050e-04 2.798912e+01
2.101877e-04 -2.519334e-04 2.798912e+01
1.654481e-04 -2.475153e-04 2.798915e+01
2.202886e-04 -2.018551e-04 2.798906e+01
1.302315e-04 -2.692285e-04 2.798918e+01
1.257582e-04 -2.497463e-04 2.798918e+01
-5.397646e-05 -2.845510e-04 2.798926e+01
8.445103e-05 -2.751025e-04 2.798921e+01
-5.198082e-05 -2.441675e-04 2.798927e+01
7.937863e-05 -2.947873e-04 2.798921e+01
1.920498e-06 -2.594792e-04 2.798928e+01
5.088686e-06 -2.754267e-04 2.798927e+01
-1.408742e-04 -2.134603e-04 2.798925e+01
-5.701143e-05 -2.024628e-04 2.798925e+01
-1.487815e-04 -2.186185e-04 2.798925e+01
-5.239052e-05 -1.851656e-04 2.798926e+01
-1.307345e-04 -1.249486e-04 2.798926e+01
-5.804085e-05 -1.723868e-04 2.798927e+01
-1.306636e-04 -1.223959e-04 2.798927e+01
-5.499547e-05 -1.786544e-04 2.798927e+01
-8.255475e-06 -1.522589e-04 2.798928e+01
-4.893244e-05 -1.648590e-04 2.798928e+01
6.401773e-06 -1.544955e-04 2.798927e+01
-4.626754e-05 -1.804205e-04 2.798926e+01
-3.420298e-05 -8.632112e-05 2.798927e+01
-6.661282e-05 -1.576609e-04 2.798929e+01
-5.087744e-05 -8.509224e-05 2.798928e+01
-6.512730e-05 -1.522399e-04 2.798927e+01
-7.101276e-05 -9.024112e-05 2.798927e+01
-6.042420e-06 -1.028693e-04 2.798926e+01
-7.350349e-05 -1.026062e-04 2.798929e+01
-3.348960e-06 -1.092993e-04 2.798929e+01
1.034966e-05 -1.295232e-04 2.798927e+01
3.508734e-05 -1.213976e-04 2.798928e+01
1.039967e-05 -1.203146e-04 2.798928e+01
4.144437e-05 -1.319950e-04 2.798926e+01
-3.877910e-05 -1.212306e-04 2.798928e+01
-1.604483e-05 -1.119798e-04 2.798929e+01
-3.472684e-05 -9.394976e-05 2.798927e+01
-1.921469e-05 -1.030800e-04 2.798927e+01
-4.363126e-05 -9.019700e-05 2.798928e+01
1.938330e-05 -1.126559e-04 2.798928e+01
-4.648088e-05 -1.061465e-04 2.798929e+01
1.883026e-05 -1.187016e-04 2.798929e+01
2.722797e-05 -9.948631e-05 2.798928e+01
3.164998e-05 -1.247650e-04 2.798928e+01
2.462017e-05 -1.012716e-04 2.798927e+01
3.864279e-05 -1.275687e-04 2.798928e+01
-2.011835e-05 -7.721311e-05 2.798930e+01
1.438030e-05 -8.708217e-05 2.798928e+01
-2.284939e-05 -6.536509e-05 2.798929e+01
1.325926e-05 -8.846795e-05 2.798930e+01
-1.526079e-06 -6.952304e-05 2.798929e+01
8.865952e-06 -6.253853e-05 2.798931e+01
7.568180e-06 -6.340225e-05 2.798932e+01
7.981117e-06 -6.856192e-05 2.798928e+01
-2.382266e-05 -5.282924e-05 2.798929e+01
-2.036625e-05 -8.250432e-05 2.798928e+01
-2.882470e-05 -6.464556e-05 2.798928e+01
-2.087066e-05 -7.155257e-05 2.798928e+01
1.182418e-05 -5.040302e-05 2.798931e+01
-3.132172e-06 -4.717166e-05 2.798929e+01
9.140397e-06 -4.556636e-05 2.798930e+01
-4.268464e-06 -5.076899e-05 2.798930e+01
7.756465e-06 -2.355709e-05 2.798930e+01
-1.090966e-05 -2.450853e-05 2.798931e+01
3.763975e-06 -2.819043e-05 2.798930e+01
-1.430327e-05 -2.929892e-05 2.798928e+01
-6.495507e-05 -4.549765e-05 2.798929e+01
-5.096943e-05 -4.346026e-05 2.798927e+01
-5.557816e-05 -1.782273e-05 2.798928e+01
-5.365093e-05 -3.496161e-05 2.798930e+01
1.514529e-05 -2.272668e-05 2.798930e+01
-1.019350e-05 -1.893907e-05 2.798928e+01
1.120334e-05 -3.544534e-05 2.798929e+01
-4.877334e-06 -1.150192e-05 2.798930e+01
-5.698845e-06 -5.077731e-06 2.798929e+01
-1.641354e-05 -1.556232e-05 2.798928e+01
-1.042198e-05 1.657856e-05 2.798929e+01
-1.752393e-05 -9.274125e-06 2.798929e+01
-5.225496e-05 -1.160503e-05 2.798928e+01
-4.466780e-05 -6.871466e-06 2.798928e+01
-5.289073e-05 -1.442376e-05 2.798929e+01
-5.049370e-05 -3.602432e-05 2.798928e+01
-1.180846e-05 -1.884450e-06 2.798928e+01
-2.315464e-05 4.539515e-08 2.798929e+01
-1.519945e-05 -1.010745e-05 2.798928e+01
-2.588510e-05 -9.423866e-07 2.798928e+01
-1.115934e-05 1.842824e-06 2.798929e+01
-1.716779e-05 8.292813e-06 2.798928e+01
-7.140237e-06 -4.553150e-06 2.798927e+01
-1.216106e-05 1.946984e-05 2.798928e+01
-1.816707e-05 4.856265e-06 2.798927e+01
-3.656843e-05 -1.053733e-05 2.798928e+01
-3.024069e-05 -1.451090e-05 2.798928e+01
-3.277175e-05 -1.198742e-05 2.798928e+01
-1.166145e-06 -1.347003e-05 2.798927e+01
-1.341752e-05 1.582036e-05 2.798928e+01
-1.399308e-07 -8.958131e-06 2.798928e+01
-1.366589e-05 1.249717e-05 2.798927e+01
-1.268345e-05 -7.330420e-06 2.798927e+01
-2.142254e-05 1.005471e-07 2.798928e+01
-7.358063e-06 -7.221290e-06 2.798928e+01
-1.716611e-05 -2.678191e-06 2.798928e+01
-1.796704e-05 -3.108088e-06 2.798927e+01
-2.925530e-05 -8.359829e-06 2.798928e+01
-1.999170e-05 1.204399e-05 2.798928e+01
-3.362545e-05 -5.441723e-06 2.798928e+01
-6.354880e-06 -3.516231e-08 2.798928e+01
-8.890859e-06 -2.086913e-06 2.798928e+01
-5.545997e-06 -4.541659e-06 2.798927e+01
-4.879827e-06 4.279219e-06 2.798928e+01
2.170820e-06 -1.152826e-05 2.798928e+01
-9.558596e-06 9.412901e-06 2.798928e+01
-2.030269e-07 -1.792744e-05 2.798928e+01
-9.401405e-06 -8.443099e-06 2.798928e+01
-5.004373e-06 2.245875e-06 2.798928e+01
-1.256614e-05 6.393253e-06 2.798928e+01
3.448737e-06 1.675214e-05 2.798928e+01
-1.227345e-05 5.131531e-07 2.798927e+01
-1.460265e-05 -2.203018e-05 2.798928e+01
-1.762397e-06 1.464660e-05 2.798927e+01
-9.313395e-06 -6.948801e-08 2.798927e+01
8.234153e-06 1.108087e-05 2.798928e+01
2.112280e-06 -1.931758e-07 2.798928e+01
-1.139500e-05 2.531533e-06 2.798928e+01
2.496081e-06 -9.543984e-06 2.798927e+01
-1.338254e-05 3.510259e-06 2.798928e+01
-6.496914e-06 5.557434e-06 2.798927e+01
-4.449084e-06 -7.417834e-07 2.798927e+01
-2.162274e-06 6.100528e-06 2.798928e+01
-5.962225e-06 -3.452770e-06 2.798928e+01
-1.433498e-05 9.267107e-06 2.798928e+01
5.151465e-06 -5.519652e-06 2.798928e+01
-6.982812e-06 -2.296375e-06 2.798927e+01
-2.953600e-06 1.520436e-06 2.798927e+01
1.446603e-05 -8.650529e-06 2.798927e+01
-1.309429e-05 1.684049e-05 2.798928e+01
8.747983e-06 3.839870e-06 2.798928e+01
-2.978272e-06 -9.493350e-06 2.798927e+01
1.778722e-05 6.341538e-06 2.798929e+01
-1.508240e-05 4.442442e-06 2.798927e+01
1.356639e-05 6.778471e-06 2.798926e+01
-8.153566e-06 3.056241e-06 2.798928e+01
6.744421e-06 1.046503e-05 2.798928e+01
7.740405e-06 -9.159038e-06 2.798928e+01
5.493032e-06 -4.241390e-06 2.798927e+01
5.986241e-06 7.995141e-06 2.798927e+01
1.259720e-05 -1.786601e-06 2.798927e+01
-1.977553e-06 1.773002e-06 2.798927e+01
6.759892e-06 3.101842e-07 2.798928e+01
1.074975e-05 1.196681e-05 2.798928e+01
1.513691e-05 1.360911e-05 2.798929e+01
-6.702980e-06 2.434948e-05 2.798926e+01
5.380630e-06 8.837228e-07 2.798926e+01
-1.080821e-06 1.843323e-05 2.798929e+01
-6.541404e-06 1.791403e-06 2.798928e+01
6.491384e-06 1.705405e-05 2.798927e+01
-6.301699e-06 1.514427e-05 2.798927e+01
-1.885064e-06 -1.270381e-07 2.798929e+01
-2.143440e-05 4.040323e-06 2.798928e+01
-1.931940e-05 4.336949e-06 2.798927e+01
-1.195253e-05 -9.318344e-06 2.798927e+01
-2.635705e-05 1.341644e-05 2.798928e+01
-1.601093e-05 -4.298474e-06 2.798928e+01
-4.668893e-06 2.270435e-07 2.798928e+01
-1.050556e-05 4.463947e-06 2.798928e+01
-8.935027e-06 2.115517e-06 2.798928e+01
-1.787511e-05 -5.863651e-06 2.798927e+01
-2.211867e-06 6.332406e-06 2.798928e+01
-9.100176e-06 -7.117639e-07 2.798928e+01
-1.610674e-06 8.987030e-07 2.798927e+01
-2.004570e-06 -3.054909e-06 2.798928e+01
5.522544e-06 1.133982e-05 2.798926e+01
-8.953526e-07 6.135236e-06 2.798926e+01
1.666398e-05 8.206555e-07 2.798929e+01
6.846206e-06 -1.052386e-06 2.798928e+01
-1.050403e-05 8.699426e-06 2.798928e+01
5.648850e-06 1.450049e-07 2.798927e+01
-4.741834e-06 7.546494e-06 2.798927e+01
6.290657e-05 -1.862069e-04 2.798927e+01
5.724841e-05 -2.032245e-04 2.798929e+01
5.227280e-05 -1.416429e-04 2.798929e+01
5.012645e-05 -1.187281e-04 2.798927e+01
2.063048e-05 -1.328069e-04 2.798928e+01
1.568175e-05 -1.999202e-04 2.798930e+01
1.480252e-05 -1.437953e-04 2.798930e+01
1.847766e-05 -1.897099e-04 2.798928e+01
2.782491e-05 -1.310050e-04 2.798928e+01
2.428519e-05 -1.200688e-04 2.798928e+01
3.339334e-05 -1.057375e-04 2.798928e+01
3.158398e-05 -1.205727e-04 2.798929e+01
-2.088795e-05 -1.002559e-04 2.798930e+01
-4.478446e-08 -1.165760e-04 2.798928e+01
-3.028242e-05 -1.154060e-04 2.798928e+01
5.740432e-06 -1.078255e-04 2.798930e+01
-9.706941e-06 -8.937649e-05 2.798929e+01
-9.760155e-06 -8.634095e-05 2.798927e+01
-2.217595e-05 -6.943937e-05 2.798927e+01
-2.634676e-05 -7.519470e-05 2.798928e+01
-6.850404e-05 -7.071474e-05 2.798928e+01
-3.751657e-05 -8.771611e-05 2.798926e+01
-7.028823e-05 -7.148110e-05 2.798928e+01
-3.727988e-05 -7.050761e-05 2.798929e+01
-6.171472e-05 -6.186171e-05 2.798927e+01
-6.120035e-05 -6.272984e-05 2.798929e+01
-7.484200e-05 -6.193732e-05 2.798928e+01
-7.011161e-05 -4.545513e-05 2.798928e+01
-8.046097e-05 -5.233265e-05 2.798928e+01
-5.532495e-05 -5.100202e-05 2.798928e+01
-7.940740e-05 -5.211330e-05 2.798927e+01
-6.039116e-05 -5.064408e-05 2.798927e+01
-6.232248e-05 -3.860596e-05 2.798928e+01
-6.786569e-05 -5.869138e-05 2.798928e+01
-6.866938e-05 -2.328094e-05 2.798927e+01
-6.939286e-05 -3.177975e-05 2.798929e+01
-4.965580e-05 -4.750836e-05 2.798927e+01
-5.010504e-05 -4.758615e-05 2.798928e+01
-5.258727e-05 -3.852858e-05 2.798928e+01
-4.408262e-05 -5.177672e-05 2.798927e+01
-5.803194e-05 -2.923387e-05 2.798928e+01
-5.601116e-05 -2.343729e-05 2.798928e+01
-4.627122e-05 -2.503061e-05 2.798929e+01
-4.867034e-05 -2.095658e-05 2.798927e+01
-2.895528e-05 -2.033910e-05 2.798927e+01
-5.004756e-05 -3.644597e-05 2.798929e+01
-2.922685e-05 -2.797688e-05 2.798928e+01
-4.766563e-05 -3.312539e-05 2.798927e+01
-3.614830e-05 -1.431242e-05 2.798928e+01
-3.745831e-05 -1.074998e-05 2.798927e+01
-3.311066e-05 -2.392560e-05 2.798927e+01
-2.455613e-05 -1.896672e-05 2.798928e+01
-1.838718e-05 -1.486816e-05 2.798928e+01
-3.860597e-05 -3.515676e-05 2.798928e+01
-1.953442e-05 -1.773131e-05 2.798927e+01
-3.692473e-05 -2.223825e-05 2.798928e+01
-2.373689e-05 -1.464418e-05 2.798927e+01
-2.658848e-05 -1.321628e-05 2.798928e+01
-1.816792e-05 -1.195921e-05 2.798929e+01
-1.494116e-05 -2.193716e-05 2.798927e+01
-3.634021e-06 8.780406e-06 2.798927e+01
-2.581827e-05 -1.885793e-05 2.798929e+01
4.010667e-06 -4.633949e-06 2.798928e+01
-2.206612e-05 -1.594807e-05 2.798927e+01
-6.890642e-07 -5.072722e-06 2.798928e+01
1.379462e-06 3.524826e-06 2.798928e+01
7.256881e-07 1.288284e-05 2.798926e+01
-7.110214e-07 -2.305595e-06 2.798929e+01
1.388950e-05 -2.684642e-06 2.798929e+01
-4.793277e-06 -8.702348e-06 2.798928e+01
1.050254e-05 -1.625834e-06 2.798926e+01
-1.654141e-06 2.232179e-06 2.798927e+01
2.622930e-06 3.086154e-05 2.798928e+01
-3.809316e-06 1.083643e-05 2.798928e+01
-1.500132e-05 4.564727e-07 2.798928e+01
-1.104312e-05 1.432595e-05 2.798927e+01
-1.157303e-05 9.323332e-06 2.798927e+01
3.742125e-06 -8.799287e-06 2.798927e+01
-1.448372e-05 1.156655e-05 2.798928e+01
-1.566525e-07 1.328328e-07 2.798928e+01
1.090785e-06 8.691152e-06 2.798929e+01
3.204044e-06 1.706215e-05 2.798926e+01
8.394349e-06 2.245035e-05 2.798926e+01
9.420974e-06 9.432300e-06 2.798929e+01
-2.365912e-06 -1.061467e-05 2.798928e+01
5.933835e-06 1.194910e-05 2.798927e+01
-6.009434e-06 3.033495e-06 2.798927e+01
7.712211e-06 4.963761e-06 2.798928e+01
1.106489e-05 -1.813795e-07 2.798929e+01
-8.612947e-07 4.780668e-06 2.798926e+01
-6.498376e-06 -4.392003e-07 2.798928e+01
-6.367078e-06 1.620367e-05 2.798927e+01
1.464116e-06 2.266727e-06 2.798927e+01
6.691846e-06 -4.168302e-06 2.798927e+01
-5.193070e-06 -6.066846e-07 2.798928e+01
1.000146e-05 3.248718e-06 2.798928e+01
-4.943921e-06 -6.567948e-07 2.798927e+01
8.178101e-07 3.287605e-06 2.798929e+01
-2.740104e-06 1.215515e-05 2.798928e+01
-1.352469e-05 1.005141e-05 2.798927e+01
-7.863781e-06 -6.465087e-06 2.798928e+01
-4.179993e-06 1.271254e-05 2.798928e+01
-7.768927e-06 -8.713761e-06 2.798928e+01
-9.216163e-06 3.407863e-07 2.798927e+01
-1.092789e-05 3.841981e-06 2.798927e+01
-6.646669e-06 9.089618e-06 2.798928e+01
-7.192992e-06 1.506220e-05 2.798927e+01
-5.855134e-06 1.224423e-05 2.798928e+01
-1.643752e-05 -2.678129e-06 2.798926e+01
-6.645998e-07 1.828438e-06 2.798928e+01
-2.193534e-05 2.140963e-07 2.798929e+01
-7.742269e-06 1.569032e-06 2.798927e+01
4.602073e-05 -1.226220e-04 2.798929e+01
4.248723e-05 -1.346109e-04 2.798928e+01
-9.612151e-06 -1.417224e-04 2.798929e+01
-3.244673e-06 -1.186401e-04 2.798929e+01
1.272715e-05 -7.306848e-05 2.798928e+01
3.430272e-06 -1.185333e-04 2.798928e+01
6.146712e-06 -9.073596e-05 2.798929e+01
9.885598e-06 -1.204772e-04 2.798928e+01
-2.450002e-05 -1.004929e-04 2.798929e+01
-2.578044e-05 -1.122753e-04 2.798928e+01
-2.379675e-05 -8.567413e-05 2.798928e+01
-2.001739e-05 -7.875298e-05 2.798928e+01
5.935585e-06 -7.573681e-05 2.798928e+01
-2.041789e-05 -1.039430e-04 2.798928e+01
4.952733e-06 -7.880776e-05 2.798927e+01
-9.315816e-06 -8.207484e-05 2.798928e+01
-3.307895e-05 -7.540815e-05 2.798927e+01
-3.334485e-05 -9.054692e-05 2.798928e+01
-3.567079e-05 -6.608717e-05 2.798929e+01
-3.689275e-05 -6.160390e-05 2.798926e+01
-1.389232e-05 -7.187379e-05 2.798928e+01
-1.635088e-05 -6.611334e-05 2.798926e+01
-1.968193e-05 -7.230934e-05 2.798926e+01
-1.196748e-05 -7.481901e-05 2.798929e+01
-3.504899e-05 -6.513506e-05 2.798927e+01
-3.751248e-05 -6.945595e-05 2.798929e+01
-4.965138e-05 -3.543977e-05 2.798928e+01
-5.464594e-05 -4.487945e-05 2.798928e+01
-3.189344e-05 -5.895178e-05 2.798928e+01
-2.403210e-05 -5.774110e-05 2.798926e+01
-2.822394e-05 -6.127002e-05 2.798927e+01
-2.602002e-05 -5.452806e-05 2.798928e+01
-4.829609e-05 -4.958114e-05 2.798927e+01
-3.842016e-05 -2.753968e-05 2.798928e+01
-3.924804e-05 -4.689460e-05 2.798927e+01
-3.728107e-05 -3.971695e-05 2.798928e+01
-4.097901e-05 -2.426917e-05 2.798927e+01
-3.462789e-05 -4.162348e-05 2.798928e+01
-3.368983e-05 -3.215563e-05 2.798928e+01
-4.795386e-05 -3.212521e-05 2.798927e+01
-3.369906e-05 -1.855036e-05 2.798928e+01
-3.261749e-05 -3.740772e-05 2.798927e+01
-3.599673e-05 -3.235611e-05 2.798927e+01
-3.020388e-05 -3.397839e-05 2.798928e+01
-2.225108e-05 -1.676257e-05 2.798928e+01
-3.859495e-05 -3.889538e-05 2.798928e+01
-1.469583e-05 -1.839348e-05 2.798927e+01
-3.404085e-05 -4.218512e-05 2.798927e+01
-2.108746e-05 -2.451158e-05 2.798927e+01
-1.963726e-05 -1.122890e-05 2.798928e+01
-2.257649e-05 -8.077023e-06 2.798928e+01
-1.562679e-05 -2.098191e-05 2.798927e+01
-1.025611e-05 -1.355921e-05 2.798927e+01
-2.108071e-05 -1.408716e-05 2.798927e+01
-1.249048e-05 2.944015e-06 2.798928e+01
-1.877173e-05 -1.410979e-05 2.798928e+01
-5.109743e-06 -1.946311e-06 2.798927e+01
-6.837532e-06 1.026366e-05 2.798928e+01
-6.242833e-06 5.557168e-07 2.798928e+01
-3.696430e-06 -6.254951e-06 2.798927e+01
-5.017129e-06 -1.021327e-05 2.798927e+01
-8.846844e-06 -2.306457e-06 2.798927e+01
-8.244679e-06 5.670337e-06 2.798928e+01
-1.625799e-06 -2.084377e-05 2.798928e+01
-2.171565e-06 3.111080e-06 2.798927e+01
1.964524e-06 -1.133694e-06 2.798928e+01
1.190078e-05 -4.097654e-06 2.798928e+01
1.144042e-05 1.066266e-05 2.798927e+01
6.546180e-06 8.741544e-06 2.798928e+01
7.561437e-06 8.206044e-06 2.798928e+01
-3.599339e-06 5.711810e-06 2.798927e+01
1.421863e-05 3.738141e-06 2.798927e+01
3.171657e-06 1.317522e-06 2.798927e+01
-3.957992e-06 5.902436e-06 2.798928e+01
-4.319510e-06 -3.553222e-06 2.798928e+01
6.541220e-09 8.808364e-07 2.798927e+01
-3.823700e-06 -5.083094e-06 2.798927e+01
-6.147151e-06 -7.359626e-07 2.798927e+01
-1.007151e-05 -3.178588e-06 2.798928e+01
-7.617881e-07 -5.977018e-06 2.798928e+01
-1.320028e-06 -8.197248e-07 2.798927e+01
-7.192418e-06 4.644705e-06 2.798928e+01
1.155009e-06 1.514954e-05 2.798928e+01
2.053518e-06 5.048272e-06 2.798928e+01
-3.485154e-06 -1.287194e-05 2.798927e+01
1.345640e-07 -2.798447e-06 2.798928e+01
-5.520034e-06 -1.529807e-05 2.798928e+01
6.768290e-07 -9.354368e-06 2.798927e+01
-1.162178e-05 -1.517804e-06 2.798928e+01
-1.051422e-05 -9.503749e-06 2.798927e+01
5.411350e-06 -1.040145e-05 2.798927e+01
7.465947e-06 -2.230756e-05 2.798928e+01
-1.213050e-05 -1.270652e-05 2.798928e+01
-1.033006e-05 -3.947567e-06 2.798927e+01
-6.328989e-06 1.410721e-06 2.798927e+01
-9.693502e-06 -9.043612e-07 2.798929e+01
-5.639526e-06 -2.098087e-05 2.798928e+01
-1.066176e-05 -7.934022e-06 2.798927e+01
-4.756321e-06 -5.522546e-06 2.798928e+01
-7.825404e-06 5.347433e-06 2.798928e+01
-8.584388e-06 -4.028717e-06 2.798928e+01
8.641041e-06 -3.172811e-06 2.798928e+01
-5.973636e-06 -7.014609e-06 2.798928e+01
8.172808e-06 -9.675565e-06 2.798927e+01
-9.742421e-06 2.874517e-06 2.798927e+01
-5.164537e-07 -2.006516e-05 2.798928e+01
-9.389537e-06 -1.970079e-05 2.798928e+01
-1.283313e-05 6.637611e-06 2.798928e+01
-9.678699e-06 1.617593e-05 2.798927e+01
-8.534082e-07 -4.830220e-06 2.798928e+01
-4.599036e-07 -1.555354e-05 2.798929e+01
-8.831607e-06 8.973097e-06 2.798927e+01
1.567694e-05 -1.240394e-04 2.798926e+01
3.211884e-06 -1.144905e-04 2.798928e+01
-2.241240e-05 -8.994259e-05 2.798929e+01
-2.250813e-05 -1.134244e-04 2.798927e+01
-4.009098e-07 -1.087737e-04 2.798927e+01
5.630442e-06 -1.103045e-04 2.798927e+01
-5.868467e-06 -8.526589e-05 2.798928e+01
3.318658e-06 -1.206476e-04 2.798927e+01
6.711048e-06 -7.787520e-05 2.798928e+01
-7.227593e-07 -5.768889e-05 2.798927e+01
-1.944824e-05 -7.255267e-05 2.798927e+01
-1.638742e-05 -8.322213e-05 2.798928e+01
4.426068e-06 -8.262197e-05 2.798927e+01
-2.001868e-05 -9.142321e-05 2.798928e+01
-2.442391e-06 -7.837178e-05 2.798927e+01
-2.326971e-05 -1.116381e-04 2.798927e+01
-7.999646e-06 -7.247727e-05 2.798927e+01
-1.416360e-05 -6.889028e-05 2.798927e+01
-2.629387e-05 -6.626535e-05 2.798927e+01
-2.343522e-05 -6.396474e-05 2.798927e+01
-1.129165e-05 -7.341754e-05 2.798927e+01
-3.446574e-05 -7.695695e-05 2.798926e+01
-1.062127e-05 -6.468680e-05 2.798927e+01
-3.325570e-05 -7.896543e-05 2.798928e+01
-1.930797e-05 -7.040895e-05 2.798928e+01
-1.875392e-05 -6.052887e-05 2.798927e+01
-2.872802e-05 -4.214854e-05 2.798926e+01
-2.934016e-05 -4.605085e-05 2.798928e+01
-1.636428e-05 -5.021778e-05 2.798927e+01
-1.481379e-05 -5.207095e-05 2.798926e+01
-2.419270e-05 -4.790695e-05 2.798927e+01
-1.338021e-05 -4.820239e-05 2.798927e+01
-3.263030e-05 -4.008482e-05 2.798928e+01
-2.736871e-05 -5.382733e-05 2.798927e+01
-3.060774e-05 -4.067862e-05 2.798928e+01
-3.475514e-05 -2.664437e-05 2.798927e+01
-1.118272e-05 -2.584723e-05 2.798927e+01
-2.868095e-05 -4.004927e-05 2.798927e+01
-1.659933e-05 -3.087777e-05 2.798927e+01
-2.763724e-05 -3.365908e-05 2.798926e+01
-3.681790e-05 -1.248106e-05 2.798927e+01
-3.277961e-05 -8.419737e-06 2.798927e+01
-1.402559e-05 -2.644472e-05 2.798927e+01
-1.468231e-05 -2.182595e-05 2.798927e+01
-2.395753e-05 -1.985273e-05 2.798928e+01
-2.890198e-05 -1.919465e-05 2.798927e+01
-2.173106e-05 -1.508223e-05 2.798926e+01
-2.813725e-05 -3.569527e-05 2.798927e+01
-8.735253e-06 -7.218536e-06 2.798928e+01
-1.714117e-05 -1.878913e-05 2.798927e+01
-1.734656e-05 -1.917013e-05 2.798927e+01
-1.051261e-05 -1.031424e-05 2.798927e+01
-4.596942e-06 -1.496335e-05 2.798927e+01
-5.736250e-06 -3.032227e-05 2.798927e+01
-4.013828e-06 -4.900301e-06 2.798927e+01
-1.869552e-06 -2.657171e-05 2.798927e+01
-1.273697e-06 -7.461687e-06 2.798928e+01
9.913333e-07 -1.524724e-06 2.798927e+01
7.187344e-06 8.935429e-06 2.798928e+01
8.067422e-06 4.884802e-06 2.798927e+01
8.893296e-06 8.395440e-06 2.798927e+01
6.684028e-06 -3.829262e-06 2.798927e+01
1.031867e-05 -1.358872e-05 2.798928e+01
1.259260e-05 7.794619e-07 2.798928e+01
9.904510e-06 9.508967e-06 2.798927e+01
4.171348e-06 9.934980e-06 2.798927e+01
-1.093930e-06 -9.659707e-07 2.798927e+01
-6.593536e-06 2.299487e-06 2.798928e+01
-1.086183e-05 -1.108796e-05 2.798927e+01
9.315918e-06 -8.839832e-06 2.798927e+01
-1.394264e-05 -2.706241e-06 2.798928e+01
1.305906e-06 -1.504163e-06 2.798928e+01
-1.158913e-05 1.265827e-05 2.798928e+01
-1.298455e-05 -1.671972e-05 2.798927e+01
-6.597761e-06 -1.588109e-05 2.798927e+01
-6.099612e-06 -1.697302e-06 2.798928e+01
-1.112256e-05 -4.473052e-06 2.798927e+01
-9.961955e-06 -1.684704e-05 2.798928e+01
-3.840108e-06 -9.238561e-06 2.798928e+01
-1.331770e-05 -7.837686e-06 2.798927e+01
-7.401540e-06 -1.468899e-05 2.798928e+01
-2.516988e-06 -8.382030e-06 2.798927e+01
4.962449e-06 1.218376e-06 2.798927e+01
2.808737e-06 -2.948180e-06 2.798928e+01
4.470884e-06 -9.604288e-06 2.798929e+01
-2.949226e-06 3.527328e-06 2.798927e+01
4.170045e-06 -1.138567e-05 2.798926e+01
-9.816987e-07 -8.984128e-06 2.798929e+01
-6.630990e-06 7.003760e-07 2.798928e+01
-9.804330e-06 -6.180558e-06 2.798927e+01
-1.098745e-05 -2.552104e-06 2.798928e+01
-7.719639e-06 6.385291e-06 2.798927e+01
-1.093968e-05 -6.920013e-06 2.798928e+01
1.917519e-06 -3.546853e-06 2.798927e+01
-8.274842e-06 1.133441e-06 2.798927e+01
-7.437688e-06 -2.685542e-06 2.798928e+01
1.073729e-06 -1.552996e-05 2.798927e+01
5.422867e-06 1.020626e-05 2.798928e+01
2.557685e-06 5.744746e-06 2.798927e+01
-3.950884e-06 -1.021209e-05 2.798928e+01
-1.017500e-05 -2.535269e-06 2.798928e+01
6.730755e-06 1.068503e-05 2.798927e+01
-6.235427e-06 -9.031553e-07 2.798927e+01
5.371770e-06 -3.506180e-06 2.798928e+01
-1.010736e-05 -4.093725e-06 2.798927e+01
-1.685045e-06 -5.392623e-06 2.798928e+01
-6.848953e-07 -9.921340e-06 2.798928e+01
-2.782720e-06 1.126411e-06 2.798927e+01
-4.501269e-06 2.395040e-06 2.798927e+01
1.466524e-06 8.263909e-07 2.798928e+01
-7.374046e-06 1.418971e-05 2.798928e+01
2.126843e-06 9.947144e-07 2.798927e+01
1.137687e-05 -1.170675e-04 2.798926e+01
1.474530e-05 -1.089460e-04 2.798927e+01
-9.564648e-06 -1.061608e-04 2.798928e+01
-1.296164e-05 -1.087271e-04 2.798927e+01
1.137177e-05 -9.633903e-05 2.798925e+01
1.729980e-06 -9.647525e-05 2.798927e+01
1.460196e-05 -1.086031e-04 2.798928e+01
6.591914e-07 -1.005265e-04 2.798925e+01
3.047322e-06 -8.827364e-05 2.798927e+01
8.402413e-06 -9.522881e-05 2.798927e+01
-1.825096e-05 -1.011896e-04 2.798927e+01
-1.759115e-05 -8.827672e-05 2.798927e+01
1.931950e-05 -6.730255e-05 2.798927e+01
-1.567150e-05 -1.150079e-04 2.798927e+01
2.330166e-05 -1.015701e-04 2.798925e+01
-1.864703e-05 -8.292439e-05 2.798926e+01
1.248638e-05 -8.164213e-05 2.798927e+01
1.226816e-05 -7.997178e-05 2.798926e+01
-2.144089e-05 -5.962575e-05 2.798926e+01
-2.461689e-05 -7.598482e-05 2.798927e+01
1.533833e-05 -8.431613e-05 2.798926e+01
-9.169542e-06 -8.349527e-05 2.798926e+01
2.267684e-05 -6.597954e-05 2.798926e+01
-1.767090e-05 -7.922450e-05 2.798926e+01
8.112465e-06 -7.419658e-05 2.798926e+01
8.270143e-06 -7.040497e-05 2.798926e+01
-1.011832e-05 -5.576497e-05 2.798926e+01
-1.598300e-05 -6.055773e-05 2.798927e+01
1.972252e-05 -6.353392e-05 2.798928e+01
-1.985357e-05 -5.316596e-05 2.798925e+01
1.875714e-05 -4.847615e-05 2.798924e+01
-1.169316e-05 -6.118803e-05 2.798926e+01
-8.055582e-06 -4.334005e-05 2.798926e+01
-1.057397e-05 -3.963764e-05 2.798927e+01
-1.639214e-05 -3.794768e-05 2.798927e+01
-9.406178e-06 -3.750425e-05 2.798926e+01
-8.218275e-06 -2.652965e-05 2.798927e+01
-4.675164e-06 -4.915228e-05 2.798925e+01
-9.905146e-06 -3.465170e-05 2.798926e+01
-9.706493e-06 -5.582032e-05 2.798927e+01
-1.126144e-05 -3.195546e-05 2.798927e+01
-1.992775e-05 -2.156813e-05 2.798927e+01
-1.627602e-05 -1.383470e-05 2.798926e+01
-9.740817e-06 -1.769304e-05 2.798927e+01
-1.442620e-05 9.516038e-06 2.798927e+01
-6.234399e-06 -1.649281e-05 2.798927e+01
-2.914014e-06 -6.625830e-06 2.798926e+01
2.987814e-06 -1.149951e-05 2.798926e+01
-8.924929e-06 6.746774e-06 2.798927e+01
1.726412e-06 -3.382899e-06 2.798927e+01
1.479886e-05 -2.562836e-06 2.798928e+01
1.142382e-05 3.158778e-06 2.798926e+01
4.040063e-06 -1.123136e-05 2.798926e+01
1.396272e-05 -1.112846e-05 2.798927e+01
-2.526073e-07 -1.150756e-05 2.798927e+01
1.033633e-05 1.002644e-05 2.798926e+01
1.738508e-06 1.302419e-06 2.798927e+01
2.413237e-06 -1.588446e-06 2.798927e+01
9.208488e-06 -8.668687e-06 2.798926e+01
4.923589e-06 -8.644698e-06 2.798928e+01
-5.581500e-06 -3.922086e-05 2.798927e+01
2.156504e-05 -2.626079e-05 2.798926e+01
-1.535681e-05 -2.297781e-05 2.798927e+01
8.478030e-06 -2.921320e-05 2.798927e+01
-5.001375e-06 -1.972879e-05 2.798927e+01
-4.924310e-06 -1.953159e-05 2.798927e+01
-1.928636e-06 -2.719823e-05 2.798927e+01
-5.433069e-06 -1.223056e-05 2.798928e+01
-1.088771e-05 -9.206649e-06 2.798927e+01
5.947662e-06 -2.237412e-05 2.798928e+01
-8.563510e-06 -2.680301e-05 2.798928e+01
4.098126e-07 -2.623346e-05 2.798926e+01
-1.839859e-05 -4.680010e-06 2.798927e+01
-1.396084e-05 -1.752833e-05 2.798928e+01
6.461170e-06 -4.505892e-06 2.798927e+01
7.264115e-06 -1.035045e-05 2.798927e+01
-4.553619e-06 -1.590521e-05 2.798928e+01
2.762757e-07 -7.812210e-06 2.798929e+01
-3.965625e-06 5.775114e-06 2.798927e+01
-4.402757e-07 -9.921210e-06 2.798925e+01
-4.241672e-06 -1.321147e-05 2.798929e+01
-6.718004e-06 1.085132e-05 2.798926e+01
2.213522e-06 9.643922e-06 2.798927e+01
8.077590e-10 -9.268834e-06 2.798928e+01
-1.334641e-05 -1.601783e-05 2.798927e+01
1.315797e-05 -1.436919e-05 2.798925e+01
-1.622331e-05 -8.774962e-06 2.798928e+01
1.261680e-05 -1.360825e-05 2.798930e+01
-5.459806e-06 -9.414869e-06 2.798927e+01
-4.596115e-06 -1.593076e-05 2.798928e+01
2.144615e-06 -3.669407e-06 2.798928e+01
2.657183e-06 -3.658177e-06 2.798927e+01
1.036591e-05 -6.315818e-06 2.798928e+01
-3.041652e-06 7.329920e-06 2.798929e+01
5.764790e-06 -1.523744e-06 2.798927e+01
5.163537e-07 -8.967923e-07 2.798926e+01
2.665341e-06 3.598715e-06 2.798928e+01
-2.511515e-06 -1.144780e-05 2.798927e+01
-4.213677e-06 -1.266427e-05 2.798927e+01
-7.000630e-06 8.683894e-06 2.798928e+01
1.905096e-06 5.164943e-06 2.798928e+01
-5.200843e-06 -1.891690e-05 2.798928e+01
2.413368e-06 -1.386611e-05 2.798927e+01
-5.144754e-06 4.865335e-06 2.798928e+01
1.085484e-06 -5.185797e-06 2.798927e+01
-6.151123e-08 -2.314072e-06 2.798928e+01
-7.235070e-07 1.867121e-06 2.798928e+01
-4.250215e-06 -2.712831e-05 2.798927e+01
3.920477e-06 4.236303e-06 2.798928e+01
-1.118067e-05 5.871046e-07 2.798929e+01
1.661744e-05 1.551163e-05 2.798927e+01
-5.962413e-06 2.707089e-06 2.798926e+01
1.383705e-04 2.571780e-04 2.798931e+01
2.442591e-04 3.771529e-04 2.798934e+01
1.252024e-04 2.591465e-04 2.798931e+01
2.397511e-04 3.704165e-04 2.798933e+01
5.794936e-05 1.329468e-04 2.798927e+01
6.948049e-05 1.310666e-04 2.798927e+01
6.908771e-05 1.720077e-04 2.798927e+01
1.107262e-04 3.466051e-04 2.798929e+01
6.531956e-05 1.715913e-04 2.798927e+01
1.233469e-04 3.453735e-04 2.798928e+01
1.700084e-04 4.400132e-04 2.798929e+01
1.583983e-04 4.500873e-04 2.798929e+01
2.314124e-05 4.411077e-05 2.798926e+01
2.790672e-05 4.356927e-05 2.798926e+01
2.352824e-05 -7.140758e-06 2.798926e+01
1.221229e-05 -7.161275e-06 2.798925e+01
3.140809e-05 -9.751235e-06 2.798925e+01
3.839285e-05 5.755619e-05 2.798925e+01
3.451682e-05 -2.472363e-06 2.798925e+01
4.083871e-05 5.733959e-05 2.798927e+01
5.932452e-06 -1.333532e-05 2.798925e+01
2.826554e-05 -9.657303e-06 2.798926e+01
1.848560e-05 -1.290698e-05 2.798927e+01
2.892623e-05 -4.674019e-06 2.798926e+01
2.048106e-05 6.969593e-06 2.798926e+01
5.045893e-05 -1.495249e-05 2.798925e+01
1.472293e-05 -1.525311e-06 2.798927e+01
4.053165e-05 -1.947779e-05 2.798926e+01
2.410524e-05 -9.650908e-06 2.798926e+01
2.177345e-05 -1.490939e-05 2.798927e+01
-1.480910e-05 -1.669211e-06 2.798926e+01
-1.145938e-05 -1.102393e-05 2.798928e+01
2.487984e-06 -1.373901e-05 2.798927e+01
9.573752e-06 -2.696963e-06 2.798927e+01
2.261201e-08 -1.130812e-05 2.798927e+01
1.080651e-05 5.278569e-07 2.798926e+01
-1.096041e-05 -8.788640e-06 2.798928e+01
-2.533486e-05 -1.377572e-05 2.798926e+01
-3.532332e-06 -1.433078e-05 2.798927e+01
3.638939e-06 -5.682501e-06 2.798928e+01
1.050178e-05 -2.806043e-06 2.798928e+01
-9.439223e-06 -3.692918e-06 2.798928e+01
-1.133866e-05 -2.503295e-06 2.798927e+01
6.535149e-06 -2.663834e-06 2.798927e+01
7.247737e-06 -3.967514e-06 2.798928e+01
-5.743476e-06 -1.024510e-05 2.798927e+01
8.858444e-06 -7.340858e-06 2.798927e+01
7.610084e-06 -6.650337e-07 2.798928e+01
9.640407e-06 -2.759532e-06 2.798928e+01
-2.838042e-06 -4.941522e-06 2.798927e+01
6.612245e-06 -4.613738e-06 2.798927e+01
1.559619e-05 4.447378e-06 2.798928e+01
1.692063e-05 5.348491e-06 2.798927e+01
1.450689e-05 9.431095e-06 2.798928e+01
1.027771e-05 2.049184e-05 2.798927e+01
2.015316e-05 1.025859e-05 2.798928e+01
1.237655e-05 -6.869937e-06 2.798927e+01
2.157956e-05 -9.053417e-06 2.798928e+01
1.248168e-05 -1.332655e-05 2.798928e+01
2.721167e-05 -1.110743e-05 2.798927e+01
-1.873098e-05 1.290926e-05 2.798928e+01
-3.685341e-06 3.805560e-06 2.798927e+01
-3.343254e-05 6.679971e-06 2.798927e+01
-2.990429e-05 -3.227926e-06 2.798928e+01
-4.553091e-05 1.131923e-05 2.798929e+01
7.469232e-06 -2.025265e-07 2.798927e+01
-1.081637e-05 -3.367159e-06 2.798926e+01
-2.610876e-05 -7.405462e-06 2.798929e+01
9.829683e-05 3.987026e-04 2.798928e+01
1.298763e-04 4.835758e-04 2.798925e+01
9.866369e-05 4.008357e-04 2.798928e+01
1.299360e-04 4.791633e-04 2.798926e+01
5.356738e-05 1.955095e-04 2.798926e+01
7.078231e-05 1.986322e-04 2.798927e+01
4.761943e-05 2.200970e-04 2.798926e+01
5.266834e-05 4.340616e-04 2.798926e+01
3.765729e-05 2.202173e-04 2.798925e+01
6.440512e-05 4.283246e-04 2.798928e+01
1.570764e-04 5.580938e-04 2.798928e+01
1.475333e-04 5.655536e-04 2.798926e+01
4.782491e-05 6.268770e-05 2.798925e+01
3.760455e-05 6.071915e-05 2.798926e+01
4.618172e-05 3.840069e-06 2.798925e+01
3.269664e-05 -7.576541e-08 2.798925e+01
2.047756e-05 -1.807103e-05 2.798925e+01
3.597705e-05 7.189656e-05 2.798925e+01
4.344762e-05 -1.024667e-05 2.798925e+01
3.772112e-05 6.845753e-05 2.798926e+01
4.440803e-05 -2.272068e-05 2.798926e+01
3.834055e-05 -2.345214e-05 2.798925e+01
1.814026e-05 -1.172295e-05 2.798925e+01
3.390591e-05 -2.203803e-05 2.798927e+01
3.839059e-05 -2.056259e-06 2.798926e+01
3.238416e-05 -1.972492e-05 2.798925e+01
-6.021102e-07 3.176325e-06 2.798926e+01
4.338454e-05 -2.006610e-05 2.798926e+01
8.129593e-06 1.343154e-05 2.798928e+01
-2.582595e-06 1.104078e-05 2.798925e+01
1.491725e-05 1.526888e-05 2.798926e+01
9.453189e-06 1.906809e-05 2.798927e+01
4.256278e-06 1.258871e-05 2.798926e+01
1.168633e-05 1.850137e-05 2.798926e+01
6.594645e-06 1.724410e-05 2.798928e+01
3.568317e-05 1.373943e-05 2.798926e+01
3.748929e-07 -1.020950e-05 2.798927e+01
6.232483e-06 -4.047604e-06 2.798927e+01
9.898355e-06 -2.831951e-07 2.798928e+01
1.078382e-05 -3.165820e-06 2.798927e+01
1.378076e-05 3.240347e-06 2.798927e+01
4.998843e-06 7.121767e-06 2.798927e+01
1.064625e-05 6.861315e-06 2.798928e+01
1.507855e-05 1.095374e-05 2.798927e+01
8.498739e-06 6.781251e-06 2.798927e+01
-1.632681e-07 9.606384e-06 2.798928e+01
3.245416e-06 -2.157366e-06 2.798928e+01
3.896873e-06 -6.852638e-07 2.798927e+01
7.345380e-06 1.423833e-06 2.798927e+01
-7.810362e-06 4.736129e-06 2.798928e+01
4.602409e-06 5.380859e-06 2.798928e+01
7.672857e-06 -2.041092e-06 2.798927e+01
1.853223e-05 -1.682089e-05 2.798927e+01
1.245913e-05 -1.195343e-05 2.798928e+01
1.377876e-05 -2.153871e-05 2.798927e+01
1.590162e-05 -1.726421e-05 2.798928e+01
1.168845e-05 -1.394590e-05 2.798928e+01
4.792759e-06 -3.080853e-06 2.798928e+01
1.592872e-05 -9.738658e-06 2.798928e+01
-3.483719e-06 8.358173e-08 2.798927e+01
-1.187494e-05 -9.763632e-06 2.798927e+01
1.432998e-05 -1.596675e-05 2.798928e+01
-1.304092e-05 -8.468059e-06 2.798927e+01
-2.246791e-05 -1.155671e-05 2.798928e+01
-5.476914e-06 -1.178965e-05 2.798928e+01
1.711993e-05 -1.351346e-05 2.798928e+01
1.528395e-05 -9.610390e-06 2.798928e+01
-2.241244e-06 -1.463102e-05 2.798928e+01
4.627021e-05 4.545347e-04 2.798927e+01
-3.114599e-05 5.832714e-04 2.798925e+01
4.530490e-05 4.615571e-04 2.798927e+01
-3.554521e-05 5.918228e-04 2.798927e+01
2.129430e-05 2.195851e-04 2.798926e+01
3.230180e-05 2.111181e-04 2.798925e+01
2.273192e-05 2.241548e-04 2.798924e+01
1.380390e-05 4.650655e-04 2.798927e+01
3.246154e-06 2.270322e-04 2.798925e+01
1.168532e-05 4.695454e-04 2.798926e+01
5.427483e-05 6.082737e-04 2.798927e+01
5.312663e-05 6.304272e-04 2.798928e+01
1.917882e-05 5.894605e-05 2.798925e+01
1.965113e-05 6.494657e-05 2.798924e+01
4.091094e-05 9.875869e-06 2.798925e+01
4.144519e-05 1.199256e-05 2.798925e+01
3.071472e-05 4.947035e-06 2.798925e+01
1.300347e-05 8.448635e-05 2.798925e+01
3.070255e-05 6.787880e-06 2.798924e+01
1.448926e-05 8.565694e-05 2.798925e+01
2.383649e-05 -9.516617e-07 2.798925e+01
8.809063e-06 -1.961754e-06 2.798926e+01
1.082434e-05 4.471232e-06 2.798926e+01
2.655367e-05 7.088554e-06 2.798926e+01
9.136774e-06 2.536265e-05 2.798927e+01
2.106865e-06 5.889804e-06 2.798926e+01
6.883415e-07 3.126531e-05 2.798926e+01
9.297234e-06 4.924795e-06 2.798925e+01
1.580630e-05 2.160525e-05 2.798927e+01
3.015766e-05 2.211855e-05 2.798926e+01
2.353427e-05 2.389249e-05 2.798927e+01
6.646090e-06 1.788581e-05 2.798926e+01
2.089010e-05 9.896785e-06 2.798927e+01
2.108468e-05 2.169089e-05 2.798926e+01
3.189720e-05 1.718284e-05 2.798927e+01
8.155020e-06 2.294483e-05 2.798927e+01
5.777408e-06 1.205892e-05 2.798927e+01
2.449235e-05 1.047884e-05 2.798927e+01
6.644157e-06 5.228378e-06 2.798927e+01
-1.006221e-05 1.520836e-06 2.798927e+01
-6.328103e-06 1.113822e-05 2.798928e+01
1.882771e-05 1.158558e-05 2.798927e+01
-1.711281e-06 7.337594e-06 2.798927e+01
9.783757e-06 -7.800716e-07 2.798928e+01
8.217571e-06 4.572021e-06 2.798928e+01
5.671010e-07 1.158124e-05 2.798927e+01
3.176907e-06 6.915397e-06 2.798928e+01
9.719879e-06 3.767453e-06 2.798927e+01
7.456856e-06 2.915341e-06 2.798926e+01
4.942759e-06 1.031891e-05 2.798927e+01
2.545858e-06 5.730144e-06 2.798929e+01
-8.337048e-07 1.178184e-05 2.798928e+01
-6.288313e-06 3.593019e-06 2.798927e+01
1.825858e-07 1.452897e-06 2.798928e+01
-4.209570e-07 -7.155733e-06 2.798927e+01
-3.985931e-06 -4.348327e-06 2.798928e+01
-2.375617e-05 -7.280032e-06 2.798929e+01
-3.268867e-06 3.590128e-06 2.798928e+01
-8.411247e-06 -4.505660e-06 2.798927e+01
-7.440914e-06 -3.226002e-06 2.798927e+01
1.506415e-05 -1.562891e-05 2.798928e+01
1.751352e-05 -8.095204e-06 2.798927e+01
2.466401e-05 -5.706569e-06 2.798927e+01
1.993962e-05 -8.483218e-06 2.798928e+01
2.831264e-05 -1.228013e-05 2.798928e+01
2.428179e-05 -1.354833e-05 2.798928e+01
4.501734e-05 -5.871789e-06 2.798927e+01
2.047316e-05 -4.765993e-06 2.798927e+01
-1.388030e-05 4.754437e-04 2.798926e+01
-1.332217e-04 6.062432e-04 2.798926e+01
-1.872575e-05 4.822056e-04 2.798926e+01
-1.386842e-04 6.213828e-04 2.798926e+01
-8.670881e-06 2.106958e-04 2.798924e+01
2.421195e-05 2.098977e-04 2.798925e+01
-3.645381e-06 2.023717e-04 2.798924e+01
-3.153210e-05 4.515894e-04 2.798925e+01
-1.664127e-05 2.044591e-04 2.798924e+01
-5.228387e-05 4.467136e-04 2.798926e+01
-3.560864e-05 5.833046e-04 2.798928e+01
-2.488860e-05 6.017852e-04 2.798927e+01
1.238228e-05 7.326866e-05 2.798924e+01
5.389076e-06 7.198803e-05 2.798924e+01
5.197021e-06 2.253839e-05 2.798924e+01
1.037042e-05 2.246094e-05 2.798925e+01
-1.125260e-05 5.896989e-06 2.798924e+01
-6.764172e-06 5.698836e-05 2.798924e+01
1.385813e-07 -4.379414e-06 2.798925e+01
9.474158e-06 5.072419e-05 2.798924e+01
-4.246498e-07 1.643699e-05 2.798925e+01
8.928341e-06 1.382028e-05 2.798925e+01
-7.018500e-06 3.548889e-05 2.798926e+01
-1.098457e-05 3.221021e-05 2.798926e+01
-6.125594e-06 2.929724e-05 2.798925e+01
-1.303476e-05 3.965574e-06 2.798925e+01
-5.284973e-06 2.037086e-05 2.798927e+01
-1.319828e-05 7.921519e-07 2.798925e+01
4.622152e-06 3.604058e-05 2.798926e+01
-2.873180e-06 4.865585e-05 2.798927e+01
2.156773e-05 1.895082e-05 2.798928e+01
2.438481e-05 1.899877e-05 2.798926e+01
1.429708e-05 1.629219e-05 2.798927e+01
-2.763194e-05 3.442066e-05 2.798927e+01
1.353792e-05 2.217844e-05 2.798926e+01
5.452548e-07 3.373290e-05 2.798926e+01
1.984049e-05 2.091988e-06 2.798927e+01
1.682468e-05 -1.908005e-06 2.798928e+01
-1.805972e-06 5.988555e-06 2.798928e+01
-8.634090e-06 -4.878162e-06 2.798927e+01
-1.962549e-05 -3.842366e-06 2.798927e+01
2.061467e-05 3.977033e-06 2.798927e+01
3.671102e-06 2.298132e-06 2.798928e+01
1.310839e-05 2.220997e-07 2.798927e+01
-1.433688e-05 -5.049236e-06 2.798928e+01
-7.416255e-06 -2.469515e-06 2.798927e+01
1.766224e-05 -5.892663e-06 2.798928e+01
8.907408e-06 -7.132021e-06 2.798927e+01
7.602009e-06 3.167498e-06 2.798928e+01
-1.128959e-06 1.129249e-05 2.798928e+01
9.220851e-06 4.462023e-06 2.798927e+01
-1.687782e-05 1.159775e-05 2.798927e+01
-5.419637e-06 1.777778e-06 2.798926e+01
-1.198205e-05 -1.473355e-06 2.798929e+01
-1.096779e-05 5.476775e-06 2.798928e+01
-1.290762e-05 1.108314e-05 2.798927e+01
9.604942e-06 9.663515e-06 2.798928e+01
-7.732320e-06 -5.476370e-06 2.798927e+01
-5.725148e-06 5.315938e-06 2.798927e+01
7.122254e-07 -4.706061e-06 2.798928e+01
1.406963e-05 5.683580e-06 2.798929e+01
2.235437e-05 1.055106e-05 2.798926e+01
4.284144e-05 -5.902915e-06 2.798927e+01
4.129428e-05 8.985588e-06 2.798928e+01
3.397094e-05 8.842269e-06 2.798927e+01
9.390113e-06 8.163495e-06 2.798927e+01
2.272556e-05 1.284376e-05 2.798928e+01
1.399018e-05 1.629348e-05 2.798928e+01
-6.159318e-05 3.985464e-04 2.798925e+01
-1.899319e-04 5.575582e-04 2.798925e+01
-6.067459e-05 4.084009e-04 2.798925e+01
-2.005402e-04 5.650064e-04 2.798925e+01
-2.874691e-05 1.614104e-04 2.798923e+01
-7.456815e-06 1.560029e-04 2.798924e+01
-2.771867e-05 1.421399e-04 2.798923e+01
-7.825517e-05 3.394078e-04 2.798924e+01
-2.579081e-05 1.439061e-04 2.798923e+01
-7.443687e-05 3.444135e-04 2.798924e+01
-1.446731e-04 4.847185e-04 2.798926e+01
-1.523300e-04 4.996237e-04 2.798926e+01
-9.101648e-06 4.206354e-05 2.798923e+01
-2.325601e-05 3.414525e-05 2.798924e+01
-2.641404e-05 -1.645926e-05 2.798924e+01
-3.046060e-05 -1.939816e-05 2.798925e+01
-3.215626e-05 -2.356902e-05 2.798926e+01
-4.447307e-05 2.903352e-05 2.798923e+01
-3.867433e-05 -9.009655e-06 2.798923e+01
-4.076878e-05 1.922684e-05 2.798924e+01
-1.893219e-05 -1.578164e-05 2.798926e+01
-4.281578e-06 -1.488606e-05 2.798925e+01
-1.784614e-06 6.642079e-06 2.798927e+01
-2.494516e-05 4.578018e-06 2.798926e+01
-2.179907e-05 9.760195e-06 2.798925e+01
-1.383729e-05 -8.193876e-06 2.798926e+01
-1.607226e-05 7.860418e-06 2.798927e+01
-9.911170e-06 -7.068324e-06 2.798925e+01
2.348739e-06 2.212903e-05 2.798926e+01
-1.249068e-05 2.335726e-05 2.798927e+01
9.676690e-06 3.010235e-05 2.798928e+01
9.073449e-06 2.524817e-05 2.798925e+01
1.554136e-05 8.670122e-06 2.798926e+01
-6.548109e-06 4.332599e-06 2.798927e+01
1.212008e-05 2.186827e-06 2.798928e+01
5.023386e-06 1.708741e-05 2.798926e+01
2.267356e-06 8.100185e-06 2.798927e+01
8.408753e-06 5.028036e-06 2.798928e+01
-1.555521e-06 1.857456e-06 2.798927e+01
-4.782416e-06 5.940464e-06 2.798928e+01
-7.110092e-06 4.251672e-06 2.798928e+01
5.061398e-06 7.457178e-06 2.798928e+01
5.079352e-06 9.342502e-07 2.798927e+01
-1.285045e-05 3.776460e-06 2.798927e+01
-6.378173e-06 4.382013e-06 2.798927e+01
-1.103903e-05 3.462289e-06 2.798928e+01
9.747305e-07 1.905258e-06 2.798928e+01
6.997500e-06 -1.034007e-06 2.798927e+01
1.495840e-05 8.476928e-06 2.798927e+01
-8.800978e-06 6.081604e-06 2.798929e+01
-1.700058e-06 1.196796e-05 2.798928e+01
-5.741726e-06 1.285324e-05 2.798927e+01
-2.070252e-06 1.017287e-05 2.798927e+01
9.788287e-06 8.424534e-06 2.798928e+01
-3.998602e-06 -4.190133e-06 2.798927e+01
-4.239280e-06 1.252033e-06 2.798928e+01
1.075288e-05 2.543409e-06 2.798928e+01
-2.237099e-06 -7.112088e-06 2.798928e+01
1.216783e-06 9.696638e-06 2.798928e+01
-5.979822e-06 -7.154972e-06 2.798927e+01
2.592990e-05 -1.360016e-06 2.798928e+01
1.996908e-05 -3.117715e-06 2.798927e+01
7.045975e-06 1.472830e-05 2.798927e+01
6.810786e-06 6.225131e-06 2.798928e+01
-4.917872e-06 -3.253395e-06 2.798927e+01
1.766984e-05 9.802246e-06 2.798928e+01
1.234652e-05 -8.987947e-06 2.798928e+01
2.106419e-05 1.090914e-05 2.798927e+01
-9.679494e-05 2.920469e-04 2.798924e+01
-2.082363e-04 4.069058e-04 2.798924e+01
-7.236721e-05 2.978145e-04 2.798923e+01
-2.176201e-04 4.173095e-04 2.798922e+01
-3.298390e-05 1.175083e-04 2.798923e+01
-5.235954e-05 1.171504e-04 2.798923e+01
-5.196389e-05 1.148445e-04 2.798922e+01
-1.217479e-04 2.167916e-04 2.798922e+01
-4.982691e-05 1.253454e-04 2.798922e+01
-1.386409e-04 2.132863e-04 2.798922e+01
-1.966391e-04 2.959821e-04 2.798921e+01
-1.984848e-04 2.948947e-04 2.798922e+01
-5.246748e-05 3.739173e-05 2.798924e+01
-3.015914e-05 4.007002e-05 2.798923e+01
-5.559740e-05 2.867253e-06 2.798925e+01
-3.454392e-05 8.835361e-06 2.798924e+01
-5.124386e-05 -1.835542e-05 2.798924e+01
-6.228169e-05 4.719605e-05 2.798922e+01
-6.310549e-05 -1.740391e-05 2.798924e+01
-5.478373e-05 3.712431e-05 2.798924e+01
-8.990857e-06 -1.303603e-05 2.798924e+01
-3.103661e-05 -3.882293e-06 2.798926e+01
-2.649364e-05 3.318249e-06 2.798926e+01
-8.914128e-06 3.546625e-06 2.798926e+01
-1.270469e-05 1.350524e-05 2.798927e+01
-4.065995e-05 -4.934424e-06 2.798926e+01
-1.989818e-05 1.731109e-05 2.798925e+01
-1.351511e-05 2.092459e-06 2.798925e+01
2.978036e-06 1.724163e-05 2.798928e+01
-7.677087e-06 2.012453e-05 2.798925e+01
6.523830e-06 8.448971e-06 2.798926e+01
8.601649e-06 1.154487e-05 2.798928e+01
4.184879e-07 -3.071649e-06 2.798927e+01
-1.339023e-05 -4.029814e-06 2.798926e+01
1.221566e-05 8.069633e-07 2.798927e+01
-1.519619e-05 -1.041780e-05 2.798928e+01
3.955312e-06 1.330056e-06 2.798928e+01
-1.351510e-06 -2.260183e-06 2.798926e+01
-6.612879e-06 5.137305e-06 2.798926e+01
6.000980e-06 9.978008e-06 2.798929e+01
1.409100e-05 1.541145e-06 2.798928e+01
1.391279e-05 4.312284e-06 2.798927e+01
1.689911e-05 4.784931e-06 2.798927e+01
5.313513e-06 9.473332e-07 2.798927e+01
9.435387e-06 1.755367e-05 2.798927e+01
2.558038e-06 1.464267e-05 2.798928e+01
-6.236458e-06 1.392903e-05 2.798928e+01
1.598484e-06 1.270932e-05 2.798927e+01
4.032938e-06 -5.963698e-06 2.798927e+01
5.913945e-06 1.782650e-05 2.798928e+01
-3.477859e-06 -8.048030e-06 2.798929e+01
-1.714881e-06 6.954504e-06 2.798927e+01
3.255973e-06 2.039483e-05 2.798927e+01
-2.466652e-06 2.444542e-05 2.798928e+01
1.453223e-05 1.779179e-05 2.798928e+01
7.268152e-06 1.321657e-05 2.798927e+01
2.759675e-06 1.930180e-05 2.798927e+01
2.034800e-05 -6.852076e-07 2.798927e+01
7.496916e-06 1.635953e-05 2.798928e+01
2.257168e-05 3.252729e-06 2.798928e+01
-3.209770e-06 2.579753e-07 2.798927e+01
1.193904e-05 -1.888676e-06 2.798928e+01
1.611779e-05 -1.060894e-06 2.798928e+01
8.085607e-06 2.097452e-06 2.798928e+01
-2.733611e-07 6.235288e-06 2.798928e+01
1.030963e-05 3.079752e-06 2.798928e+01
1.814986e-05 9.453660e-06 2.798927e+01
-6.182150e-06 8.990896e-06 2.798928e+01
-2.434833e-05 -5.618405e-06 2.798929e+01
-1.546743e-05 1.934853e-06 2.798929e+01
-1.550606e-05 3.051802e-06 2.798929e+01
-3.048485e-05 5.845502e-06 2.798931e+01
-2.090491e-05 -5.111645e-06 2.798930e+01
-9.906661e-06 -7.278379e-06 2.798928e+01
-1.185615e-05 3.324910e-06 2.798929e+01
-1.978871e-05 -2.936326e-06 2.798929e+01
-1.295915e-05 -2.934703e-07 2.798928e+01
-9.804575e-06 -3.120384e-06 2.798929e+01
-1.248765e-05 7.171828e-06 2.798929e+01
-1.566534e-05 4.939601e-06 2.798929e+01
-2.082732e-05 -1.018941e-05 2.798930e+01
-2.214099e-05 -4.092596e-06 2.798930e+01
-1.983598e-05 -1.185898e-05 2.798930e+01
-2.452475e-05 -6.853861e-06 2.798930e+01
-3.480070e-05 2.141166e-06 2.798931e+01
-3.946311e-05 -8.197819e-07 2.798931e+01
-3.800179e-05 -3.452203e-05 2.798931e+01
-5.448886e-05 -2.931698e-05 2.798932e+01
-4.332485e-05 -2.971108e-05 2.798931e+01
-5.538334e-05 -2.271280e-05 2.798932e+01
-2.620496e-05 -1.741807e-05 2.798930e+01
-2.378286e-05 -2.683273e-05 2.798931e+01
-1.954434e-05 -4.311591e-05 2.798933e+01
-5.049482e-05 -5.715947e-05 2.798932e+01
-1.948421e-05 -3.969087e-05 2.798932e+01
-5.125963e-05 -5.444752e-05 2.798933e+01
-7.391769e-05 -6.393880e-05 2.798932e+01
-7.607941e-05 -7.313550e-05 2.798933e+01
-3.759957e-05 -7.774652e-05 2.798934e+01
-8.935747e-05 -1.058562e-04 2.798933e+01
-2.933402e-05 -8.940686e-05 2.798933e+01
-8.476079e-05 -9.443964e-05 2.798932e+01
-1.540279e-05 -7.017990e-05 2.798933e+01
-1.992933e-05 -6.030315e-05 2.798934e+01
-2.574317e-05 -8.767199e-05 2.798934e+01
-7.249573e-05 -7.602319e-05 2.798935e+01
-2.180565e-05 -8.829327e-05 2.798934e+01
-5.530775e-05 -8.017526e-05 2.798932e+01
-7.345792e-05 -1.095385e-04 2.798934e+01
-7.766751e-05 -1.191366e-04 2.798935e+01
-7.325267e-05 -9.233649e-05 2.798932e+01
-1.254621e-04 -1.860430e-04 2.798933e+01
-7.402743e-05 -1.109446e-04 2.798936e+01
-1.257180e-04 -1.792463e-04 2.798932e+01
-3.658020e-05 -8.521449e-05 2.798935e+01
-2.884607e-05 -6.860798e-05 2.798933e+01
-5.888381e-05 -1.058988e-04 2.798933e+01
-8.865736e-05 -1.458980e-04 2.798932e+01
-5.952373e-05 -1.027559e-04 2.798933e+01
-8.800154e-05 -1.423736e-04 2.798932e+01
-8.030626e-05 -1.975010e-04 2.798933e+01
-7.646804e-05 -2.051241e-04 2.798935e+01
-1.210935e-04 -1.364146e-04 2.798934e+01
-1.836067e-04 -2.359759e-04 2.798930e+01
-1.031601e-04 -1.401128e-04 2.798929e+01
-1.878121e-04 -2.232822e-04 2.798930e+01
-6.628999e-05 -1.356953e-04 2.798931e+01
-7.828431e-05 -1.417503e-04 2.798932e+01
-1.127614e-04 -1.338511e-04 2.798930e+01
-8.857650e-05 -1.546507e-04 2.798930e+01
-1.104438e-04 -1.494279e-04 2.798930e+01
-8.285753e-05 -1.630490e-04 2.798930e+01
-6.472877e-05 -2.101188e-04 2.798932e+01
-6.619965e-05 -2.135404e-04 2.798932e+01
-1.196450e-04 -1.658810e-04 2.798930e+01
-2.090829e-04 -2.382172e-04 2.798929e+01
-1.071253e-04 -1.939901e-04 2.798931e+01
-1.974279e-04 -2.505332e-04 2.798930e+01
-5.387114e-05 -1.698393e-04 2.798930e+01
-5.502162e-05 -1.557989e-04 2.798931e+01
-7.443655e-05 -1.858907e-04 2.798932e+01
-7.638918e-05 -2.176920e-04 2.798929e+01
-6.370067e-05 -1.557687e-04 2.798928e+01
-9.296517e-05 -1.971765e-04 2.798930e+01
-8.781243e-05 -2.847968e-04 2.798931e+01
-7.740874e-05 -2.809808e-04 2.798930e+01
-1.378450e-04 -2.538483e-04 2.798929e+01
-2.060998e-04 -2.894741e-04 2.798928e+01
-1.213351e-04 -2.691583e-04 2.798928e+01
-2.170413e-04 -2.885825e-04 2.798928e+01
-9.256067e-05 -1.734021e-04 2.798928e+01
-9.711429e-05 -1.863251e-04 2.798930e+01
-6.375702e-05 -9.571239e-05 2.798926e+01
-1.014515e-04 -3.573444e-04 2.798926e+01
-6.898019e-05 -1.249537e-04 2.798929e+01
-1.279725e-04 -3.457024e-04 2.798925e+01
-8.951285e-05 -2.559015e-04 2.798928e+01
-5.893570e-05 -2.693831e-04 2.798928e+01
-8.751850e-06 1.168323e-05 2.798929e+01
-7.762071e-06 -3.516396e-06 2.798928e+01
-1.402606e-05 8.031190e-06 2.798927e+01
-7.663062e-06 -9.135860e-07 2.798929e+01
-1.061041e-05 5.005135e-06 2.798928e+01
-9.560843e-06 5.703664e-06 2.798928e+01
-1.165493e-05 3.480515e-06 2.798928e+01
-1.248965e-05 1.052408e-05 2.798928e+01
4.037347e-06 -5.648345e-08 2.798928e+01
-5.412089e-06 -6.088958e-06 2.798929e+01
2.466791e-06 -8.098505e-07 2.798928e+01
-4.587782e-06 -1.053459e-05 2.798929e+01
-1.812122e-07 -6.278350e-06 2.798929e+01
-3.085162e-06 2.030206e-05 2.798927e+01
5.652286e-06 -2.803296e-06 2.798927e+01
-9.533340e-07 8.448652e-06 2.798928e+01
-5.427645e-06 5.595494e-06 2.798928e+01
-7.446590e-06 2.119559e-06 2.798929e+01
-1.176728e-06 -1.876466e-05 2.798931e+01
1.394981e-06 -1.341920e-05 2.798929e+01
8.216351e-06 -4.649665e-06 2.798928e+01
6.338671e-06 -1.116164e-05 2.798930e+01
1.101366e-05 -2.974951e-05 2.798931e+01
-8.565857e-06 -2.474243e-05 2.798931e+01
6.938002e-06 -2.231110e-05 2.798929e+01
-1.135179e-05 -2.794660e-05 2.798931e+01
2.882355e-06 1.253356e-06 2.798929e+01
-3.296390e-06 9.353845e-06 2.798928e+01
1.021061e-05 -2.213912e-05 2.798928e+01
2.353134e-06 -2.793626e-05 2.798930e+01
-8.334220e-06 -5.131650e-05 2.798932e+01
-1.621867e-05 -5.279484e-05 2.798932e+01
-1.959547e-06 -4.106070e-05 2.798931e+01
5.182461e-06 -3.428662e-05 2.798931e+01
5.749825e-06 -4.266314e-05 2.798932e+01
-1.312894e-05 -6.530606e-05 2.798933e+01
-4.586127e-06 -4.633011e-05 2.798931e+01
-6.567432e-06 -6.874345e-05 2.798932e+01
7.049493e-06 -3.269123e-05 2.798931e+01
2.663461e-06 -2.515160e-05 2.798929e+01
2.419177e-06 -4.292875e-05 2.798931e+01
4.804673e-06 -3.247144e-05 2.798931e+01
-8.862167e-06 -5.948185e-05 2.798932e+01
-8.108786e-06 -7.783479e-05 2.798934e+01
7.608575e-06 -6.178644e-05 2.798933e+01
2.941715e-06 -6.040426e-05 2.798931e+01
-1.279163e-05 -8.056338e-05 2.798930e+01
-3.015695e-05 -8.897851e-05 2.798932e+01
-1.713001e-05 -9.000228e-05 2.798933e+01
-3.245777e-05 -8.568390e-05 2.798932e+01
4.083394e-06 -5.353177e-05 2.798931e+01
4.301558e-09 -5.789764e-05 2.798932e+01
-1.839904e-05 -8.268703e-05 2.798931e+01
-2.660943e-05 -9.035861e-05 2.798931e+01
-7.588189e-05 -1.359263e-04 2.798931e+01
-7.772180e-05 -1.195301e-04 2.798930e+01
-5.953507e-05 -1.158744e-04 2.798930e+01
-6.844304e-05 -1.172531e-04 2.798930e+01
-6.028028e-05 -1.361921e-04 2.798928e+01
-7.514964e-05 -1.579041e-04 2.798930e+01
-5.199970e-05 -1.237017e-04 2.798931e+01
-6.691898e-05 -1.460249e-04 2.798929e+01
-4.838740e-05 -1.037661e-04 2.798931e+01
-3.987842e-05 -8.671695e-05 2.798929e+01
-3.989335e-05 -9.991941e-05 2.798929e+01
-5.109753e-05 -1.201765e-04 2.798929e+01
-3.759123e-05 -1.188140e-04 2.798929e+01
-3.953896e-05 -1.440591e-04 2.798930e+01
-4.018017e-05 -1.368077e-04 2.798928e+01
-4.330467e-05 -1.450944e-04 2.798930e+01
-5.985922e-05 -1.782026e-04 2.798928e+01
-3.509466e-05 -2.113432e-04 2.798929e+01
-6.148321e-05 -1.628129e-04 2.798928e+01
-4.926219e-05 -1.762089e-04 2.798929e+01
-3.916385e-05 -1.455439e-04 2.798928e+01
-4.889683e-05 -1.405972e-04 2.798928e+01
-3.893297e-05 -1.281967e-04 2.798930e+01
-3.644787e-05 -1.357492e-04 2.798926e+01
-1.326287e-04 -1.700825e-04 2.798928e+01
-1.283864e-04 -1.895868e-04 2.798929e+01
-9.676089e-05 -1.682238e-04 2.798930e+01
-9.080420e-05 -1.665868e-04 2.798925e+01
-1.496837e-04 -1.820085e-04 2.798926e+01
-1.448287e-04 -1.898891e-04 2.798928e+01
-1.361138e-04 -1.772011e-04 2.798926e+01
-1.557748e-04 -2.079811e-04 2.798928e+01
-4.592685e-05 -1.358207e-04 2.798925e+01
-3.848098e-05 -1.451566e-04 2.798930e+01
-1.340893e-04 -1.532204e-04 2.798928e+01
-1.430575e-04 -1.371037e-04 2.798925e+01
-1.141943e-04 -2.213013e-04 2.798925e+01
-1.065580e-04 -2.289721e-04 2.798926e+01
-1.370383e-04 -3.699706e-04 2.798925e+01
-1.386404e-04 -3.757640e-04 2.798926e+01
-5.913158e-05 -3.176792e-04 2.798926e+01
-8.706544e-05 -2.204958e-04 2.798927e+01
-3.959061e-05 -3.215308e-04 2.798927e+01
-8.539543e-05 -2.249389e-04 2.798926e+01
-1.241666e-04 -1.969698e-04 2.798926e+01
-1.135225e-04 -2.158906e-04 2.798928e+01
-1.560422e-04 -3.488022e-04 2.798927e+01
-1.946373e-04 -3.354428e-04 2.798926e+01
-7.142521e-06 7.840092e-06 2.798927e+01
-7.083533e-06 1.662141e-05 2.798928e+01
1.547528e-06 -5.356318e-08 2.798928e+01
-1.396145e-06 5.730773e-06 2.798928e+01
-4.302354e-06 -4.080155e-06 2.798929e+01
-9.519860e-06 -4.235446e-06 2.798927e+01
-3.656761e-06 -1.595610e-06 2.798927e+01
-9.497712e-06 -4.789967e-08 2.798929e+01
-8.345373e-06 8.748917e-06 2.798927e+01
-1.739493e-05 -2.121025e-06 2.798929e+01
-2.679791e-05 8.530797e-06 2.798928e+01
-1.509116e-05 -5.844601e-06 2.798928e+01
-1.318083e-05 -5.100422e-06 2.798928e+01
-9.563639e-06 -4.106265e-06 2.798927e+01
-2.056391e-05 1.851663e-05 2.798927e+01
-5.738424e-06 -5.450312e-06 2.798928e+01
-2.723546e-06 -5.612712e-07 2.798928e+01
-9.890641e-06 1.559835e-05 2.798928e+01
-1.449149e-05 1.805338e-05 2.798928e+01
-2.345295e-05 1.904185e-05 2.798928e+01
-1.191131e-05 5.642711e-06 2.798928e+01
-9.948149e-06 1.828086e-05 2.798928e+01
-1.255118e-05 1.078692e-05 2.798928e+01
-3.163027e-07 -2.104535e-07 2.798928e+01
-3.067684e-06 9.047185e-06 2.798929e+01
-8.154645e-06 -5.373092e-06 2.798927e+01
-6.389830e-06 4.621235e-06 2.798927e+01
-3.338637e-06 1.191381e-06 2.798928e+01
-5.175910e-06 1.134863e-05 2.798928e+01
-4.309771e-06 2.936974e-06 2.798928e+01
-4.931506e-06 -3.715056e-07 2.798927e+01
-2.829404e-06 1.196702e-05 2.798928e+01
-2.807088e-06 -2.014149e-06 2.798928e+01
-2.059549e-06 1.686012e-05 2.798927e+01
-4.416340e-06 1.357011e-05 2.798928e+01
-8.239475e-06 8.446626e-06 2.798928e+01
1.378692e-06 4.827796e-06 2.798927e+01
-1.149712e-06 5.886470e-07 2.798927e+01
9.813952e-07 2.476418e-06 2.798929e+01
-7.458772e-07 2.113524e-07 2.798928e+01
-1.100425e-05 9.489447e-06 2.798928e+01
-1.463393e-05 1.532312e-05 2.798927e+01
-8.737511e-06 1.510904e-05 2.798927e+01
-5.284040e-06 8.753524e-06 2.798929e+01
-9.825928e-06 -1.636319e-06 2.798928e+01
-1.447964e-05 7.738850e-06 2.798927e+01
-1.179471e-05 1.720504e-07 2.798927e+01
-1.769029e-05 2.927777e-06 2.798928e+01
6.043769e-07 2.742161e-06 2.798927e+01
-5.793301e-06 1.571161e-05 2.798928e+01
-5.494070e-06 1.197263e-05 2.798928e+01
-6.514538e-06 6.007268e-06 2.798927e+01
-1.033164e-05 -9.383310e-06 2.798928e+01
-3.121736e-06 2.244885e-05 2.798927e+01
-1.368864e-05 1.349384e-05 2.798927e+01
-1.322939e-06 -2.963516e-06 2.798928e+01
-8.461009e-06 1.403124e-05 2.798927e+01
-7.635746e-06 -4.227205e-06 2.798928e+01
-3.149984e-06 -1.532763e-05 2.798928e+01
-4.255826e-06 -9.210764e-06 2.798927e+01
-1.509695e-05 1.113472e-06 2.798928e+01
-8.735890e-06 -1.556455e-05 2.798928e+01
-9.326582e-06 -7.038150e-06 2.798928e+01
-1.756806e-05 2.268348e-06 2.798928e+01
-5.538426e-07 -1.379686e-05 2.798928e+01
-1.105095e-05 -6.831371e-06 2.798928e+01
-1.393591e-05 8.536625e-06 2.798927e+01
-6.900499e-06 5.275039e-06 2.798928e+01
3.497270e-06 -6.758843e-07 2.798928e+01
-2.340857e-06 -1.529650e-05 2.798927e+01
7.439973e-06 -8.850954e-06 2.798928e+01
2.918057e-06 -1.454688e-06 2.798928e+01
9.257333e-07 -6.231469e-06 2.798927e+01
-3.718269e-06 6.542444e-06 2.798928e+01
-1.388536e-05 6.652430e-07 2.798927e+01
-2.021241e-05 1.845665e-06 2.798928e+01
-6.706709e-06 -6.464294e-06 2.798927e+01
-2.399685e-06 -1.403300e-05 2.798928e+01
-4.506209e-06 -6.226555e-06 2.798928e+01
-8.461073e-06 -4.483081e-06 2.798927e+01
-2.907564e-05 4.659926e-07 2.798928e+01
-1.249084e-05 -8.393332e-06 2.798928e+01
-1.511582e-06 -5.400559e-06 2.798928e+01
-6.750681e-07 -2.319722e-06 2.798928e+01
-5.611615e-06 2.170660e-05 2.798928e+01
-1.733765e-05 1.251862e-05 2.798927e+01
8.608395e-06 1.521407e-05 2.798927e+01
-1.773803e-05 1.061745e-05 2.798928e+01
-5.700604e-06 1.158335e-05 2.798929e+01
-2.714150e-06 5.029820e-06 2.798927e+01
8.773302e-06 1.741224e-06 2.798928e+01
1.288164e-05 8.634199e-06 2.798928e+01
-1.577584e-06 9.097427e-06 2.798927e+01
2.379192e-06 2.183378e-06 2.798927e+01
5.763720e-06 2.595235e-06 2.798928e+01
-8.688981e-06 1.835349e-05 2.798928e+01
-6.906771e-06 7.223727e-06 2.798927e+01
-2.825804e-06 -1.137227e-05 2.798928e+01
-5.939809e-08 1.640533e-06 2.798929e+01
-3.431441e-07 -2.547935e-06 2.798926e+01
-2.104836e-06 7.108157e-06 2.798927e+01
5.639090e-06 4.186692e-06 2.798928e+01
-1.357925e-06 8.304541e-06 2.798928e+01
1.994489e-06 1.100083e-06 2.798927e+01
9.533956e-06 1.360613e-05 2.798927e+01
5.155395e-06 8.200091e-06 2.798928e+01
-6.218757e-06 1.774036e-05 2.798927e+01
-1.516903e-05 1.528963e-05 2.798928e+01
2.589337e-06 -1.830902e-06 2.798927e+01
5.949486e-06 -4.933483e-06 2.798928e+01
-5.207174e-06 -7.179302e-07 2.798928e+01
9.043132e-06 -3.237899e-06 2.798927e+01
-7.182305e-06 8.953096e-06 2.798928e+01
-5.951582e-06 9.797921e-06 2.798927e+01
6.659516e-06 1.507562e-05 2.798928e+01
1.307629e-05 2.051426e-05 2.798928e+01
7.236176e-06 4.236793e-06 2.798926e+01
-1.078432e-05 1.903527e-05 2.798928e+01
7.527053e-06 1.875585e-06 2.798929e+01
-3.826665e-06 1.159719e-05 2.798927e+01
6.643083e-06 -7.128302e-07 2.798928e+01
8.564748e-06 2.732678e-06 2.798927e+01
-6.972431e-07 8.326832e-07 2.798928e+01
-2.134759e-06 -7.331302e-07 2.798927e+01
1.922750e-06 2.322879e-05 2.798927e+01
2.111664e-07 7.696000e-06 2.798928e+01
4.643449e-06 -6.908811e-06 2.798928e+01
4.092849e-06 2.174262e-05 2.798927e+01
-1.038656e-06 2.428927e-07 2.798927e+01
8.719592e-07 9.736063e-06 2.798928e+01
6.252814e-06 7.263644e-06 2.798927e+01
1.309989e-05 4.916977e-06 2.798928e+01
1.803631e-05 -8.203166e-06 2.798928e+01
-2.354179e-06 1.657196e-06 2.798927e+01
3.957500e-06 -4.965278e-06 2.798927e+01
2.001465e-06 6.829167e-06 2.798927e+01
-4.565416e-06 4.366251e-06 2.798927e+01
-6.729541e-06 2.084116e-07 2.798928e+01
-4.047924e-06 -1.442893e-07 2.798928e+01
-1.275026e-05 1.950985e-06 2.798927e+01
-1.366708e-05 7.551371e-06 2.798928e+01
-8.035702e-06 -4.731465e-06 2.798927e+01
1.697549e-06 -2.625251e-06 2.798927e+01
-1.159116e-05 -2.120819e-05 2.798928e+01
-1.199739e-04 -5.785992e-05 2.798932e+01
-6.677763e-05 -4.784931e-05 2.798931e+01
-1.064793e-04 -4.978293e-05 2.798931e+01
-7.250578e-05 -4.828946e-05 2.798930e+01
-1.419634e-04 -1.056286e-04 2.798930e+01
-7.818055e-05 -3.466169e-05 2.798930e+01
-1.500096e-04 -1.055207e-04 2.798928e+01
-8.268564e-05 -2.444817e-05 2.798929e+01
-6.003044e-05 -1.462579e-05 2.798929e+01
-5.717408e-05 -1.108445e-05 2.798929e+01
-6.030444e-05 -1.321664e-05 2.798930e+01
-5.254674e-05 -6.825722e-06 2.798930e+01
-1.966648e-04 -4.397326e-05 2.798930e+01
-8.575007e-05 -3.661792e-05 2.798929e+01
-1.977370e-04 -4.051722e-05 2.798931e+01
-9.355507e-05 -3.638481e-05 2.798929e+01
-2.349940e-04 -7.072712e-05 2.798925e+01
-1.099874e-04 -3.136660e-05 2.798928e+01
-2.354646e-04 -7.062203e-05 2.798927e+01
-1.252298e-04 -4.375739e-05 2.798928e+01
-8.377318e-05 -1.656315e-05 2.798929e+01
-7.217453e-05 -3.155356e-05 2.798928e+01
-9.435674e-05 -9.994389e-06 2.798928e+01
-7.225404e-05 -3.323583e-05 2.798929e+01
-2.717134e-04 -3.042905e-05 2.798928e+01
-1.538603e-04 -3.466571e-05 2.798927e+01
-2.841154e-04 -2.855690e-05 2.798928e+01
-1.475208e-04 -3.345914e-05 2.798927e+01
-2.813297e-04 -4.749406e-05 2.798923e+01
-1.533170e-04 -2.004916e-05 2.798926e+01
-2.659781e-04 -4.889559e-05 2.798923e+01
-1.566725e-04 -2.227390e-05 2.798926e+01
-1.004668e-04 -1.138363e-05 2.798927e+01
-1.044656e-04 -3.380398e-05 2.798926e+01
-1.286142e-04 -4.819626e-06 2.798927e+01
-9.913000e-05 -3.703393e-05 2.798929e+01
-2.943303e-04 -1.855913e-05 2.798924e+01
-1.843293e-04 -2.622897e-05 2.798925e+01
-2.941219e-04 -1.788923e-05 2.798925e+01
-1.864413e-04 -2.826702e-05 2.798925e+01
-2.935165e-04 -2.265359e-05 2.798921e+01
-1.885337e-04 1.098804e-05 2.798924e+01
-3.003092e-04 -1.668064e-05 2.798920e+01
-1.819948e-04 1.061630e-05 2.798923e+01
-1.500868e-04 7.229945e-06 2.798925e+01
-1.329836e-04 -5.315221e-06 2.798925e+01
-1.447345e-04 4.085270e-06 2.798926e+01
-1.071317e-04 -1.181388e-05 2.798926e+01
-2.875671e-04 2.667234e-05 2.798920e+01
-2.061589e-04 4.383737e-06 2.798922e+01
-2.808118e-04 2.386888e-05 2.798922e+01
-2.177779e-04 5.250832e-06 2.798922e+01
-2.723117e-04 3.537437e-05 2.798920e+01
-2.018696e-04 5.985223e-05 2.798922e+01
-2.911498e-04 4.845989e-05 2.798918e+01
-1.909248e-04 5.771296e-05 2.798921e+01
-1.466158e-04 3.731194e-05 2.798923e+01
-1.480928e-04 1.130559e-05 2.798924e+01
-1.423397e-04 3.335382e-05 2.798923e+01
-1.463090e-04 6.412002e-06 2.798924e+01
-2.397543e-04 1.450439e-04 2.798920e+01
-1.713063e-04 9.423932e-05 2.798921e+01
-2.218905e-04 1.413232e-04 2.798920e+01
-1.769503e-04 9.691964e-05 2.798923e+01
-1.497037e-04 7.507029e-05 2.798923e+01
-1.498181e-04 7.323051e-05 2.798922e+01
-4.991710e-05 -1.162067e-05 2.798929e+01
-6.098105e-05 -1.548591e-05 2.798930e+01
-4.863971e-05 -1.914329e-05 2.798930e+01
-3.076126e-05 -1.815552e-05 2.798927e+01
-3.774139e-05 3.322221e-06 2.798928e+01
-3.032072e-05 8.163716e-07 2.798930e+01
-2.913528e-05 1.268496e-05 2.798928e+01
-3.585635e-05 5.885626e-06 2.798928e+01
-4.983691e-05 3.460444e-06 2.798929e+01
-6.020747e-05 4.816968e-06 2.798928e+01
-7.319580e-05 -4.347530e-06 2.798928e+01
-6.324293e-05 -4.148659e-06 2.798928e+01
-5.672359e-05 2.351823e-05 2.798928e+01
-3.060972e-05 5.239633e-06 2.798929e+01
-5.305188e-05 1.406396e-05 2.798928e+01
-2.276113e-05 -1.516158e-06 2.798928e+01
-8.257315e-05 -4.021493e-06 2.798929e+01
-7.602715e-05 6.489218e-06 2.798926e+01
-7.031226e-05 -7.312767e-06 2.798927e+01
-6.577092e-05 -3.817788e-06 2.798927e+01
-4.973009e-05 1.116259e-05 2.798927e+01
-5.523418e-05 1.484159e-05 2.798928e+01
-4.933068e-05 9.221631e-06 2.798928e+01
-6.152890e-05 2.082309e-05 2.798927e+01
-8.683337e-05 1.761217e-06 2.798926e+01
-9.192996e-05 -9.848441e-06 2.798927e+01
-1.059374e-04 -5.409653e-06 2.798926e+01
-1.103113e-04 1.400647e-06 2.798925e+01
-5.332789e-05 1.744420e-05 2.798926e+01
-6.918009e-05 4.417738e-06 2.798928e+01
-6.611770e-05 1.858039e-05 2.798927e+01
-5.985015e-05 9.727784e-06 2.798926e+01
-1.079878e-04 1.951198e-05 2.798925e+01
-7.813520e-05 1.734140e-05 2.798926e+01
-1.132031e-04 2.585843e-05 2.798925e+01
-1.262657e-04 2.781655e-05 2.798924e+01
-7.066334e-05 2.983568e-05 2.798925e+01
-6.379454e-05 1.557348e-05 2.798926e+01
-6.776334e-05 2.558164e-05 2.798926e+01
-8.356362e-05 1.903789e-05 2.798926e+01
-9.102893e-05 4.739407e-05 2.798924e+01
-7.862194e-05 4.857875e-05 2.798924e+01
-6.628115e-05 1.585916e-05 2.798924e+01
-5.956424e-05 8.943742e-06 2.798925e+01
-2.657748e-05 1.385311e-05 2.798928e+01
-4.774374e-06 1.343981e-05 2.798929e+01
-6.270764e-06 1.861177e-05 2.798928e+01
-3.973430e-05 1.699601e-05 2.798928e+01
-3.554356e-05 6.844728e-06 2.798928e+01
-7.222332e-06 1.963662e-05 2.798927e+01
-1.161821e-05 -8.675920e-07 2.798928e+01
-1.533542e-05 1.732246e-05 2.798929e+01
-3.607287e-05 1.326963e-05 2.798927e+01
-2.401289e-05 7.139526e-06 2.798929e+01
-2.661353e-05 -1.217365e-05 2.798928e+01
-4.162305e-05 -6.919439e-06 2.798928e+01
-1.542581e-05 3.531917e-06 2.798929e+01
-3.266435e-05 -9.693379e-06 2.798928e+01
-2.024488e-05 4.977015e-06 2.798927e+01
-3.662715e-05 -7.647718e-06 2.798927e+01
-3.376409e-05 2.031055e-05 2.798927e+01
-2.281429e-05 5.910252e-06 2.798928e+01
-4.396050e-05 1.584972e-05 2.798928e+01
-5.450613e-05 2.145045e-05 2.798927e+01
-2.799971e-05 1.187997e-05 2.798928e+01
-5.304809e-06 -6.692689e-06 2.798927e+01
-1.496504e-05 3.305177e-06 2.798927e+01
-1.371956e-05 -4.817248e-06 2.798929e+01
-2.922495e-05 1.082572e-05 2.798927e+01
-3.913626e-05 1.441316e-05 2.798928e+01
-4.177976e-05 2.060928e-05 2.798927e+01
-2.579037e-05 1.312158e-05 2.798928e+01
-2.538915e-05 5.424078e-06 2.798929e+01
-2.922879e-05 2.364479e-05 2.798927e+01
-3.252430e-05 5.277606e-06 2.798926e+01
-1.600776e-05 2.263160e-05 2.798928e+01
-4.930099e-05 2.435872e-05 2.798927e+01
-5.809903e-05 2.204183e-05 2.798926e+01
-4.304834e-05 2.003695e-05 2.798927e+01
-2.256730e-05 1.615243e-05 2.798926e+01
-3.072633e-05 2.031709e-05 2.798927e+01
-5.637823e-06 1.431665e-05 2.798926e+01
-2.975451e-05 1.816852e-05 2.798927e+01
-1.118717e-05 1.360698e-05 2.798928e+01
-4.617554e-05 -4.588428e-06 2.798927e+01
-7.262454e-05 -1.216079e-06 2.798925e+01
-2.713767e-05 1.046967e-05 2.798926e+01
-1.221967e-05 7.688384e-06 2.798927e+01
-1.071414e-05 1.582213e-06 2.798928e+01
-2.160683e-05 4.957986e-07 2.798927e+01
-2.551776e-05 7.765626e-06 2.798928e+01
-2.121611e-05 6.923806e-06 2.798928e+01
-1.139825e-06 1.201812e-05 2.798928e+01
-2.902466e-05 6.780793e-06 2.798928e+01
-8.054987e-06 1.750475e-05 2.798928e+01
-8.697321e-06 3.710743e-06 2.798928e+01
-1.987554e-05 2.053364e-05 2.798928e+01
-2.175761e-05 2.853009e-05 2.798927e+01
-2.958279e-05 1.379035e-05 2.798927e+01
-4.941549e-07 2.038179e-05 2.798928e+01
-1.416792e-05 2.843523e-05 2.798927e+01
-3.367978e-06 2.178663e-05 2.798928e+01
-1.211590e-05 2.867234e-05 2.798928e+01
-2.506067e-05 1.574277e-05 2.798927e+01
-1.254761e-05 1.111889e-05 2.798929e+01
-1.120921e-05 1.342111e-05 2.798926e+01
1.271307e-05 4.155448e-06 2.798928e+01
8.031969e-07 6.966163e-06 2.798927e+01
-2.194170e-05 1.127176e-05 2.798928e+01
-3.071168e-06 2.731174e-05 2.798927e+01
-1.211868e-06 1.210795e-05 2.798928e+01
-1.309530e-05 3.350553e-05 2.798928e+01
-1.414814e-05 8.588469e-06 2.798927e+01
-2.042978e-05 -3.228792e-08 2.798928e+01
-1.907435e-05 1.894710e-05 2.798928e+01
-1.529337e-05 2.390407e-05 2.798927e+01
-6.912023e-06 1.634853e-05 2.798927e+01
6.607718e-06 3.273634e-06 2.798928e+01
1.903288e-06 1.518346e-05 2.798928e+01
1.649427e-06 6.821344e-06 2.798927e+01
-1.127522e-06 1.072220e-05 2.798927e+01
3.405160e-06 1.395626e-05 2.798927e+01
1.033843e-05 2.628591e-06 2.798927e+01
-1.378074e-05 3.393875e-06 2.798928e+01
-7.059998e-07 8.540482e-06 2.798927e+01
-2.339765e-07 1.602497e-05 2.798927e+01
2.785175e-05 7.441092e-06 2.798927e+01
-1.267149e-05 2.289490e-05 2.798928e+01
-1.879781e-05 2.305887e-06 2.798927e+01
9.135008e-06 -6.414291e-06 2.798927e+01
1.599647e-05 -1.034345e-05 2.798928e+01
-2.469456e-05 -8.029013e-06 2.798926e+01
2.952439e-06 1.208037e-05 2.798928e+01
-2.112350e-05 1.505993e-05 2.798927e+01
-8.905119e-06 1.073435e-05 2.798927e+01
-1.099073e-05 7.997787e-06 2.798928e+01
-1.409772e-05 1.774863e-05 2.798928e+01
-2.485198e-06 1.015397e-05 2.798927e+01
-4.536211e-06 1.898124e-05 2.798927e+01
-8.402387e-06 8.432361e-06 2.798928e+01
-9.676157e-06 9.696169e-06 2.798927e+01
7.841196e-06 1.480582e-05 2.798928e+01
-2.188093e-07 2.382766e-05 2.798928e+01
-1.414015e-05 1.445316e-05 2.798928e+01
-2.106114e-05 1.054061e-06 2.798927e+01
-3.584649e-06 1.790749e-05 2.798928e+01
1.558911e-06 3.172160e-06 2.798928e+01
-2.111809e-06 1.099958e-05 2.798927e+01
-2.632550e-05 6.816702e-06 2.798927e+01
-1.156030e-05 9.923312e-06 2.798929e+01
7.885192e-06 1.901309e-05 2.798927e+01
-8.502802e-06 2.603227e-05 2.798928e+01
1.601096e-06 2.018606e-05 2.798927e+01
-6.438646e-06 2.183086e-05 2.798929e+01
2.746857e-06 1.939495e-05 2.798928e+01
-7.043730e-06 1.983588e-05 2.798927e+01
-4.310475e-06 3.275282e-05 2.798928e+01
3.891210e-06 3.156609e-05 2.798927e+01
4.657445e-06 7.912814e-06 2.798927e+01
-1.702870e-05 1.339019e-05 2.798928e+01
-4.070653e-06 2.155326e-05 2.798928e+01
-7.898914e-06 8.621956e-06 2.798927e+01
-4.266251e-06 2.269194e-05 2.798927e+01
-4.670772e-06 2.162764e-06 2.798929e+01
-3.445472e-07 1.455304e-05 2.798928e+01
2.502801e-05 1.807552e-05 2.798927e+01
-1.525519e-06 1.575154e-05 2.798927e+01
-5.303143e-06 1.105468e-05 2.798928e+01
1.038675e-05 6.281315e-06 2.798927e+01
1.316080e-05 2.110463e-05 2.798928e+01
-9.397917e-06 1.367771e-05 2.798928e+01
6.702649e-06 6.803177e-06 2.798927e+01
8.748938e-06 -2.006878e-06 2.798927e+01
7.658453e-06 7.164152e-06 2.798928e+01
4.442470e-06 1.091932e-05 2.798928e+01
9.180425e-06 1.118174e-05 2.798927e+01
-3.739571e-06 5.318136e-06 2.798928e+01
1.299482e-06 -2.257285e-06 2.798927e+01
8.415298e-06 6.188466e-06 2.798927e+01
-8.153361e-06 8.233321e-06 2.798928e+01
-3.908515e-06 1.705342e-05 2.798928e+01
5.843901e-06 6.166278e-06 2.798928e+01
4.983344e-06 7.753541e-06 2.798927e+01
7.141138e-06 1.219228e-05 2.798927e+01
-1.057463e-06 1.488511e-05 2.798927e+01
-1.455689e-05 1.594603e-05 2.798928e+01
-1.587448e-05 2.088504e-05 2.798927e+01
-6.302303e-06 2.141972e-05 2.798928e+01
4.986331e-06 1.299175e-05 2.798928e+01
-1.013034e-05 1.029359e-05 2.798927e+01
-2.633809e-05 9.449151e-06 2.798928e+01
6.524766e-06 1.107749e-05 2.798929e+01
9.136431e-06 4.838667e-06 2.798927e+01
-1.366437e-05 5.913013e-06 2.798928e+01
-1.219344e-05 2.430051e-06 2.798927e+01
-2.275012e-06 -1.047066e-06 2.798928e+01
-5.372159e-06 1.082520e-05 2.798927e+01
-2.009959e-05 1.461899e-05 2.798928e+01
6.924557e-06 1.799172e-05 2.798928e+01
-8.932576e-06 1.319296e-05 2.798927e+01
4.579001e-06 6.684304e-06 2.798928e+01
-1.063632e-05 1.071016e-05 2.798927e+01
-6.758881e-06 4.923938e-06 2.798927e+01
1.129800e-05 -4.800560e-07 2.798928e+01
-3.615994e-06 9.357470e-06 2.798928e+01
7.268915e-06 1.248227e-05 2.798928e+01
-6.630868e-06 1.259544e-05 2.798927e+01
-1.583646e-05 1.430049e-05 2.798927e+01
3.818217e-06 3.714287e-06 2.798928e+01
-8.041457e-06 3.585273e-06 2.798927e+01
4.011171e-06 3.829617e-06 2.798928e+01
2.013831e-05 1.792362e-06 2.798928e+01
1.274803e-05 4.262221e-06 2.798928e+01
-1.627765e-06 2.599059e-06 2.798927e+01
5.675201e-06 1.111419e-05 2.798928e+01
8.036656e-06 1.182612e-05 2.798928e+01
1.088761e-05 1.393375e-05 2.798927e+01
2.010810e-05 1.457079e-05 2.798928e+01
1.426425e-05 -5.512222e-06 2.798927e+01
2.117733e-05 -1.093900e-05 2.798928e+01
2.159642e-06 2.132038e-05 2.798927e+01
-6.052545e-07 1.218761e-05 2.798928e+01
4.283411e-07 2.108048e-06 2.798928e+01
-1.484306e-05 -2.625655e-06 2.798928e+01
-8.853854e-06 -1.113735e-05 2.798928e+01
-1.321397e-05 -5.749180e-06 2.798928e+01
-1.446006e-05 -7.526420e-06 2.798928e+01
-9.817439e-06 -1.545272e-05 2.798927e+01
-9.475145e-06 -5.105650e-06 2.798928e+01
1.488064e-06 -1.113222e-05 2.798927e+01
-3.230050e-06 -2.868656e-07 2.798928e+01
-3.404031e-06 -6.882993e-06 2.798928e+01
1.362460e-05 3.803240e-06 2.798928e+01
-5.803595e-06 -5.339787e-06 2.798928e+01
-1.120720e-06 8.336088e-06 2.798927e+01
3.354312e-06 4.835837e-07 2.798927e+01
-3.211319e-06 6.765164e-06 2.798927e+01
-5.670675e-06 1.431808e-05 2.798928e+01
-1.511650e-06 2.223372e-05 2.798927e+01
5.780344e-07 1.591218e-05 2.798928e+01
-5.607002e-07 2.327948e-06 2.798927e+01
-4.524559e-06 9.938048e-06 2.798928e+01
-6.230002e-07 6.426870e-06 2.798928e+01
6.653730e-06 4.701437e-06 2.798928e+01
-7.699107e-06 1.752911e-05 2.798928e+01
-5.442896e-06 1.514844e-05 2.798927e+01
4.806580e-06 1.520135e-05 2.798927e+01
-1.085119e-05 2.090504e-05 2.798928e+01
-7.929640e-06 9.383553e-06 2.798926e+01
-3.058481e-06 9.849902e-06 2.798928e+01
5.438444e-06 8.129163e-06 2.798929e+01
-7.647587e-06 6.173817e-06 2.798927e+01
2.668313e-06 2.290247e-05 2.798928e+01
1.986328e-06 2.231065e-05 2.798927e+01
4.459997e-06 1.175532e-05 2.798928e+01
-3.385316e-06 9.216110e-06 2.798927e+01
5.171329e-06 2.138325e-05 2.798928e+01
1.667149e-06 6.714537e-06 2.798928e+01
-1.022674e-06 1.427709e-05 2.798927e+01
3.825527e-06 5.309304e-06 2.798927e+01
2.233129e-06 -5.910174e-06 2.798928e+01
6.313434e-06 6.868794e-06 2.798927e+01
2.574113e-06 2.337987e-05 2.798928e+01
3.860047e-06 2.738421e-05 2.798928e+01
-1.762791e-05 -2.734964e-06 2.798927e+01
-1.145425e-05 8.916543e-07 2.798928e+01
-6.124617e-06 -6.538797e-07 2.798928e+01
1.499998e-08 1.339055e-05 2.798927e+01
1.013627e-05 3.311125e-05 2.798929e+01
-6.506111e-06 1.440660e-05 2.798927e+01
4.555494e-06 3.246133e-05 2.798926e+01
-3.292372e-05 3.760933e-05 2.798928e+01
1.425865e-05 1.934069e-05 2.798927e+01
5.792840e-06 2.120577e-05 2.798928e+01
-8.053500e-06 1.954619e-05 2.798928e+01
5.823959e-06 1.259828e-05 2.798928e+01
-2.052507e-06 -1.438123e-07 2.798927e+01
1.731619e-05 1.211461e-05 2.798927e+01
-1.432574e-05 3.379967e-06 2.798929e+01
8.531057e-06 5.787650e-06 2.798928e+01
-4.179289e-06 4.052063e-06 2.798928e+01
3.505319e-06 8.854304e-06 2.798927e+01
-7.468712e-06 1.227129e-05 2.798928e+01
9.701439e-06 7.735217e-06 2.798927e+01
1.631147e-05 8.586296e-06 2.798928e+01
-4.531459e-06 1.091375e-05 2.798928e+01
-2.128363e-06 3.124408e-06 2.798927e+01
-1.826385e-06 1.133766e-05 2.798928e+01
-2.146097e-06 1.719162e-05 2.798928e+01
9.997080e-07 7.781250e-06 2.798927e+01
-9.425425e-06 4.640131e-06 2.798928e+01
-8.150529e-06 1.290254e-05 2.798927e+01
-8.421800e-06 1.921035e-05 2.798929e+01
-1.127863e-05 -1.550074e-06 2.798926e+01
-9.547809e-06 1.400211e-05 2.798927e+01
3.265098e-06 6.754765e-06 2.798930e+01
1.179043e-05 7.738851e-06 2.798928e+01
4.019147e-06 8.222460e-06 2.798927e+01
3.775109e-06 6.314982e-06 2.798927e+01
1.446845e-05 7.573732e-06 2.798928e+01
1.078285e-05 8.194094e-06 2.798928e+01
3.266920e-06 1.190944e-05 2.798927e+01
7.767443e-06 3.246938e-06 2.798927e+01
1.265220e-05 2.812054e-05 2.798929e+01
1.922609e-06 5.878677e-06 2.798927e+01
1.735368e-06 -2.165411e-06 2.798928e+01
8.390470e-06 -3.834383e-07 2.798928e+01
-1.109986e-05 2.189803e-06 2.798927e+01
4.737820e-04 4.309537e-04 2.798934e+01
4.886369e-04 4.419991e-04 2.798934e+01
4.542412e-04 5.114541e-04 2.798926e+01
4.435421e-04 5.040917e-04 2.798926e+01
6.715533e-04 6.383374e-04 2.798926e+01
8.673445e-04 5.302356e-04 2.798933e+01
6.863545e-04 6.457931e-04 2.798927e+01
8.454694e-04 5.230579e-04 2.798933e+01
3.789701e-04 5.717409e-04 2.798924e+01
3.742434e-04 5.937556e-04 2.798923e+01
2.220986e-04 6.404327e-04 2.798922e+01
2.293297e-04 6.417161e-04 2.798924e+01
4.438464e-04 8.157517e-04 2.798920e+01
5.324595e-04 7.063384e-04 2.798921e+01
4.517403e-04 8.295209e-04 2.798920e+01
5.443260e-04 7.138655e-04 2.798921e+01
2.200337e-04 7.256339e-04 2.798926e+01
2.014069e-04 7.369119e-04 2.798925e+01
-1.461240e-06 7.293865e-04 2.798926e+01
1.085811e-05 7.549633e-04 2.798925e+01
1.955212e-04 9.272717e-04 2.798923e+01
2.318683e-04 8.663743e-04 2.798922e+01
1.979176e-04 9.330806e-04 2.798923e+01
2.322857e-04 8.862823e-04 2.798923e+01
6.373611e-05 7.380362e-04 2.798927e+01
4.953827e-05 7.646365e-04 2.798926e+01
-1.468958e-04 6.973132e-04 2.798925e+01
-1.431627e-04 7.133974e-04 2.798925e+01
-3.962196e-05 8.504785e-04 2.798924e+01
-5.637468e-05 8.859669e-04 2.798921e+01
-4.761789e-05 8.554831e-04 2.798923e+01
-3.587522e-05 8.933594e-04 2.798923e+01
-9.824608e-05 6.536339e-04 2.798927e+01
-1.102316e-04 6.714660e-04 2.798926e+01
-2.426717e-04 5.678862e-04 2.798924e+01
-2.419987e-04 5.834126e-04 2.798924e+01
-2.378316e-04 7.125063e-04 2.798924e+01
-2.374363e-04 7.716190e-04 2.798921e+01
-2.334971e-04 7.208042e-04 2.798924e+01
-2.422527e-04 7.973307e-04 2.798921e+01
-2.470685e-04 4.904488e-04 2.798923e+01
-2.576345e-04 5.016157e-04 2.798923e+01
-2.979967e-04 3.109946e-04 2.798920e+01
-2.931253e-04 3.291272e-04 2.798919e+01
-4.359258e-04 4.804255e-04 2.798920e+01
-3.629448e-04 5.503111e-04 2.798919e+01
-4.356785e-04 4.739997e-04 2.798921e+01
-3.636126e-04 5.667731e-04 2.798918e+01
1.019748e-03 7.122929e-04 2.798931e+01
1.029056e-03 7.088884e-04 2.798933e+01
9.043214e-04 7.933160e-04 2.798930e+01
8.787195e-04 8.146820e-04 2.798927e+01
1.077493e-03 1.044620e-03 2.798932e+01
1.320569e-03 9.013019e-04 2.798934e+01
1.097772e-03 1.050327e-03 2.798934e+01
1.320324e-03 9.116016e-04 2.798935e+01
7.171166e-04 9.276090e-04 2.798924e+01
7.271260e-04 9.284199e-04 2.798926e+01
5.163565e-04 9.784256e-04 2.798923e+01
4.978928e-04 9.989219e-04 2.798922e+01
6.949352e-04 1.252292e-03 2.798926e+01
8.655380e-04 1.133376e-03 2.798931e+01
7.090163e-04 1.258388e-03 2.798927e+01
8.651705e-04 1.153486e-03 2.798931e+01
4.188946e-04 1.109810e-03 2.798921e+01
4.341320e-04 1.104214e-03 2.798922e+01
1.250222e-04 1.074802e-03 2.798922e+01
1.259186e-04 1.074274e-03 2.798922e+01
3.003742e-04 1.288512e-03 2.798922e+01
3.940441e-04 1.254619e-03 2.798925e+01
3.010621e-04 1.286061e-03 2.798922e+01
3.925015e-04 1.250848e-03 2.798926e+01
1.038015e-04 1.043130e-03 2.798921e+01
9.038528e-05 1.039812e-03 2.798921e+01
-1.723461e-04 9.715308e-04 2.798919e+01
-1.786065e-04 9.769456e-04 2.798919e+01
-6.290827e-05 1.141978e-03 2.798920e+01
-3.303077e-05 1.196707e-03 2.798918e+01
-4.216779e-05 1.140123e-03 2.798920e+01
-3.537474e-05 1.196799e-03 2.798920e+01
-1.930217e-04 9.456635e-04 2.798922e+01
-1.718346e-04 9.322999e-04 2.798923e+01
-3.926858e-04 7.956047e-04 2.798917e+01
-3.870375e-04 8.018713e-04 2.798917e+01
-3.898780e-04 9.693226e-04 2.798923e+01
-3.499353e-04 1.028072e-03 2.798915e+01
-4.173129e-04 9.675185e-04 2.798923e+01
-3.638556e-04 1.024350e-03 2.798915e+01
-4.207321e-04 7.161137e-04 2.798923e+01
-4.217391e-04 7.091040e-04 2.798922e+01
-5.329771e-04 4.773677e-04 2.798914e+01
-5.335260e-04 4.720253e-04 2.798914e+01
-7.033419e-04 6.606801e-04 2.798921e+01
-6.013440e-04 7.409393e-04 2.798912e+01
-7.057768e-04 6.593940e-04 2.798921e+01
-5.867396e-04 7.401917e-04 2.798912e+01
1.512330e-03 1.156863e-03 2.798952e+01
1.515762e-03 1.176838e-03 2.798951e+01
1.300572e-03 1.294033e-03 2.798939e+01
1.285430e-03 1.303529e-03 2.798940e+01
1.533716e-03 1.581332e-03 2.798966e+01
1.757261e-03 1.459961e-03 2.798952e+01
1.542069e-03 1.609453e-03 2.798963e+01
1.757208e-03 1.472774e-03 2.798954e+01
1.062230e-03 1.465987e-03 2.798943e+01
1.076209e-03 1.489290e-03 2.798942e+01
7.545069e-04 1.492432e-03 2.798937e+01
7.475111e-04 1.503633e-03 2.798936e+01
1.016000e-03 1.875503e-03 2.798950e+01
1.275215e-03 1.763179e-03 2.798949e+01
1.015305e-03 1.886821e-03 2.798950e+01
1.246713e-03 1.761348e-03 2.798952e+01
5.933382e-04 1.551520e-03 2.798930e+01
5.856244e-04 1.569212e-03 2.798930e+01
2.122987e-04 1.490607e-03 2.798928e+01
2.106709e-04 1.511817e-03 2.798928e+01
4.763733e-04 1.875636e-03 2.798932e+01
5.733909e-04 1.845420e-03 2.798941e+01
4.757631e-04 1.896628e-03 2.798933e+01
5.768735e-04 1.871359e-03 2.798941e+01
1.539356e-04 1.455160e-03 2.798922e+01
1.343596e-04 1.465824e-03 2.798922e+01
-2.402390e-04 1.308145e-03 2.798917e+01
-2.432946e-04 1.325772e-03 2.798917e+01
-1.181371e-04 1.651660e-03 2.798924e+01
2.633541e-07 1.737827e-03 2.798927e+01
-1.157306e-04 1.661222e-03 2.798926e+01
-2.387636e-05 1.751528e-03 2.798927e+01
-2.894577e-04 1.265159e-03 2.798922e+01
-2.854304e-04 1.271075e-03 2.798923e+01
-5.908947e-04 1.074820e-03 2.798913e+01
-5.875593e-04 1.072834e-03 2.798912e+01
-6.383037e-04 1.349183e-03 2.798926e+01
-4.986190e-04 1.438766e-03 2.798917e+01
-6.470571e-04 1.329446e-03 2.798930e+01
-5.009188e-04 1.449124e-03 2.798916e+01
-6.892802e-04 9.622602e-04 2.798924e+01
-6.814590e-04 9.648442e-04 2.798926e+01
-7.706039e-04 6.259807e-04 2.798909e+01
-7.862548e-04 6.236851e-04 2.798908e+01
-1.015483e-03 8.397724e-04 2.798923e+01
-8.682177e-04 9.958011e-04 2.798909e+01
-1.014131e-03 8.376899e-04 2.798923e+01
-8.853316e-04 9.831709e-04 2.798908e+01
2.073383e-03 1.691562e-03 2.798989e+01
2.073742e-03 1.693973e-03 2.798990e+01
1.806951e-03 1.919422e-03 2.798974e+01
1.792080e-03 1.934025e-03 2.798973e+01
2.167218e-03 2.242986e-03 2.799016e+01
2.319275e-03 1.880517e-03 2.799002e+01
2.163898e-03 2.241747e-03 2.799017e+01
2.333541e-03 1.888109e-03 2.799002e+01
1.539332e-03 2.116811e-03 2.798985e+01
1.535946e-03 2.134225e-03 2.798986e+01
1.146532e-03 2.226446e-03 2.798963e+01
1.134428e-03 2.236214e-03 2.798964e+01
1.607265e-03 2.618656e-03 2.798992e+01
1.837415e-03 2.464563e-03 2.798994e+01
1.609648e-03 2.618957e-03 2.798993e+01
1.830864e-03 2.477010e-03 2.798994e+01
9.547595e-04 2.285912e-03 2.798954e+01
9.613009e-04 2.303540e-03 2.798954e+01
3.847731e-04 2.246996e-03 2.798947e+01
3.809265e-04 2.265443e-03 2.798947e+01
7.728462e-04 2.733437e-03 2.798961e+01
1.017787e-03 2.733206e-03 2.798973e+01
7.860783e-04 2.733164e-03 2.798960e+01
9.955458e-04 2.726486e-03 2.798973e+01
2.309907e-04 2.170638e-03 2.798936e+01
2.295884e-04 2.171244e-03 2.798937e+01
-3.257910e-04 1.916346e-03 2.798926e+01
-3.157939e-04 1.917421e-03 2.798928e+01
-1.694554e-04 2.393256e-03 2.798943e+01
8.660742e-05 2.554646e-03 2.798949e+01
-1.805324e-04 2.404414e-03 2.798943e+01
6.450580e-05 2.540873e-03 2.798950e+01
-4.843934e-04 1.812463e-03 2.798934e+01
-4.992514e-04 1.824606e-03 2.798934e+01
-8.286215e-04 1.480447e-03 2.798916e+01
-8.345644e-04 1.481497e-03 2.798915e+01
-9.888133e-04 1.899582e-03 2.798942e+01
-6.866332e-04 2.091516e-03 2.798928e+01
-9.899451e-04 1.899074e-03 2.798943e+01
-6.657168e-04 2.084539e-03 2.798930e+01
-1.039386e-03 1.250693e-03 2.798931e+01
-1.030217e-03 1.261764e-03 2.798930e+01
-1.115174e-03 7.815845e-04 2.798905e+01
-1.114523e-03 7.733415e-04 2.798906e+01
-1.381483e-03 1.010393e-03 2.798924e+01
-1.210088e-03 1.283718e-03 2.798907e+01
-1.397584e-03 1.006018e-03 2.798925e+01
-1.205782e-03 1.267977e-03 2.798909e+01
2.753930e-03 2.058991e-03 2.799036e+01
2.754431e-03 2.036450e-03 2.799038e+01
2.530618e-03 2.439030e-03 2.799033e+01
2.547316e-03 2.428780e-03 2.799033e+01
2.922433e-03 2.689107e-03 2.799070e+01
3.110446e-03 2.072515e-03 2.799075e+01
2.934080e-03 2.672002e-03 2.799072e+01
3.106232e-03 2.069398e-03 2.799073e+01
2.311784e-03 2.829928e-03 2.799033e+01
2.311424e-03 2.818854e-03 2.799034e+01
1.798898e-03 3.044366e-03 2.799006e+01
1.804786e-03 3.039778e-03 2.799009e+01
2.458738e-03 3.422643e-03 2.799043e+01
2.589523e-03 3.082098e-03 2.799055e+01
2.453838e-03 3.431433e-03 2.799042e+01
2.619529e-03 3.078146e-03 2.799057e+01
1.549332e-03 3.164377e-03 2.798997e+01
1.553057e-03 3.151360e-03 2.798999e+01
7.630698e-04 3.250835e-03 2.798980e+01
7.516477e-04 3.214611e-03 2.798983e+01
1.217166e-03 3.830920e-03 2.799010e+01
1.712685e-03 3.825818e-03 2.799021e+01
1.232668e-03 3.825781e-03 2.799011e+01
1.701029e-03 3.829065e-03 2.799022e+01
3.748560e-04 3.086754e-03 2.798966e+01
3.974892e-04 3.081920e-03 2.798967e+01
-2.882326e-04 2.768317e-03 2.798946e+01
-2.711622e-04 2.737232e-03 2.798950e+01
-1.290517e-04 3.407530e-03 2.798974e+01
4.228455e-04 3.606660e-03 2.798978e+01
-1.441384e-04 3.401702e-03 2.798973e+01
4.142188e-04 3.592537e-03 2.798981e+01
-7.038471e-04 2.631319e-03 2.798954e+01
-7.181569e-04 2.613819e-03 2.798954e+01
-1.111294e-03 2.055201e-03 2.798926e+01
-1.123857e-03 2.040918e-03 2.798925e+01
-1.335541e-03 2.651537e-03 2.798955e+01
-7.785148e-04 2.947178e-03 2.798946e+01
-1.336246e-03 2.649159e-03 2.798956e+01
-7.635408e-04 2.929684e-03 2.798950e+01
-1.428014e-03 1.631389e-03 2.798936e+01
-1.444987e-03 1.618292e-03 2.798938e+01
-1.513774e-03 8.306396e-04 2.798900e+01
-1.509053e-03 8.110474e-04 2.798900e+01
-1.825591e-03 1.121913e-03 2.798919e+01
-1.599914e-03 1.587206e-03 2.798909e+01
-1.820285e-03 1.125329e-03 2.798919e+01
-1.607674e-03 1.584141e-03 2.798909e+01
3.301989e-03 2.112657e-03 2.799082e+01
3.304373e-03 2.106398e-03 2.799084e+01
3.341859e-03 2.773456e-03 2.799099e+01
3.350508e-03 2.787002e-03 2.799099e+01
4.175337e-03 2.553461e-03 2.799102e+01
4.050264e-03 2.198265e-03 2.799119e+01
4.190815e-03 2.571891e-03 2.799101e+01
4.054689e-03 2.213854e-03 2.799116e+01
3.362240e-03 3.240453e-03 2.799080e+01
3.364235e-03 3.243215e-03 2.799080e+01
2.761824e-03 4.063221e-03 2.799062e+01
2.772927e-03 4.075803e-03 2.799063e+01
3.566036e-03 4.529602e-03 2.799099e+01
3.917825e-03 3.805088e-03 2.799093e+01
3.554509e-03 4.541933e-03 2.799100e+01
3.943850e-03 3.830817e-03 2.799094e+01
2.306132e-03 4.438122e-03 2.799056e+01
2.306236e-03 4.439525e-03 2.799057e+01
1.457520e-03 4.614863e-03 2.799016e+01
1.455844e-03 4.632711e-03 2.799017e+01
1.973925e-03 5.498706e-03 2.799058e+01
2.781902e-03 5.357205e-03 2.799062e+01
1.957136e-03 5.517392e-03 2.799062e+01
2.793758e-03 5.394716e-03 2.799061e+01
7.604379e-04 4.390768e-03 2.799007e+01
7.531851e-04 4.401225e-03 2.799009e+01
-1.419255e-05 3.954903e-03 2.798965e+01
-2.861249e-05 3.955012e-03 2.798969e+01
1.943255e-04 5.036526e-03 2.798996e+01
1.145022e-03 5.202994e-03 2.799001e+01
1.777640e-04 5.060358e-03 2.798995e+01
1.141353e-03 5.231727e-03 2.799001e+01
-7.637232e-04 3.820017e-03 2.798971e+01
-7.685943e-04 3.834018e-03 2.798970e+01
-1.292287e-03 2.892742e-03 2.798935e+01
-1.320316e-03 2.890795e-03 2.798938e+01
-1.489801e-03 3.905787e-03 2.798950e+01
-5.933204e-04 4.382145e-03 2.798966e+01
-1.509904e-03 3.911803e-03 2.798949e+01
-5.986795e-04 4.400303e-03 2.798968e+01
-1.828699e-03 2.165390e-03 2.798933e+01
-1.831720e-03 2.172043e-03 2.798934e+01
-1.916444e-03 8.940777e-04 2.798894e+01
-1.935753e-03 8.923316e-04 2.798894e+01
-2.265546e-03 1.313622e-03 2.798903e+01
-1.926069e-03 2.191257e-03 2.798910e+01
-2.260092e-03 1.318196e-03 2.798902e+01
-1.953363e-03 2.183881e-03 2.798913e+01
5.025527e-03 1.559027e-03 2.799151e+01
5.020034e-03 1.570384e-03 2.799151e+01
5.098996e-03 3.101958e-03 2.799113e+01
5.100678e-03 3.128786e-03 2.799111e+01
6.290606e-03 2.944951e-03 2.799132e+01
6.246626e-03 1.661579e-03 2.799146e+01
6.318162e-03 2.950213e-03 2.799133e+01
6.262765e-03 1.667552e-03 2.799145e+01
4.810434e-03 3.914872e-03 2.799113e+01
4.811617e-03 3.917088e-03 2.799116e+01
4.267252e-03 5.493890e-03 2.799088e+01
4.281899e-03 5.529918e-03 2.799087e+01
4.889539e-03 6.042420e-03 2.799110e+01
5.819206e-03 4.957385e-03 2.799114e+01
4.883496e-03 6.056893e-03 2.799110e+01
5.840479e-03 4.978205e-03 2.799114e+01
3.459894e-03 6.185274e-03 2.799092e+01
3.440701e-03 6.209491e-03 2.799096e+01
2.761546e-03 6.473643e-03 2.799035e+01
2.765787e-03 6.521351e-03 2.799033e+01
3.389584e-03 7.652507e-03 2.799053e+01
4.531624e-03 7.073940e-03 2.799075e+01
3.376292e-03 7.675369e-03 2.799056e+01
4.553137e-03 7.097012e-03 2.799074e+01
1.633493e-03 6.442627e-03 2.799021e+01
1.614170e-03 6.476763e-03 2.799023e+01
7.712728e-04 5.873654e-03 2.798976e+01
7.606283e-04 5.904485e-03 2.798978e+01
1.262148e-03 7.452530e-03 2.798973e+01
2.699127e-03 7.436380e-03 2.799006e+01
1.233589e-03 7.484261e-03 2.798973e+01
2.670807e-03 7.463234e-03 2.799007e+01
-4.132724e-04 5.750820e-03 2.798955e+01
-4.251066e-04 5.773672e-03 2.798955e+01
-1.250554e-03 4.412668e-03 2.798934e+01
-1.270789e-03 4.407366e-03 2.798938e+01
-1.267011e-03 5.806569e-03 2.798910e+01
1.599858e-04 6.726448e-03 2.798952e+01
-1.283988e-03 5.805198e-03 2.798913e+01
1.294648e-04 6.742698e-03 2.798954e+01
-2.057166e-03 2.948943e-03 2.798906e+01
-2.074896e-03 2.936581e-03 2.798907e+01
-2.274522e-03 1.083337e-03 2.798881e+01
-2.300533e-03 1.078281e-03 2.798884e+01
-2.474745e-03 1.533523e-03 2.798868e+01
-2.003906e-03 3.135418e-03 2.798888e+01
-2.452280e-03 1.527826e-03 2.798869e+01
-2.050031e-03 3.138002e-03 2.798887e+01
8.988856e-03 1.672067e-03 2.799170e+01
9.002708e-03 1.678735e-03 2.799172e+01
7.741817e-03 4.187605e-03 2.799128e+01
7.767737e-03 4.195949e-03 2.799131e+01
8.890718e-03 4.880923e-03 2.799126e+01
1.051657e-02 3.929464e-03 2.799170e+01
8.891761e-03 4.886939e-03 2.799128e+01
1.055203e-02 3.938376e-03 2.799172e+01
6.465884e-03 5.545327e-03 2.799105e+01
6.457925e-03 5.553568e-03 2.799106e+01
6.056651e-03 6.933034e-03 2.799092e+01
6.088828e-03 6.943944e-03 2.799094e+01
6.106894e-03 7.608253e-03 2.799060e+01
7.946055e-03 7.164068e-03 2.799106e+01
6.084621e-03 7.597461e-03 2.799064e+01
7.990058e-03 7.164820e-03 2.799108e+01
4.943867e-03 7.784234e-03 2.799061e+01
4.937830e-03 7.794370e-03 2.799061e+01
4.870399e-03 8.336374e-03 2.799042e+01
4.885394e-03 8.340520e-03 2.799042e+01
5.334075e-03 8.931519e-03 2.799003e+01
6.218798e-03 8.135019e-03 2.799056e+01
5.349015e-03 8.932242e-03 2.799004e+01
6.237227e-03 8.116725e-03 2.799059e+01
3.578035e-03 8.895401e-03 2.798982e+01
3.587874e-03 8.907052e-03 2.798984e+01
2.600130e-03 8.679170e-03 2.798963e+01
2.584764e-03 8.694820e-03 2.798966e+01
3.967256e-03 1.061185e-02 2.798914e+01
5.454515e-03 9.562208e-03 2.799001e+01
3.972522e-03 1.063198e-02 2.798916e+01
5.483465e-03 9.575778e-03 2.799002e+01
7.758367e-04 8.677710e-03 2.798907e+01
7.621390e-04 8.698643e-03 2.798909e+01
-6.355101e-04 6.851302e-03 2.798900e+01
-6.831925e-04 6.865645e-03 2.798901e+01
7.263362e-05 8.948654e-03 2.798839e+01
2.262826e-03 1.048250e-02 2.798915e+01
2.098537e-05 8.969794e-03 2.798845e+01
2.248496e-03 1.051557e-02 2.798917e+01
-1.824481e-03 4.140117e-03 2.798857e+01
-1.875541e-03 4.136316e-03 2.798862e+01
-2.229011e-03 1.403043e-03 2.798838e+01
-2.270224e-03 1.422495e-03 2.798837e+01
-1.819807e-03 1.750827e-03 2.798795e+01
-1.317534e-03 4.782455e-03 2.798821e+01
-1.832303e-03 1.760476e-03 2.798796e+01
-1.376753e-03 4.791263e-03 2.798819e+01
1.130659e-02 4.492402e-03 2.799130e+01
1.134252e-02 4.504413e-03 2.799133e+01
1.028772e-02 7.036998e-03 2.799122e+01
1.033481e-02 7.044553e-03 2.799125e+01
1.012523e-02 7.756313e-03 2.799117e+01
1.203388e-02 6.706660e-03 2.799125e+01
1.014993e-02 7.759330e-03 2.799120e+01
1.203637e-02 6.707746e-03 2.799128e+01
8.089623e-03 8.161123e-03 2.799091e+01
8.102474e-03 8.170318e-03 2.799094e+01
7.599197e-03 8.977878e-03 2.799065e+01
7.601413e-03 8.962166e-03 2.799066e+01
7.371090e-03 1.023654e-02 2.799041e+01
9.862477e-03 9.959738e-03 2.799102e+01
7.372223e-03 1.024944e-02 2.799044e+01
9.876924e-03 9.963529e-03 2.799103e+01
5.681710e-03 8.438091e-03 2.798999e+01
5.676075e-03 8.426092e-03 2.799001e+01
6.611804e-03 8.490187e-03 2.799021e+01
6.630034e-03 8.481176e-03 2.799021e+01
5.500307e-03 7.670767e-03 2.798926e+01
6.839321e-03 9.621721e-03 2.799009e+01
5.484047e-03 7.662854e-03 2.798926e+01
6.802232e-03 9.616789e-03 2.799013e+01
6.548266e-03 9.944941e-03 2.798949e+01
6.543389e-03 9.941677e-03 2.798949e+01
6.529331e-03 1.187631e-02 2.798969e+01
6.572362e-03 1.191646e-02 2.798969e+01
8.854113e-03 1.229249e-02 2.798923e+01
7.737005e-03 8.456265e-03 2.799004e+01
8.916027e-03 1.229270e-02 2.798922e+01
7.799447e-03 8.447489e-03 2.798999e+01
4.560807e-03 1.327467e-02 2.798854e+01
4.526206e-03 1.330719e-02 2.798857e+01
2.017542e-03 1.124206e-02 2.798833e+01
1.948199e-03 1.126265e-02 2.798835e+01
5.255922e-03 1.470147e-02 2.798758e+01
8.232471e-03 1.574619e-02 2.798949e+01
5.177245e-03 1.473623e-02 2.798764e+01
8.242955e-03 1.577056e-02 2.798954e+01
4.656130e-05 6.169070e-03 2.798744e+01
-5.070053e-05 6.188723e-03 2.798748e+01
-7.764640e-04 1.802274e-03 2.798710e+01
-7.946187e-04 1.822466e-03 2.798711e+01
1.603034e-03 2.308600e-03 2.798518e+01
2.636417e-03 7.756342e-03 2.798646e+01
1.586062e-03 2.361535e-03 2.798516e+01
2.498703e-03 7.781342e-03 2.798647e+01
1.259566e-02 8.293591e-03 2.799145e+01
1.261757e-02 8.297998e-03 2.799146e+01
1.149012e-02 9.204192e-03 2.799091e+01
1.147937e-02 9.201105e-03 2.799096e+01
1.242838e-02 1.125063e-02 2.799103e+01
1.429367e-02 9.322687e-03 2.799152e+01
1.243823e-02 1.127350e-02 2.799105e+01
1.432951e-02 9.338900e-03 2.799154e+01
9.669173e-03 1.058569e-02 2.799085e+01
9.699103e-03 1.058951e-02 2.799084e+01
9.401859e-03 1.246342e-02 2.799061e+01
9.412317e-03 1.247649e-02 2.799065e+01
9.133051e-03 1.389212e-02 2.799038e+01
1.125742e-02 1.160184e-02 2.799011e+01
9.150922e-03 1.389870e-02 2.799037e+01
1.126143e-02 1.160978e-02 2.799017e+01
6.184097e-03 1.134189e-02 2.798967e+01
6.137086e-03 1.134927e-02 2.798971e+01
5.259804e-03 8.247078e-03 2.798926e+01
5.199615e-03 8.223263e-03 2.798928e+01
3.567334e-03 9.334879e-03 2.798841e+01
7.345995e-03 1.509327e-02 2.799001e+01
3.423250e-03 9.306504e-03 2.798846e+01
7.326753e-03 1.509340e-02 2.799012e+01
6.020267e-03 4.695583e-03 2.798827e+01
6.021896e-03 4.656434e-03 2.798826e+01
1.090251e-02 9.696763e-03 2.799022e+01
1.104588e-02 9.683648e-03 2.799013e+01
8.462794e-03 1.418929e-03 2.798686e+01
3.542613e-03 2.598578e-03 2.798771e+01
8.624755e-03 1.409426e-03 2.798673e+01
3.480970e-03 2.562025e-03 2.798771e+01
1.234575e-02 1.752075e-02 2.798916e+01
1.245293e-02 1.754358e-02 2.798917e+01
9.948608e-03 1.883552e-02 2.798839e+01
9.857794e-03 1.887633e-02 2.798844e+01
1.528095e-02 2.339898e-02 2.798736e+01
1.598283e-02 1.656286e-02 2.799070e+01
1.521746e-02 2.339277e-02 2.798742e+01
1.620087e-02 1.657314e-02 2.799058e+01
6.275733e-03 1.056315e-02 2.798444e+01
6.123176e-03 1.060449e-02 2.798442e+01
5.722557e-03 1.580835e-03 2.798092e+01
5.661172e-03 1.652232e-03 2.798094e+01
1.152608e-02 3.115795e-03 2.797616e+01
1.353167e-02 1.219283e-02 2.798169e+01
1.149297e-02 3.183635e-03 2.797620e+01
1.333199e-02 1.221642e-02 2.798172e+01
1.518556e-02 1.133955e-02 2.799181e+01
1.520097e-02 1.137469e-02 2.799182e+01
1.486135e-02 1.159686e-02 2.799059e+01
1.487841e-02 1.163309e-02 2.799062e+01
1.538185e-02 1.481226e-02 2.799081e+01
1.807482e-02 1.138776e-02 2.799163e+01
1.541823e-02 1.485902e-02 2.799083e+01
1.807655e-02 1.140080e-02 2.799166e+01
1.214066e-02 1.533100e-02 2.799045e+01
1.216551e-02 1.535576e-02 2.799047e+01
9.121116e-03 1.545496e-02 2.798945e+01
9.134358e-03 1.547365e-02 2.798956e+01
9.558144e-03 2.164950e-02 2.799140e+01
1.385028e-02 1.671289e-02 2.799042e+01
9.562172e-03 2.169728e-02 2.799147e+01
1.386453e-02 1.676249e-02 2.799043e+01
6.563370e-03 1.795672e-02 2.799084e+01
6.570403e-03 1.797985e-02 2.799083e+01
3.055701e-03 1.404423e-02 2.798979e+01
2.876989e-03 1.404241e-02 2.798988e+01
2.644011e-03 1.819617e-02 2.799149e+01
4.591910e-03 1.960801e-02 2.799086e+01
2.544529e-03 1.825032e-02 2.799150e+01
4.519738e-03 1.965400e-02 2.799094e+01
5.812576e-05 9.842996e-04 2.798544e+01
-1.192030e-04 9.948860e-04 2.798542e+01
3.052832e-03 -5.289965e-03 2.798426e+01
3.077147e-03 -5.312942e-03 2.798415e+01
-1.115722e-03 -1.373102e-02 2.797574e+01
-2.325228e-03 5.382509e-03 2.798523e+01
-1.277876e-03 -1.369407e-02 2.797563e+01
-2.672320e-03 5.386844e-03 2.798531e+01
1.439582e-02 3.690622e-03 2.798528e+01
1.473632e-02 3.685470e-03 2.798504e+01
2.707984e-02 2.420310e-02 2.799122e+01
2.726030e-02 2.419835e-02 2.799106e+01
3.342359e-02 8.579713e-03 2.799314e+01
1.338304e-02 -1.453073e-02 2.797946e+01
3.399528e-02 8.624428e-03 2.799290e+01
1.363141e-02 -1.449952e-02 2.797912e+01
2.306382e-02 1.774114e-02 2.798520e+01
2.280765e-02 1.766250e-02 2.798541e+01
1.466837e-02 8.021329e-03 2.798190e+01
1.463539e-02 8.003628e-03 2.798209e+01
-2.389067e-03 2.685916e-02 2.801058e+01
3.092337e-02 3.981980e-02 2.800856e+01
-2.791934e-03 2.656576e-02 2.801120e+01
3.097136e-02 3.967779e-02 2.800910e+01
1.855544e-02 1.475591e-02 2.799272e+01
1.862427e-02 1.477103e-02 2.799274e+01
1.685851e-02 1.604851e-02 2.799150e+01
1.687214e-02 1.606505e-02 2.799152e+01
1.790075e-02 1.926219e-02 2.799458e+01
1.995243e-02 1.526512e-02 2.799421e+01
1.794704e-02 1.926689e-02 2.799460e+01
1.997999e-02 1.524802e-02 2.799428e+01
1.402301e-02 2.009657e-02 2.799283e+01
1.408779e-02 2.015068e-02 2.799287e+01
1.148429e-02 2.545006e-02 2.799454e+01
1.155738e-02 2.553006e-02 2.799458e+01
1.141868e-02 3.034890e-02 2.799873e+01
1.561305e-02 2.214177e-02 2.799558e+01
1.151177e-02 3.043127e-02 2.799883e+01
1.566378e-02 2.217137e-02 2.799564e+01
4.041723e-03 2.886027e-02 2.799429e+01
3.912993e-03 2.892879e-02 2.799444e+01
-3.283952e-03 1.894103e-02 2.798702e+01
-3.486919e-03 1.904244e-02 2.798708e+01
-6.512136e-03 2.918047e-02 2.797727e+01
4.726785e-03 3.897861e-02 2.799435e+01
-6.988964e-03 2.927843e-02 2.797742e+01
4.668141e-03 3.912312e-02 2.799448e+01
-1.166547e-03 8.536616e-03 2.797832e+01
-1.438687e-03 8.642437e-03 2.797822e+01
-7.069412e-04 -1.752436e-02 2.796544e+01
-1.096500e-03 -1.744561e-02 2.796538e+01
-4.749299e-03 -1.090740e-02 2.795106e+01
-8.234185e-03 -4.566685e-04 2.795829e+01
-4.900952e-03 -1.074810e-02 2.795129e+01
-8.578160e-03 -2.329508e-04 2.795813e+01
3.898586e-03 -2.981735e-02 2.796257e+01
4.028328e-03 -2.967676e-02 2.796254e+01
5.278998e-03 1.105482e-03 2.798944e+01
6.171508e-03 1.186684e-03 2.798973e+01
-8.924756e-02 2.876773e-02 2.796973e+01
-3.769174e-02 -7.006427e-03 2.795436e+01
-8.870891e-02 2.888924e-02 2.797031e+01
-3.759290e-02 -6.988155e-03 2.795531e+01
-1.336311e-02 6.737757e-02 2.803315e+01
-1.261732e-02 6.738953e-02 2.803367e+01
-5.766456e-02 7.653364e-02 2.805458e+01
-5.810283e-02 7.614844e-02 2.805548e+01
-1.188473e-01 1.307356e-01 2.804426e+01
-1.045889e-01 7.399164e-02 2.800431e+01
-1.185527e-01 1.306888e-01 2.804447e+01
-1.035769e-01 7.436366e-02 2.800428e+01
2.235030e-02 1.994506e-02 2.799851e+01
2.231179e-02 1.992540e-02 2.799860e+01
1.983723e-02 1.894696e-02 2.799762e+01
1.989408e-02 1.895641e-02 2.799763e+01
2.531029e-02 2.012990e-02 2.800142e+01
2.725356e-02 2.318020e-02 2.800434e+01
2.527941e-02 2.016985e-02 2.800146e+01
2.719509e-02 2.320766e-02 2.800433e+01
1.897377e-02 2.548518e-02 2.800120e+01
1.909031e-02 2.553502e-02 2.800128e+01
1.197612e-02 3.854873e-02 2.799829e+01
1.213065e-02 3.868365e-02 2.799844e+01
1.341255e-02 5.086890e-02 2.799373e+01
2.140928e-02 2.908935e-02 2.800149e+01
1.358703e-02 5.105935e-02 2.799396e+01
2.163206e-02 2.921118e-02 2.800154e+01
5.806722e-04 5.034040e-02 2.798776e+01
4.893079e-04 5.050719e-02 2.798798e+01
-8.275527e-03 4.057054e-02 2.796058e+01
-8.837344e-03 4.080923e-02 2.796063e+01
-1.787632e-02 5.289952e-02 2.793769e+01
-1.486958e-03 6.691110e-02 2.796652e+01
-1.831706e-02 5.319874e-02 2.793806e+01
-1.706717e-03 6.717333e-02 2.796670e+01
-2.259087e-02 7.031342e-03 2.793214e+01
-2.308627e-02 7.212617e-03 2.793251e+01
-5.590348e-02 1.301273e-02 2.793583e+01
-5.542873e-02 1.330589e-02 2.793662e+01
-1.366547e-01 8.507190e-02 2.790421e+01
-5.717039e-02 5.172014e-02 2.791661e+01
-1.366061e-01 8.527671e-02 2.790571e+01
-5.734544e-02 5.194302e-02 2.791766e+01
-1.155716e-01 6.412457e-02 2.795281e+01
-1.154042e-01 6.429539e-02 2.795381e+01
-1.607295e-01 5.773682e-02 2.793654e+01
-1.611497e-01 5.792273e-02 2.793691e+01
-1.956953e-01 7.453362e-02 2.788611e+01
-1.865004e-01 1.073872e-01 2.789694e+01
-1.962783e-01 7.489245e-02 2.788582e+01
-1.867302e-01 1.079261e-01 2.789725e+01
-1.644701e-01 6.616135e-02 2.794033e+01
-1.636742e-01 6.652879e-02 2.794006e+01
-1.390127e-01 1.298641e-01 2.799107e+01
-1.381988e-01 1.300066e-01 2.799058e+01
-1.319017e-01 7.743283e-02 2.794921e+01
-1.826717e-01 4.216024e-02 2.789871e+01
-1.311828e-01 7.774746e-02 2.794790e+01
-1.822722e-01 4.252310e-02 2.789805e+01
3.471260e-02 2.434376e-02 2.800894e+01
3.464767e-02 2.434165e-02 2.800902e+01
3.111547e-02 2.468289e-02 2.800600e+01
3.113534e-02 2.477520e-02 2.800604e+01
3.820510e-02 2.768431e-02 2.800355e+01
4.376105e-02 3.101631e-02 2.801485e+01
3.811095e-02 2.777345e-02 2.800369e+01
4.374343e-02 3.104978e-02 2.801489e+01
2.611694e-02 3.406684e-02 2.799563e+01
2.630053e-02 3.425827e-02 2.799577e+01
1.640841e-02 6.537185e-02 2.797790e+01
1.666157e-02 6.565326e-02 2.797798e+01
2.563460e-02 7.417291e-02 2.795331e+01
3.185075e-02 4.375733e-02 2.798552e+01
2.599812e-02 7.451600e-02 2.795338e+01
3.203150e-02 4.402501e-02 2.798551e+01
1.038914e-03 8.628157e-02 2.794651e+01
8.533329e-04 8.659558e-02 2.794686e+01
-3.796198e-02 9.333303e-02 2.791791e+01
-3.812338e-02 9.361113e-02 2.791882e+01
-6.547926e-02 1.720763e-01 2.792540e+01
2.775726e-03 1.193709e-01 2.793762e+01
-6.524825e-02 1.722039e-01 2.792721e+01
3.114856e-03 1.196679e-01 2.793833e+01
-1.139838e-01 1.312171e-01 2.790986e+01
-1.137023e-01 1.315358e-01 2.791144e+01
-2.001453e-01 1.776557e-01 2.789136e+01
-2.006644e-01 1.780144e-01 2.789245e+01
-2.472371e-01 2.438351e-01 2.782295e+01
-1.695460e-01 2.388867e-01 2.790633e+01
-2.488161e-01 2.445660e-01 2.782386e+01
-1.697943e-01 2.391696e-01 2.790827e+01
-2.565686e-01 1.289806e-01 2.782306e+01
-2.578900e-01 1.294373e-01 2.782324e+01
-2.492334e-01 6.101020e-02 2.778268e+01
-2.499711e-01 6.158817e-02 2.778230e+01
-2.783399e-01 4.251945e-02 2.767387e+01
-2.716377e-01 1.550589e-01 2.771785e+01
-2.792976e-01 4.347366e-02 2.767274e+01
-2.736091e-01 1.560273e-01 2.771759e+01
-2.066216e-01 3.098646e-03 2.781579e+01
-2.068222e-01 3.353748e-03 2.781498e+01
-1.138657e-01 -2.711569e-02 2.784753e+01
-1.136526e-01 -2.643743e-02 2.784574e+01
-7.594616e-02 -2.093341e-01 2.772691e+01
-2.312459e-01 -6.346618e-02 2.769511e+01
-7.643355e-02 -2.072815e-01 2.772279e+01
-2.320967e-01 -6.238997e-02 2.769232e+01
5.163482e-02 3.126132e-02 2.801582e+01
5.170114e-02 3.128197e-02 2.801593e+01
4.464542e-02 4.100750e-02 2.800133e+01
4.452717e-02 4.113317e-02 2.800141e+01
5.238491e-02 3.684255e-02 2.799089e+01
5.533442e-02 4.661515e-02 2.802203e+01
5.202622e-02 3.698223e-02 2.799065e+01
5.528888e-02 4.655713e-02 2.802231e+01
4.226973e-02 4.105396e-02 2.796521e+01
4.231662e-02 4.130368e-02 2.796510e+01
4.075991e-02 8.669838e-02 2.793965e+01
4.153769e-02 8.705599e-02 2.793980e+01
5.602578e-02 9.352435e-02 2.793175e+01
6.044860e-02 4.121632e-02 2.794616e+01
5.748508e-02 9.380083e-02 2.793199e+01
6.053413e-02 4.145923e-02 2.794584e+01
5.042685e-03 1.686691e-01 2.794528e+01
6.018031e-03 1.688644e-01 2.794648e+01
-7.801521e-02 2.792639e-01 2.795660e+01
-7.737315e-02 2.795342e-01 2.795861e+01
-6.639844e-02 3.807043e-01 2.798188e+01
1.645209e-02 2.391521e-01 2.797532e+01
-6.543786e-02 3.808870e-01 2.798397e+01
1.825649e-02 2.392509e-01 2.797667e+01
-1.898551e-01 3.572959e-01 2.790737e+01
-1.908574e-01 3.577279e-01 2.790964e+01
-2.985690e-01 3.267854e-01 2.774498e+01
-3.015820e-01 3.277452e-01 2.774641e+01
-3.009297e-01 4.447125e-01 2.756891e+01
-1.795764e-01 4.950948e-01 2.787519e+01
-3.049585e-01 4.482562e-01 2.757003e+01
-1.811912e-01 4.960710e-01 2.787718e+01
-3.735620e-01 1.878869e-01 2.753845e+01
-3.763533e-01 1.894675e-01 2.753899e+01
-3.819832e-01 3.878258e-02 2.747454e+01
-3.842443e-01 3.996697e-02 2.747508e+01
-5.519307e-01 5.314481e-02 2.686479e+01
-4.453973e-01 3.238535e-01 2.720312e+01
-5.511325e-01 6.247916e-02 2.684890e+01
-4.504617e-01 3.284074e-01 2.720447e+01
-2.687912e-01 -2.116901e-01 2.749653e+01
-2.720985e-01 -2.108473e-01 2.749447e+01
4.801339e-02 -5.347437e-01 2.740131e+01
4.644774e-02 -5.299169e-01 2.739509e+01
3.450360e-01 -1.042089e+00 2.660115e+01
-2.543739e-01 -6.074602e-01 2.673335e+01
3.456955e-01 -1.025296e+00 2.658828e+01
-2.519182e-01 -5.801297e-01 2.669827e+01
6.635860e-02 6.021638e-02 2.803555e+01
6.604930e-02 6.015993e-02 2.803568e+01
7.170169e-02 2.273838e-02 2.796831e+01
7.082440e-02 2.289399e-02 2.796793e+01
1.026126e-01 3.277677e-03 2.793839e+01
9.506618e-02 6.924121e-02 2.805719e+01
1.011332e-01 3.459511e-03 2.793781e+01
9.438424e-02 6.895581e-02 2.805747e+01
9.420346e-02 2.489371e-02 2.792569e+01
9.465535e-02 2.502770e-02 2.792551e+01
1.010387e-01 1.065535e-01 2.794511e+01
1.030227e-01 1.066824e-01 2.794526e+01
1.375572e-01 9.711960e-02 2.798428e+01
1.185620e-01 4.642977e-03 2.790160e+01
1.402406e-01 9.681115e-02 2.798447e+01
1.195151e-01 5.351475e-03 2.790068e+01
8.294283e-02 2.832758e-01 2.803438e+01
8.593681e-02 2.832883e-01 2.803507e+01
2.632390e-02 4.824206e-01 2.804178e+01
2.670540e-02 4.826004e-01 2.804245e+01
2.707388e-01 4.374420e-01 2.813933e+01
1.643027e-01 2.776065e-01 2.815280e+01
2.683974e-01 4.368197e-01 2.813833e+01
1.670878e-01 2.764389e-01 2.815333e+01
-1.771420e-02 5.694180e-01 2.776550e+01
-2.071837e-02 5.727215e-01 2.776478e+01
-1.053302e-01 6.246233e-01 2.714154e+01
-1.120966e-01 6.353716e-01 2.714053e+01
7.700271e-01 5.633295e-01 2.615803e+01
4.681017e-01 4.782619e-01 2.754455e+01
7.524319e-01 5.832623e-01 2.615291e+01
4.580863e-01 4.820066e-01 2.754062e+01
-2.648186e-01 5.402938e-01 2.577260e+01
-2.828738e-01 5.664098e-01 2.576296e+01
-2.766894e-02 -1.661163e-01 2.203532e+01
-4.666871e-02 -2.857563e-02 2.194601e+01
1.986713e+00 -3.878849e-01 6.180230e+00
1.372127e+00 3.727682e-01 2.151876e+01
1.827235e+00 -2.515054e-01 6.122418e+00
1.270220e+00 4.558023e-01 2.148240e+01
5.517551e-01 -1.235284e+00 2.046487e+01
6.302536e-01 -1.051385e+00 2.040711e+01
6.719599e-01 -1.066654e+00 2.374634e+01
6.964357e-01 -1.018664e+00 2.373032e+01
7.308461e-01 -4.717955e-01 1.943422e+01
1.548149e+00 -9.170233e-01 4.470634e+00
8.395611e-01 -4.042088e-01 1.943251e+01
1.718623e+00 -7.512759e-01 4.503939e+00
1.011417e-01 6.464027e-02 2.809857e+01
1.003935e-01 6.420437e-02 2.809864e+01
1.142397e-01 -9.850709e-03 2.790502e+01
1.110346e-01 -9.432730e-03 2.790414e+01
1.554038e-01 -2.261785e-02 2.788338e+01
1.212017e-01 3.351806e-02 2.812921e+01
1.514262e-01 -2.297256e-02 2.788288e+01
1.202137e-01 3.381014e-02 2.812871e+01
1.453815e-01 -3.240165e-02 2.781789e+01
1.471970e-01 -3.094499e-02 2.781719e+01
1.743497e-01 7.702256e-02 2.807034e+01
1.791518e-01 7.560790e-02 2.807082e+01
1.315368e-01 3.823415e-02 2.813534e+01
1.338914e-01 -3.226715e-02 2.777331e+01
1.378992e-01 3.867630e-02 2.813515e+01
1.360440e-01 -3.259710e-02 2.777358e+01
2.374164e-01 1.936814e-01 2.836102e+01
2.399689e-01 1.901693e-01 2.836051e+01
3.877439e-01 2.504839e-01 2.833055e+01
3.828166e-01 2.464893e-01 2.832734e+01
4.403764e-01 -1.021031e-02 2.854774e+01
2.208030e-01 5.964038e-02 2.852053e+01
4.352657e-01 -1.151193e-02 2.854367e+01
2.244777e-01 5.965172e-02 2.851867e+01
6.693357e-01 1.824983e-01 2.755436e+01
6.499750e-01 1.802255e-01 2.754784e+01
1.189734e+00 5.713710e-02 2.543706e+01
1.146965e+00 5.995200e-02 2.542630e+01
1.245417e+00 -5.383077e-01 2.576175e+01
7.833650e-01 -1.992659e-01 2.774420e+01
1.201692e+00 -5.543202e-01 2.575883e+01
7.636325e-01 -2.030217e-01 2.773825e+01
1.975491e+00 -2.631118e-01 1.808446e+01
1.731974e+00 -2.506932e-01 1.805762e+01
2.349918e+00 -5.163420e-01 -1.123044e+00
2.143817e+00 -4.939853e-01 -1.155801e+00
1.840938e+00 -2.529335e-01 5.995097e+00
1.779299e+00 -7.675738e-01 2.034485e+01
1.633701e+00 -4.128148e-01 5.955863e+00
1.621777e+00 -8.387324e-01 2.033018e+01
1.717148e+00 1.666195e-01 4.034833e-01
1.854417e+00 1.304977e-01 4.349605e-01
6.101091e-01 2.832526e-01 1.783913e+01
7.958252e-01 2.665886e-01 1.784311e+01
6.604751e-01 8.961589e-01 2.110003e+01
1.167784e+00 1.083168e+00 7.005945e+00
7.470329e-01 8.217445e-01 2.108566e+01
1.306644e+00 9.180179e-01 7.014024e+00
1.159506e-01 -4.149349e-03 2.808458e+01
1.154883e-01 -2.997509e-03 2.808434e+01
1.292785e-01 -3.005285e-02 2.793597e+01
1.266517e-01 -3.129741e-02 2.793548e+01
1.154305e-01 -3.473158e-02 2.798752e+01
1.120521e-01 -1.545227e-02 2.801855e+01
1.154802e-01 -3.523727e-02 2.798724e+01
1.117078e-01 -1.477470e-02 2.801869e+01
1.485331e-01 -2.504252e-02 2.785892e+01
1.488613e-01 -2.738919e-02 2.785856e+01
1.752698e-01 -4.262297e-03 2.804080e+01
1.795829e-01 -2.591642e-03 2.804074e+01
1.739588e-01 -4.757688e-02 2.799391e+01
1.314526e-01 -5.883137e-02 2.800789e+01
1.740012e-01 -4.767706e-02 2.799323e+01
1.311965e-01 -6.048408e-02 2.800680e+01
2.240915e-01 -5.537603e-02 2.833879e+01
2.286388e-01 -5.070606e-02 2.833859e+01
2.954008e-01 -2.079630e-01 2.839962e+01
2.939290e-01 -2.037938e-01 2.839836e+01
1.675958e-01 -2.301193e-01 2.806337e+01
1.914809e-01 -9.015846e-02 2.804573e+01
1.685913e-01 -2.269062e-01 2.806522e+01
1.931902e-01 -8.745134e-02 2.804667e+01
3.661119e-01 -4.258349e-01 2.789061e+01
3.552688e-01 -4.281023e-01 2.788841e+01
2.765077e-01 -6.486498e-01 2.675376e+01
2.535218e-01 -6.675375e-01 2.675124e+01
-6.466247e-02 -4.130447e-01 2.757170e+01
8.176046e-02 -3.848338e-01 2.787984e+01
-6.724032e-02 -4.171397e-01 2.757310e+01
7.970308e-02 -3.845748e-01 2.788131e+01
-3.172122e-02 -6.931821e-01 2.488276e+01
-7.623869e-02 -7.517591e-01 2.487223e+01
-1.775945e-01 1.298216e-01 2.196412e+01
-2.464440e-01 -3.743579e-02 2.190186e+01
-2.461225e-01 4.709324e-02 2.718114e+01
-2.473146e-01 -3.368389e-01 2.735777e+01
-2.537024e-01 3.585377e-02 2.715705e+01
-2.505681e-01 -3.407351e-01 2.735760e+01
1.960945e-01 1.155821e+00 2.160781e+01
2.241455e-01 1.032125e+00 2.154996e+01
7.093277e-01 9.949686e-01 2.531726e+01
7.249467e-01 9.614329e-01 2.530958e+01
5.112998e-01 7.389885e-01 2.736472e+01
1.125327e-01 5.465880e-01 2.721148e+01
5.120180e-01 7.298697e-01 2.735793e+01
1.001492e-01 5.323362e-01 2.717570e+01
1.020748e-01 -1.656816e-02 2.800543e+01
1.018157e-01 -1.663690e-02 2.800536e+01
1.019311e-01 -3.746746e-02 2.799940e+01
1.024446e-01 -3.763811e-02 2.799932e+01
9.239948e-02 -4.026266e-02 2.800858e+01
8.958344e-02 -1.697886e-02 2.801006e+01
9.281019e-02 -4.038447e-02 2.800847e+01
8.949716e-02 -1.708544e-02 2.800994e+01
1.102396e-01 -8.221042e-02 2.803176e+01
1.106327e-01 -8.206842e-02 2.803169e+01
1.343987e-01 -9.411542e-02 2.800286e+01
1.336448e-01 -9.455341e-02 2.800197e+01
9.312781e-02 -1.218834e-01 2.800875e+01
8.825692e-02 -8.479993e-02 2.801414e+01
9.305413e-02 -1.219848e-01 2.800841e+01
8.884488e-02 -8.478418e-02 2.801421e+01
1.588815e-01 -9.185200e-02 2.795886e+01
1.588042e-01 -9.183060e-02 2.795861e+01
1.063990e-01 -1.554214e-01 2.793028e+01
1.071165e-01 -1.545543e-01 2.793203e+01
7.458567e-02 -6.829344e-02 2.786803e+01
1.011343e-01 -9.773535e-02 2.795348e+01
7.440495e-02 -6.828212e-02 2.786948e+01
9.996396e-02 -9.787011e-02 2.795333e+01
-6.511764e-03 -2.523118e-01 2.785088e+01
-6.676793e-03 -2.518362e-01 2.785356e+01
-1.086104e-01 -2.748229e-01 2.770140e+01
-1.102551e-01 -2.752227e-01 2.770357e+01
-8.391907e-02 -2.000542e-01 2.775521e+01
-8.153565e-03 -1.358545e-01 2.781068e+01
-8.374263e-02 -2.010471e-01 2.775610e+01
-7.348518e-03 -1.361099e-01 2.781286e+01
-1.692253e-01 -1.993671e-01 2.759132e+01
-1.711303e-01 -2.004741e-01 2.759338e+01
-1.642818e-01 -5.440775e-02 2.758673e+01
-1.670846e-01 -5.487148e-02 2.758890e+01
-8.328090e-02 -7.818942e-02 2.772261e+01
-9.939962e-02 -1.816705e-01 2.771775e+01
-8.531835e-02 -7.899920e-02 2.772127e+01
-1.004935e-01 -1.827886e-01 2.771727e+01
-5.210911e-02 2.190769e-01 2.762764e+01
-5.644209e-02 2.189592e-01 2.762719e+01
2.276525e-01 4.020938e-01 2.767647e+01
2.275762e-01 3.989495e-01 2.767282e+01
9.331783e-02 1.494937e-01 2.780664e+01
-2.000642e-02 7.633937e-02 2.776872e+01
9.320006e-02 1.487264e-01 2.780342e+01
-2.219757e-02 7.608033e-02 2.776590e+01
7.920393e-02 -2.436808e-02 2.801492e+01
7.923021e-02 -2.441869e-02 2.801477e+01
8.322840e-02 -4.009480e-02 2.801048e+01
8.357243e-02 -4.019692e-02 2.801042e+01
7.066617e-02 -4.357053e-02 2.801279e+01
6.668419e-02 -2.925969e-02 2.801294e+01
7.097719e-02 -4.364276e-02 2.801272e+01
6.675672e-02 -2.927785e-02 2.801287e+01
8.142163e-02 -7.904246e-02 2.801020e+01
8.206930e-02 -7.916512e-02 2.801031e+01
6.890315e-02 -1.192152e-01 2.799834e+01
6.893799e-02 -1.192623e-01 2.799859e+01
5.756504e-02 -1.016772e-01 2.799543e+01
6.854273e-02 -7.139730e-02 2.800862e+01
5.770010e-02 -1.018359e-01 2.799570e+01
6.896952e-02 -7.153343e-02 2.800869e+01
5.794890e-02 -9.498172e-02 2.795650e+01
5.686771e-02 -9.519809e-02 2.795652e+01
4.511164e-02 -2.829735e-02 2.789131e+01
4.428363e-02 -2.877103e-02 2.789148e+01
3.461239e-02 -1.411353e-02 2.792437e+01
4.313614e-02 -8.386709e-02 2.796494e+01
3.360785e-02 -1.442340e-02 2.792443e+01
4.225461e-02 -8.404335e-02 2.796513e+01
3.569002e-03 -4.648997e-02 2.784444e+01
4.705773e-03 -4.721031e-02 2.784553e+01
-5.326679e-02 -1.469410e-01 2.782787e+01
-5.205636e-02 -1.477215e-01 2.782877e+01
-2.844963e-02 -8.797389e-02 2.787310e+01
1.647582e-02 2.920323e-03 2.788657e+01
-2.677126e-02 -8.864391e-02 2.787385e+01
1.702942e-02 2.430188e-03 2.788708e+01
-8.670239e-02 -1.739478e-01 2.782562e+01
-8.705316e-02 -1.745832e-01 2.782585e+01
-7.001049e-02 -1.082312e-01 2.782235e+01
-7.156985e-02 -1.086426e-01 2.782210e+01
-4.515999e-02 -1.300174e-01 2.790371e+01
-5.157273e-02 -1.677890e-01 2.788312e+01
-4.621485e-02 -1.302981e-01 2.790321e+01
-5.127402e-02 -1.683659e-01 2.788322e+01
-1.823467e-02 -2.911904e-03 2.783380e+01
-1.966380e-02 -3.096900e-03 2.783301e+01
6.534771e-02 3.195222e-02 2.786474e+01
6.555453e-02 3.156961e-02 2.786355e+01
4.588426e-02 -4.294307e-02 2.796552e+01
-9.322857e-03 -6.353377e-02 2.793521e+01
4.583714e-02 -4.333538e-02 2.796466e+01
-1.010573e-02 -6.372600e-02 2.793431e+01
5.484590e-02 -3.390007e-02 2.800808e+01
5.494912e-02 -3.388679e-02 2.800804e+01
5.497478e-02 -4.359089e-02 2.800809e+01
5.520884e-02 -4.362019e-02 2.800806e+01
4.296741e-02 -4.280885e-02 2.800541e+01
4.539679e-02 -3.266294e-02 2.800211e+01
4.318171e-02 -4.285318e-02 2.800543e+01
4.550936e-02 -3.264049e-02 2.800216e+01
5.137928e-02 -6.546923e-02 2.800874e+01
5.170087e-02 -6.558483e-02 2.800880e+01
3.987308e-02 -8.370152e-02 2.799768e+01
3.992985e-02 -8.386491e-02 2.799784e+01
2.603050e-02 -6.694707e-02 2.800219e+01
3.793195e-02 -5.743261e-02 2.800609e+01
2.604288e-02 -6.712573e-02 2.800241e+01
3.817059e-02 -5.751437e-02 2.800624e+01
2.267589e-02 -6.725793e-02 2.797411e+01
2.203787e-02 -6.743054e-02 2.797424e+01
1.385766e-02 -1.065221e-02 2.794476e+01
1.287712e-02 -1.082704e-02 2.794477e+01
7.701863e-03 -6.517166e-03 2.796488e+01
1.479683e-02 -5.289203e-02 2.798686e+01
6.942663e-03 -6.694411e-03 2.796484e+01
1.430816e-02 -5.308446e-02 2.798705e+01
5.130932e-03 2.822204e-02 2.792371e+01
5.256659e-03 2.790868e-02 2.792380e+01
-1.937277e-02 -4.010587e-02 2.792725e+01
-1.768758e-02 -4.059269e-02 2.792769e+01
1.628848e-02 -1.181257e-02 2.795788e+01
1.602868e-02 2.579045e-02 2.794698e+01
1.753382e-02 -1.220248e-02 2.795819e+01
1.595816e-02 2.554843e-02 2.794680e+01
-5.627662e-02 -1.487302e-01 2.795030e+01
-5.509242e-02 -1.491893e-01 2.795056e+01
-3.656486e-02 -1.691577e-01 2.797440e+01
-3.709091e-02 -1.694109e-01 2.797386e+01
1.825213e-02 -2.188781e-01 2.805429e+01
6.030529e-03 -1.249913e-01 2.801380e+01
1.864876e-02 -2.190436e-01 2.805358e+01
7.963394e-03 -1.254138e-01 2.801409e+01
1.952872e-02 -1.134269e-01 2.799716e+01
1.857549e-02 -1.135893e-01 2.799660e+01
4.702127e-02 -7.365521e-02 2.803106e+01
4.690801e-02 -7.396816e-02 2.803111e+01
8.342810e-02 -5.513151e-02 2.810722e+01
7.081831e-02 -1.687410e-01 2.805131e+01
8.215436e-02 -5.546245e-02 2.810753e+01
6.926110e-02 -1.689670e-01 2.805054e+01
3.948900e-02 -3.300603e-02 2.800034e+01
3.963380e-02 -3.300296e-02 2.800032e+01
3.927358e-02 -3.982437e-02 2.800413e+01
3.935901e-02 -3.985256e-02 2.800419e+01
3.895533e-02 -3.824161e-02 2.800488e+01
3.905689e-02 -3.414101e-02 2.799975e+01
3.898048e-02 -3.829115e-02 2.800492e+01
3.913957e-02 -3.413055e-02 2.799971e+01
3.250933e-02 -4.797155e-02 2.800819e+01
3.265023e-02 -4.807701e-02 2.800841e+01
2.228534e-02 -5.273933e-02 2.800505e+01
2.229812e-02 -5.288440e-02 2.800542e+01
1.672961e-02 -3.387248e-02 2.800855e+01
3.439740e-02 -3.744712e-02 2.801204e+01
1.661117e-02 -3.397524e-02 2.800902e+01
3.436704e-02 -3.750622e-02 2.801226e+01
8.308015e-03 -3.977639e-02 2.799213e+01
7.941293e-03 -3.990234e-02 2.799245e+01
7.657364e-03 -1.052298e-02 2.797006e+01
7.173144e-03 -1.062010e-02 2.796986e+01
-1.024911e-03 -1.553359e-02 2.797150e+01
2.996926e-03 -2.961561e-02 2.799567e+01
-1.333773e-03 -1.554185e-02 2.797135e+01
2.851138e-03 -2.970360e-02 2.799590e+01
1.552461e-02 1.387030e-02 2.795050e+01
1.531003e-02 1.385508e-02 2.794990e+01
2.609657e-02 -1.071126e-02 2.796168e+01
2.712328e-02 -1.074243e-02 2.796127e+01
3.839924e-02 -3.073380e-02 2.796136e+01
1.288813e-02 -3.420749e-03 2.794860e+01
3.918626e-02 -3.074971e-02 2.796032e+01
1.291438e-02 -3.446842e-03 2.794800e+01
2.879243e-02 -1.175659e-01 2.801960e+01
3.063439e-02 -1.176863e-01 2.802008e+01
2.561031e-02 -2.323530e-01 2.806811e+01
2.736043e-02 -2.325408e-01 2.806776e+01
3.648459e-02 -2.272356e-01 2.807286e+01
4.689518e-02 -1.083015e-01 2.802193e+01
3.825227e-02 -2.272983e-01 2.807355e+01
4.847281e-02 -1.083613e-01 2.802239e+01
-9.739498e-05 -9.862928e-05 2.798930e+01
-9.217321e-05 -1.112449e-04 2.798931e+01
-1.147566e-04 -1.340513e-04 2.798933e+01
-1.192995e-04 -1.268713e-04 2.798932e+01
-1.118004e-04 -1.471225e-04 2.798929e+01
-1.498826e-04 -9.329039e-05 2.798931e+01
-1.093740e-04 -1.468569e-04 2.798929e+01
-1.414823e-04 -9.173965e-05 2.798932e+01
-6.941517e-05 -1.644877e-04 2.798931e+01
-7.986956e-05 -1.698462e-04 2.798932e+01
-1.400168e-04 -2.031710e-04 2.798931e+01
-1.311099e-04 -1.936222e-04 2.798930e+01
-8.150717e-05 -1.675770e-04 2.798931e+01
-1.357946e-04 -1.588907e-04 2.798931e+01
-8.067780e-05 -1.524315e-04 2.798929e+01
-1.371123e-04 -1.482488e-04 2.798931e+01
-4.692881e-05 -1.829343e-04 2.798932e+01
-5.657060e-05 -1.746119e-04 2.798931e+01
-1.705481e-04 -2.368644e-04 2.798927e+01
-1.517364e-04 -2.522730e-04 2.798929e+01
-7.505820e-05 -1.783826e-04 2.798931e+01
-1.505489e-04 -2.021945e-04 2.798929e+01
-7.946368e-05 -1.706395e-04 2.798931e+01
-1.295156e-04 -2.086006e-04 2.798930e+01
-6.908406e-05 -2.173069e-04 2.798931e+01
-8.717362e-05 -2.037370e-04 2.798930e+01
-1.952294e-04 -3.031244e-04 2.798926e+01
-1.960785e-04 -2.979922e-04 2.798925e+01
-1.020409e-04 -1.987634e-04 2.798930e+01
-1.830778e-04 -2.600783e-04 2.798925e+01
-1.124391e-04 -1.886256e-04 2.798931e+01
-1.887604e-04 -2.668921e-04 2.798926e+01
-7.402392e-05 -2.487097e-04 2.798929e+01
-8.695648e-05 -2.462302e-04 2.798928e+01
-1.907370e-04 -3.467908e-04 2.798923e+01
-2.065456e-04 -3.496894e-04 2.798923e+01
-1.190839e-04 -2.167721e-04 2.798927e+01
-2.152584e-04 -3.388683e-04 2.798922e+01
-1.163042e-04 -2.292285e-04 2.798928e+01
-1.944146e-04 -3.335919e-04 2.798921e+01
-1.116722e-04 -2.756964e-04 2.798926e+01
-9.104041e-05 -2.798109e-04 2.798926e+01
-2.051693e-04 -3.973642e-04 2.798922e+01
-2.097695e-04 -4.072234e-04 2.798923e+01
-1.499663e-04 -2.787930e-04 2.798927e+01
-2.388217e-04 -4.195484e-04 2.798920e+01
-1.633816e-04 -2.752348e-04 2.798925e+01
-2.532629e-04 -4.251316e-04 2.798919e+01
-9.838922e-05 -3.219058e-04 2.798927e+01
-1.064636e-04 -3.118327e-04 2.798925e+01
-1.996973e-04 -4.066961e-04 2.798922e+01
-1.914756e-04 -4.128840e-04 2.798924e+01
-1.466165e-04 -2.935454e-04 2.798927e+01
-2.772321e-04 -4.476325e-04 2.798920e+01
-1.367440e-04 -2.790243e-04 2.798925e+01
-2.721001e-04 -4.559748e-04 2.798922e+01
-4.502463e-05 -3.401660e-04 2.798928e+01
-3.480548e-05 -3.280088e-04 2.798924e+01
-8.446849e-05 -4.281495e-04 2.798930e+01
-9.196459e-05 -4.287998e-04 2.798930e+01
-1.853169e-04 -3.687958e-04 2.798926e+01
-2.685423e-04 -4.543213e-04 2.798925e+01
-1.695917e-04 -3.741922e-04 2.798926e+01
-2.851555e-04 -4.575490e-04 2.798926e+01
-4.300103e-05 -5.007591e-04 2.798929e+01
-4.124758e-05 -4.934687e-04 2.798928e+01
-9.560053e-05 -5.207617e-04 2.798933e+01
-1.077668e-04 -5.233006e-04 2.798933e+01
-3.515173e-04 -3.625505e-04 2.798929e+01
-2.373102e-04 -5.244708e-04 2.798927e+01
-3.429804e-04 -3.755049e-04 2.798929e+01
-2.448520e-04 -5.246846e-04 2.798927e+01
-4.169325e-04 -7.591929e-04 2.798939e+01
-4.109813e-04 -7.685403e-04 2.798938e+01
-2.106987e-04 -9.660162e-04 2.798944e+01
-2.257094e-04 -9.562544e-04 2.798943e+01
-9.385529e-04 -9.502934e-04 2.798937e+01
-4.672580e-04 -5.139484e-04 2.798929e+01
-9.543621e-04 -9.515216e-04 2.798936e+01
-4.742234e-04 -5.092159e-04 2.798928e+01
-6.664321e-04 -8.808908e-04 2.798965e+01
-6.682728e-04 -8.910266e-04 2.798967e+01
-7.069411e-04 3.405418e-04 2.798999e+01
-6.976545e-04 3.305694e-04 2.799003e+01
-1.179667e-03 6.698836e-04 2.798974e+01
-6.532256e-04 -7.238756e-04 2.798939e+01
-1.197952e-03 6.658639e-04 2.798976e+01
-6.234013e-04 -7.282351e-04 2.798940e+01
-2.462533e-03 6.349153e-04 2.799032e+01
-2.508459e-03 6.489106e-04 2.799030e+01
-4.974832e-03 -2.434626e-03 2.798994e+01
-5.017777e-03 -2.417830e-03 2.798985e+01
-5.413460e-03 1.508533e-03 2.799009e+01
-1.959109e-03 2.812894e-03 2.799009e+01
-5.519565e-03 1.521069e-03 2.799000e+01
-1.943513e-03 2.805199e-03 2.799011e+01
-7.083804e-03 -8.780728e-03 2.798872e+01
-7.127270e-03 -8.783869e-03 2.798859e+01
-6.117562e-03 -1.500245e-02 2.798782e+01
-6.017664e-03 -1.505417e-02 2.798781e+01
-1.248834e-02 -1.595059e-02 2.798678e+01
-9.687602e-03 -6.381753e-03 2.798830e+01
-1.254238e-02 -1.595314e-02 2.798663e+01
-9.771217e-03 -6.365892e-03 2.798814e+01
2.538471e-04 -7.747572e-03 2.799091e+01
3.447960e-04 -7.815524e-03 2.799106e+01
1.609933e-04 -6.468223e-03 2.799172e+01
4.662259e-05 -6.430110e-03 2.799159e+01
1.902712e-03 -5.544298e-03 2.799301e+01
-7.885886e-03 -1.859176e-02 2.798723e+01
2.055036e-03 -5.680344e-03 2.799319e+01
-7.660460e-03 -1.873357e-02 2.798734e+01
-3.439609e-03 -1.559219e-02 2.798884e+01
-3.426533e-03 -1.559651e-02 2.798884e+01
3.973788e-03 -8.670700e-03 2.799179e+01
4.118522e-03 -8.752785e-03 2.799192e+01
-5.723785e-03 -2.187402e-02 2.798877e+01
-3.016332e-03 -7.801179e-03 2.799351e+01
-5.597640e-03 -2.191905e-02 2.798880e+01
-3.312695e-03 -7.706172e-03 2.799324e+01
3.059504e-03 -5.838077e-03 2.799070e+01
2.930455e-03 -5.745748e-03 2.799064e+01
2.647663e-04 -1.268355e-02 2.798353e+01
4.121721e-04 -1.256072e-02 2.798353e+01
1.572042e-02 -1.001181e-02 2.798231e+01
1.116368e-02 -8.852676e-03 2.799567e+01
1.527039e-02 -9.761573e-03 2.798222e+01
1.143744e-02 -8.972181e-03 2.799578e+01
4.027399e-03 -1.016889e-02 2.798610e+01
4.526919e-03 -1.032032e-02 2.798623e+01
6.585365e-03 -1.475762e-03 2.799473e+01
7.086476e-03 -1.561879e-03 2.799473e+01
1.154908e-02 -5.047632e-03 2.794305e+01
1.008364e-02 -9.848727e-03 2.795486e+01
1.177949e-02 -5.140660e-03 2.794338e+01
9.640396e-03 -9.335994e-03 2.795491e+01
5.877131e-03 2.078983e-03 2.799128e+01
6.203172e-03 2.261533e-03 2.799131e+01
3.691500e-03 5.174838e-03 2.798370e+01
3.779668e-03 5.221535e-03 2.798378e+01
1.510653e-02 1.138315e-02 2.798295e+01
1.744780e-02 2.589212e-03 2.796365e+01
1.503789e-02 1.120609e-02 2.798311e+01
1.747205e-02 2.110323e-03 2.796393e+01
4.384273e-04 5.357454e-03 2.798707e+01
4.538937e-04 5.256827e-03 2.798705e+01
-1.089034e-03 3.051250e-03 2.799152e+01
-1.093282e-03 3.009009e-03 2.799145e+01
-4.490258e-03 8.353606e-03 2.799415e+01
6.139155e-03 1.230898e-02 2.799025e+01
-4.422132e-03 8.289724e-03 2.799407e+01
6.226637e-03 1.225511e-02 2.799028e+01
-2.364077e-03 -4.967147e-04 2.799160e+01
-2.397913e-03 -4.894378e-04 2.799154e+01
5.181782e-04 -4.951857e-03 2.799168e+01
4.552064e-04 -4.975162e-03 2.799161e+01
3.180251e-05 -1.031858e-02 2.799533e+01
-5.467392e-03 -3.626051e-03 2.799590e+01
-1.067534e-04 -1.030618e-02 2.799531e+01
-5.592243e-03 -3.717348e-03 2.799565e+01
3.236511e-03 -5.791399e-03 2.799087e+01
3.195206e-03 -5.784862e-03 2.799089e+01
5.214814e-03 -4.428510e-03 2.799058e+01
5.203991e-03 -4.433566e-03 2.799061e+01
8.770677e-03 -5.043809e-03 2.799206e+01
6.256066e-03 -9.539303e-03 2.799261e+01
8.732962e-03 -5.069354e-03 2.799213e+01
6.196640e-03 -9.537286e-03 2.799266e+01
4.790301e-03 -2.963704e-03 2.799146e+01
4.830801e-03 -2.983012e-03 2.799150e+01
3.691972e-03 -6.434431e-04 2.799287e+01
3.679835e-03 -6.699417e-04 2.799292e+01
7.427901e-03 6.615499e-04 2.799635e+01
8.593958e-03 -1.441227e-03 2.799329e+01
7.478624e-03 5.837878e-04 2.799635e+01
8.587689e-03 -1.485465e-03 2.799337e+01
-1.712245e-04 -1.357150e-04 2.798927e+01
-1.746783e-04 -1.136392e-04 2.798926e+01
-1.542743e-04 -1.233350e-04 2.798931e+01
-1.603153e-04 -1.050287e-04 2.798930e+01
-1.842811e-04 -1.148347e-04 2.798926e+01
-2.266847e-04 -6.936137e-05 2.798931e+01
-1.747886e-04 -9.641714e-05 2.798925e+01
-2.265893e-04 -4.828994e-05 2.798929e+01
-1.342938e-04 -1.323516e-04 2.798928e+01
-1.311912e-04 -1.304500e-04 2.798927e+01
-1.787506e-04 -1.527013e-04 2.798929e+01
-1.724922e-04 -1.484267e-04 2.798930e+01
-2.379534e-04 -1.013260e-04 2.798927e+01
-2.000242e-04 -9.379420e-05 2.798928e+01
-2.219208e-04 -9.326680e-05 2.798926e+01
-2.108656e-04 -9.654394e-05 2.798929e+01
-1.334235e-04 -1.538314e-04 2.798929e+01
-1.539701e-04 -1.339568e-04 2.798929e+01
-1.983482e-04 -2.116958e-04 2.798927e+01
-1.860135e-04 -2.024179e-04 2.798926e+01
-2.710679e-04 -8.884021e-05 2.798928e+01
-2.614523e-04 -1.272976e-04 2.798927e+01
-2.780422e-04 -8.021261e-05 2.798927e+01
-2.629658e-04 -1.151392e-04 2.798927e+01
-1.673742e-04 -1.376005e-04 2.798930e+01
-1.778658e-04 -1.396359e-04 2.798930e+01
-2.733509e-04 -2.750229e-04 2.798924e+01
-2.574626e-04 -2.615074e-04 2.798922e+01
-3.600928e-04 -1.115275e-04 2.798927e+01
-3.501485e-04 -1.873110e-04 2.798923e+01
-3.684701e-04 -1.077769e-04 2.798927e+01
-3.443998e-04 -1.819377e-04 2.798923e+01
-2.094664e-04 -1.695856e-04 2.798929e+01
-2.120725e-04 -1.733455e-04 2.798929e+01
-3.203538e-04 -3.928058e-04 2.798918e+01
-3.272772e-04 -3.947560e-04 2.798917e+01
-4.574423e-04 -1.667732e-04 2.798924e+01
-4.634888e-04 -2.872727e-04 2.798918e+01
-4.591817e-04 -1.585572e-04 2.798923e+01
-4.559703e-04 -2.795390e-04 2.798917e+01
-2.901557e-04 -2.257571e-04 2.798924e+01
-2.753938e-04 -2.382803e-04 2.798927e+01
-3.949411e-04 -4.469080e-04 2.798918e+01
-4.086467e-04 -4.535082e-04 2.798917e+01
-6.131092e-04 -2.223058e-04 2.798920e+01
-5.869137e-04 -3.924981e-04 2.798913e+01
-6.053175e-04 -2.212087e-04 2.798921e+01
-6.015941e-04 -4.004424e-04 2.798913e+01
-3.604063e-04 -2.666328e-04 2.798925e+01
-3.578759e-04 -2.657080e-04 2.798925e+01
-4.927413e-04 -4.397328e-04 2.798921e+01
-4.768335e-04 -4.388297e-04 2.798921e+01
-8.161069e-04 -1.959810e-04 2.798922e+01
-7.699870e-04 -3.813051e-04 2.798916e+01
-7.969939e-04 -2.067913e-04 2.798922e+01
-7.678080e-04 -3.917256e-04 2.798916e+01
-4.240717e-04 -2.049099e-04 2.798925e+01
-4.183137e-04 -2.115015e-04 2.798925e+01
-6.403219e-04 -5.255849e-04 2.798924e+01
-6.404905e-04 -5.089328e-04 2.798923e+01
-1.117495e-03 -5.710700e-05 2.798923e+01
-1.001524e-03 -3.565624e-04 2.798921e+01
-1.128173e-03 -7.465272e-05 2.798924e+01
-1.019990e-03 -3.498920e-04 2.798920e+01
-6.384786e-04 -3.296490e-04 2.798925e+01
-6.266377e-04 -3.519270e-04 2.798924e+01
-8.184117e-04 -3.304040e-04 2.798924e+01
-8.367556e-04 -3.268745e-04 2.798925e+01
-1.690822e-03 6.455826e-05 2.798924e+01
-1.492670e-03 -4.545050e-04 2.798922e+01
-1.668972e-03 4.659440e-05 2.798924e+01
-1.499744e-03 -4.435846e-04 2.798921e+01
-1.185020e-03 -1.034923e-04 2.798930e+01
-1.172914e-03 -1.034747e-04 2.798929e+01
-1.597852e-03 -4.587487e-04 2.798924e+01
-1.636333e-03 -4.601111e-04 2.798924e+01
-3.251161e-03 4.335779e-04 2.798930e+01
-2.249293e-03 3.913617e-04 2.798924e+01
-3.240663e-03 4.240988e-04 2.798928e+01
-2.275582e-03 3.894153e-04 2.798925e+01
-2.309992e-03 -9.271417e-04 2.798932e+01
-2.322936e-03 -9.453751e-04 2.798933e+01
-2.012510e-03 9.583555e-04 2.798940e+01
-1.947951e-03 9.205562e-04 2.798944e+01
-5.084948e-03 4.661465e-04 2.798906e+01
-4.268532e-03 -2.529254e-04 2.798912e+01
-5.095429e-03 4.339097e-04 2.798914e+01
-4.271544e-03 -2.660991e-04 2.798910e+01
-3.447896e-03 4.623721e-03 2.799015e+01
-3.472386e-03 4.602876e-03 2.799021e+01
-6.826586e-03 6.583824e-03 2.799018e+01
-6.888928e-03 6.593545e-03 2.799014e+01
-9.547393e-03 1.265744e-02 2.799031e+01
-5.128005e-03 6.298752e-03 2.798949e+01
-9.611892e-03 1.264591e-02 2.799035e+01
-5.097459e-03 6.265297e-03 2.798958e+01
-1.418233e-02 2.425457e-04 2.798880e+01
-1.437504e-02 2.829634e-04 2.798861e+01
-1.951406e-02 -1.464852e-02 2.798556e+01
-1.966482e-02 -1.462588e-02 2.798529e+01
-2.935764e-02 -8.207395e-03 2.798697e+01
-1.807086e-02 1.025364e-02 2.798936e+01
-2.965272e-02 -8.159308e-03 2.798659e+01
-1.831102e-02 1.030962e-02 2.798918e+01
-1.897485e-02 -2.615615e-02 2.798461e+01
-1.887877e-02 -2.628210e-02 2.798453e+01
-8.613183e-03 -1.977930e-02 2.799109e+01
-8.216630e-03 -2.006919e-02 2.799139e+01
-2.155323e-02 -3.834652e-02 2.799325e+01
-3.244828e-02 -3.130260e-02 2.798520e+01
-2.120385e-02 -3.863462e-02 2.799336e+01
-3.252027e-02 -3.138050e-02 2.798492e+01
3.576541e-03 -9.109405e-04 2.800240e+01
3.626041e-03 -9.976927e-04 2.800249e+01
-4.578758e-03 -1.769725e-02 2.799974e+01
-5.085556e-03 -1.736784e-02 2.799936e+01
2.934238e-02 -9.524910e-03 2.802083e+01
5.335000e-03 -2.312207e-02 2.801099e+01
2.914917e-02 -9.133059e-03 2.802059e+01
5.994029e-03 -2.343679e-02 2.801149e+01
8.160474e-03 -4.385591e-02 2.799281e+01
8.768317e-03 -4.391179e-02 2.799297e+01
4.732647e-02 -1.721209e-02 2.802565e+01
4.768842e-02 -1.766376e-02 2.802622e+01
5.554883e-02 -6.720716e-02 2.795104e+01
2.768860e-02 -6.156199e-02 2.797231e+01
5.783907e-02 -6.765317e-02 2.795173e+01
2.732485e-02 -6.066157e-02 2.797183e+01
6.339188e-02 -9.180761e-03 2.803584e+01
6.220073e-02 -8.625194e-03 2.803624e+01
7.005170e-02 -1.032364e-02 2.799862e+01
6.856582e-02 -9.790503e-03 2.799931e+01
1.270056e-01 -1.890759e-05 2.803692e+01
1.148981e-01 -3.074966e-02 2.802133e+01
1.282848e-01 5.976681e-04 2.803699e+01
1.179310e-01 -3.210502e-02 2.802189e+01
6.374422e-02 1.117154e-02 2.799318e+01
6.330972e-02 1.128331e-02 2.799373e+01
4.367322e-02 2.809530e-02 2.798245e+01
4.407712e-02 2.830519e-02 2.798281e+01
7.192005e-02 6.202064e-02 2.792817e+01
1.046996e-01 3.414270e-02 2.797453e+01
7.270412e-02 6.222755e-02 2.792869e+01
1.057332e-01 3.538379e-02 2.797499e+01
1.663890e-02 3.336679e-02 2.798261e+01
1.703714e-02 3.319344e-02 2.798269e+01
-3.212850e-03 1.874932e-02 2.799909e+01
-3.052851e-03 1.837986e-02 2.799877e+01
1.105803e-02 3.985192e-02 2.800000e+01
3.901027e-02 6.362073e-02 2.795486e+01
1.141103e-02 3.909223e-02 2.799931e+01
3.962374e-02 6.286708e-02 2.795465e+01
-6.982172e-03 -8.518444e-03 2.800579e+01
-7.144101e-03 -8.684465e-03 2.800543e+01
2.831304e-03 -2.085877e-02 2.800456e+01
2.630825e-03 -2.084364e-02 2.800455e+01
9.156654e-03 -3.488660e-02 2.802261e+01
4.109853e-04 -1.230473e-02 2.802056e+01
8.840888e-03 -3.489559e-02 2.802262e+01
2.772661e-04 -1.269559e-02 2.801984e+01
1.199656e-02 -1.466068e-02 2.799762e+01
1.184261e-02 -1.464185e-02 2.799778e+01
1.462278e-02 -4.955200e-03 2.799470e+01
1.462127e-02 -4.975976e-03 2.799481e+01
2.510815e-02 -4.731693e-03 2.800021e+01
2.081769e-02 -2.192433e-02 2.800821e+01
2.510479e-02 -4.759209e-03 2.800042e+01
2.064489e-02 -2.187223e-02 2.800849e+01
1.495892e-02 -1.130984e-03 2.799654e+01
1.499703e-02 -1.214803e-03 2.799661e+01
1.458285e-02 2.893819e-03 2.800035e+01
1.456698e-02 2.788587e-03 2.800044e+01
2.567051e-02 1.547026e-03 2.800596e+01
2.390945e-02 3.522402e-04 2.800113e+01
2.560931e-02 1.404059e-03 2.800596e+01
2.387716e-02 2.192950e-04 2.800119e+01
-2.629961e-04 -7.861521e-05 2.798923e+01
-2.512144e-04 -5.919959e-05 2.798923e+01
-2.422590e-04 -4.122362e-05 2.798927e+01
-2.381968e-04 -3.614504e-05 2.798928e+01
-2.964408e-04 -2.618632e-05 2.798921e+01
-2.772047e-04 -2.057374e-05 2.798927e+01
-3.077459e-04 -2.327098e-05 2.798922e+01
-2.694127e-04 -8.104142e-06 2.798926e+01
-2.657924e-04 -7.558083e-05 2.798924e+01
-2.633182e-04 -6.133004e-05 2.798923e+01
-2.960469e-04 -5.465444e-05 2.798926e+01
-3.020983e-04 -5.420512e-05 2.798927e+01
-3.793500e-04 1.758763e-05 2.798923e+01
-3.121297e-04 1.146460e-05 2.798925e+01
-3.751965e-04 3.345243e-05 2.798921e+01
-3.053682e-04 2.180938e-05 2.798926e+01
-3.596928e-04 -3.379326e-05 2.798925e+01
-3.538993e-04 -2.511349e-05 2.798924e+01
-4.116193e-04 -7.354812e-05 2.798923e+01
-4.096352e-04 -6.724391e-05 2.798923e+01
-5.348997e-04 5.707463e-05 2.798921e+01
-4.207790e-04 2.963532e-05 2.798922e+01
-5.445571e-04 6.778169e-05 2.798921e+01
-4.295068e-04 2.187445e-05 2.798923e+01
-4.839266e-04 -1.700619e-05 2.798923e+01
-4.914348e-04 -1.501419e-05 2.798924e+01
-5.635641e-04 -1.391400e-04 2.798918e+01
-5.668714e-04 -1.182642e-04 2.798917e+01
-7.201831e-04 8.859435e-05 2.798917e+01
-5.978780e-04 5.089149e-06 2.798919e+01
-7.220163e-04 8.001786e-05 2.798919e+01
-5.842559e-04 1.634750e-05 2.798917e+01
-6.266577e-04 -4.613945e-05 2.798920e+01
-6.329469e-04 -4.508073e-05 2.798921e+01
-7.564004e-04 -2.569310e-04 2.798909e+01
-7.490110e-04 -2.652264e-04 2.798909e+01
-9.759306e-04 8.791845e-06 2.798911e+01
-8.312347e-04 -7.149155e-05 2.798910e+01
-9.525135e-04 2.997006e-06 2.798911e+01
-8.198083e-04 -6.462671e-05 2.798908e+01
-8.313541e-04 -1.313123e-04 2.798915e+01
-8.207241e-04 -1.354061e-04 2.798915e+01
-9.817121e-04 -3.259841e-04 2.798907e+01
-9.962183e-04 -3.351388e-04 2.798907e+01
-1.254960e-03 -2.998924e-05 2.798908e+01
-1.083961e-03 -1.999874e-04 2.798901e+01
-1.250142e-03 -3.809889e-05 2.798909e+01
-1.120942e-03 -2.002731e-04 2.798901e+01
-1.091458e-03 -8.017461e-05 2.798916e+01
-1.095249e-03 -8.557777e-05 2.798916e+01
-1.332870e-03 -2.926054e-04 2.798913e+01
-1.339368e-03 -2.885424e-04 2.798913e+01
-1.612153e-03 2.015466e-04 2.798912e+01
-1.443789e-03 -1.529572e-04 2.798904e+01
-1.626307e-03 2.040988e-04 2.798913e+01
-1.434650e-03 -1.615391e-04 2.798904e+01
-1.441645e-03 4.329113e-05 2.798918e+01
-1.443829e-03 3.974803e-05 2.798918e+01
-1.819701e-03 -2.524432e-05 2.798917e+01
-1.827816e-03 -2.916878e-05 2.798918e+01
-2.169359e-03 6.062557e-04 2.798909e+01
-1.964400e-03 -1.818847e-05 2.798908e+01
-2.201570e-03 6.009460e-04 2.798911e+01
-1.944465e-03 -2.009257e-05 2.798906e+01
-2.234068e-03 2.148769e-04 2.798918e+01
-2.243644e-03 2.058767e-04 2.798918e+01
-2.791564e-03 1.101552e-04 2.798912e+01
-2.771176e-03 1.155967e-04 2.798913e+01
-3.488681e-03 7.828009e-04 2.798896e+01
-2.901766e-03 6.543313e-04 2.798905e+01
-3.506215e-03 7.819723e-04 2.798895e+01
-2.922672e-03 6.668885e-04 2.798906e+01
-3.343649e-03 1.374420e-03 2.798919e+01
-3.357377e-03 1.361383e-03 2.798921e+01
-4.731139e-03 1.724843e-03 2.798914e+01
-4.751726e-03 1.727844e-03 2.798913e+01
-5.382176e-03 3.742886e-03 2.798882e+01
-4.196084e-03 1.909804e-03 2.798889e+01
-5.416607e-03 3.751030e-03 2.798882e+01
-4.187706e-03 1.900809e-03 2.798893e+01
-6.389157e-03 1.065399e-03 2.798878e+01
-6.438365e-03 1.059245e-03 2.798878e+01
-7.579881e-03 9.209344e-04 2.798786e+01
-7.565112e-03 9.173234e-04 2.798785e+01
-9.395664e-03 1.825000e-03 2.798550e+01
-7.695905e-03 3.023254e-03 2.798772e+01
-9.403260e-03 1.835106e-03 2.798549e+01
-7.707656e-03 3.034601e-03 2.798770e+01
-8.158236e-03 6.118387e-03 2.798755e+01
-8.058851e-03 6.073743e-03 2.798771e+01
-9.604870e-03 1.861912e-02 2.798907e+01
-9.612171e-03 1.857627e-02 2.798924e+01
-8.807410e-03 1.960368e-02 2.798937e+01
-9.396800e-03 5.627335e-03 2.798432e+01
-8.707390e-03 1.946064e-02 2.798968e+01
-9.347962e-03 5.575262e-03 2.798444e+01
-1.950505e-02 2.297504e-02 2.799258e+01
-1.976164e-02 2.299555e-02 2.799250e+01
-3.451629e-02 5.435663e-03 2.799540e+01
-3.503317e-02 5.531982e-03 2.799497e+01
-3.360971e-02 2.691913e-02 2.802272e+01
-1.359985e-02 3.660077e-02 2.800458e+01
-3.431803e-02 2.703293e-02 2.802228e+01
-1.378165e-02 3.649938e-02 2.800474e+01
-4.479569e-02 -3.284377e-02 2.799737e+01
-4.515838e-02 -3.279184e-02 2.799680e+01
-2.848390e-02 -6.677583e-02 2.800433e+01
-2.818992e-02 -6.692329e-02 2.800410e+01
-3.271492e-02 -1.088764e-01 2.801917e+01
-5.084442e-02 -2.776662e-02 2.802863e+01
-3.253222e-02 -1.086917e-01 2.801818e+01
-5.161674e-02 -2.745180e-02 2.802762e+01
1.758305e-02 -7.028196e-02 2.801551e+01
1.851504e-02 -7.060370e-02 2.801585e+01
7.901494e-02 -4.594280e-02 2.801881e+01
7.985501e-02 -4.597425e-02 2.801933e+01
1.217352e-01 -1.121682e-01 2.799733e+01
3.835397e-02 -1.477062e-01 2.800137e+01
1.232222e-01 -1.127505e-01 2.799836e+01
3.969314e-02 -1.480193e-01 2.800134e+01
1.007925e-01 -3.738827e-02 2.797202e+01
9.991182e-02 -3.587810e-02 2.797140e+01
9.194998e-02 -1.058357e-01 2.781036e+01
9.203685e-02 -1.036546e-01 2.780976e+01
1.849590e-01 -7.713928e-02 2.787147e+01
1.833316e-01 -4.480608e-02 2.799257e+01
1.825178e-01 -7.409631e-02 2.787102e+01
1.835248e-01 -4.417787e-02 2.799296e+01
1.040172e-01 -6.032482e-02 2.773454e+01
1.076549e-01 -6.084002e-02 2.773467e+01
1.117191e-01 1.741996e-02 2.779363e+01
1.156666e-01 1.605146e-02 2.779364e+01
1.207670e-01 2.155065e-02 2.765166e+01
1.396896e-01 -4.784912e-02 2.767317e+01
1.205888e-01 2.014921e-02 2.765279e+01
1.370251e-01 -4.541881e-02 2.767397e+01
1.060137e-01 5.395777e-02 2.785715e+01
1.079237e-01 5.342033e-02 2.785733e+01
9.469373e-02 9.377101e-02 2.789011e+01
9.510395e-02 9.321192e-02 2.789040e+01
1.096599e-01 1.139945e-01 2.787620e+01
1.206733e-01 6.486845e-02 2.779114e+01
1.099103e-01 1.134623e-01 2.787649e+01
1.211067e-01 6.274512e-02 2.779149e+01
6.747733e-02 9.793290e-02 2.793279e+01
6.808214e-02 9.715437e-02 2.793259e+01
3.238758e-02 7.421055e-02 2.799521e+01
3.303031e-02 7.317875e-02 2.799415e+01
3.402100e-02 1.222625e-01 2.797315e+01
8.166350e-02 1.382854e-01 2.791177e+01
3.498162e-02 1.210181e-01 2.797163e+01
8.250478e-02 1.379829e-01 2.791184e+01
1.072892e-02 -9.049400e-03 2.803579e+01
1.074890e-02 -9.648195e-03 2.803452e+01
1.910825e-02 -5.327252e-02 2.804736e+01
1.874746e-02 -5.331384e-02 2.804726e+01
2.882922e-02 -7.891386e-02 2.806919e+01
1.141271e-02 -5.971949e-03 2.803802e+01
2.840166e-02 -7.899215e-02 2.806900e+01
1.151364e-02 -6.745602e-03 2.803595e+01
3.563308e-02 -3.230894e-02 2.802704e+01
3.537567e-02 -3.223547e-02 2.802752e+01
3.872637e-02 -2.139747e-03 2.800978e+01
3.870943e-02 -2.140739e-03 2.801009e+01
5.241726e-02 5.424904e-04 2.802515e+01
4.832219e-02 -4.343604e-02 2.805225e+01
5.231184e-02 6.014376e-04 2.802554e+01
4.805929e-02 -4.331670e-02 2.805296e+01
3.675303e-02 1.881561e-03 2.800902e+01
3.677927e-02 1.753692e-03 2.800897e+01
3.953614e-02 -2.603215e-03 2.801326e+01
3.947351e-02 -2.754781e-03 2.801309e+01
5.079527e-02 -3.455164e-03 2.802289e+01
5.169629e-02 2.323993e-03 2.802168e+01
5.079125e-02 -3.562830e-03 2.802271e+01
5.168440e-02 2.282333e-03 2.802155e+01
-3.201007e-04 -1.374185e-05 2.798919e+01
-3.201832e-04 -1.868871e-05 2.798921e+01
-3.066454e-04 3.733515e-05 2.798925e+01
-3.215837e-04 6.485016e-05 2.798923e+01
-3.729465e-04 1.175573e-04 2.798920e+01
-3.010820e-04 4.884913e-05 2.798924e+01
-3.790905e-04 1.228415e-04 2.798920e+01
-3.015728e-04 6.084725e-05 2.798923e+01
-3.808685e-04 7.850423e-05 2.798921e+01
-3.802256e-04 8.260416e-05 2.798921e+01
-4.248078e-04 1.135345e-04 2.798923e+01
-4.245413e-04 1.179790e-04 2.798922e+01
-5.225903e-04 2.063989e-04 2.798920e+01
-4.000801e-04 1.725165e-04 2.798922e+01
-5.168488e-04 2.097094e-04 2.798920e+01
-4.006106e-04 1.701517e-04 2.798924e+01
-5.374146e-04 1.298850e-04 2.798921e+01
-5.412399e-04 1.405377e-04 2.798920e+01
-6.026882e-04 1.361458e-04 2.798919e+01
-5.987933e-04 1.378045e-04 2.798919e+01
-7.345648e-04 2.584876e-04 2.798917e+01
-5.873702e-04 2.345008e-04 2.798921e+01
-7.217176e-04 2.575145e-04 2.798919e+01
-5.912410e-04 2.314902e-04 2.798920e+01
-7.483903e-04 1.877148e-04 2.798917e+01
-7.378683e-04 1.824592e-04 2.798919e+01
-8.172657e-04 1.078376e-04 2.798913e+01
-8.362620e-04 1.046863e-04 2.798912e+01
-1.027179e-03 3.067813e-04 2.798914e+01
-7.879326e-04 2.550603e-04 2.798917e+01
-1.001475e-03 2.920425e-04 2.798914e+01
-8.077445e-04 2.565484e-04 2.798915e+01
-1.026477e-03 1.728932e-04 2.798911e+01
-1.024408e-03 1.499140e-04 2.798913e+01
-1.158431e-03 7.449902e-06 2.798903e+01
-1.154478e-03 8.958849e-07 2.798902e+01
-1.368808e-03 2.568139e-04 2.798907e+01
-1.108520e-03 2.076599e-04 2.798909e+01
-1.380986e-03 2.431383e-04 2.798908e+01
-1.130152e-03 2.035364e-04 2.798908e+01
-1.362406e-03 9.061045e-05 2.798906e+01
-1.354270e-03 8.876983e-05 2.798905e+01
-1.511101e-03 -4.752999e-05 2.798899e+01
-1.507149e-03 -5.397421e-05 2.798900e+01
-1.770530e-03 2.809642e-04 2.798904e+01
-1.521699e-03 1.453603e-04 2.798901e+01
-1.776594e-03 2.747087e-04 2.798904e+01
-1.524611e-03 1.378036e-04 2.798900e+01
-1.731574e-03 2.223363e-04 2.798906e+01
-1.732623e-03 2.183530e-04 2.798907e+01
-1.954758e-03 1.926239e-04 2.798903e+01
-1.971031e-03 1.892320e-04 2.798902e+01
-2.263571e-03 6.494396e-04 2.798902e+01
-1.977522e-03 2.553171e-04 2.798898e+01
-2.245934e-03 6.527728e-04 2.798903e+01
-1.982364e-03 2.563732e-04 2.798899e+01
-2.296055e-03 6.194153e-04 2.798904e+01
-2.299217e-03 6.185449e-04 2.798907e+01
-2.743596e-03 6.062090e-04 2.798895e+01
-2.715368e-03 6.143414e-04 2.798896e+01
-2.961310e-03 1.239036e-03 2.798886e+01
-2.583314e-03 8.384474e-04 2.798896e+01
-2.990588e-03 1.245566e-03 2.798888e+01
-2.594821e-03 8.532807e-04 2.798892e+01
-3.147212e-03 1.822471e-03 2.798894e+01
-3.170128e-03 1.819713e-03 2.798892e+01
-4.275436e-03 1.325276e-03 2.798873e+01
-4.290197e-03 1.327119e-03 2.798873e+01
-4.273065e-03 3.012343e-03 2.798858e+01
-3.470909e-03 2.097720e-03 2.798872e+01
-4.300105e-03 3.021322e-03 2.798857e+01
-3.444388e-03 2.100704e-03 2.798874e+01
-4.665698e-03 2.363089e-03 2.798850e+01
-4.652220e-03 2.360139e-03 2.798854e+01
-5.797552e-03 5.625528e-03 2.798809e+01
-5.800534e-03 5.629869e-03 2.798811e+01
-5.489176e-03 7.273246e-03 2.798669e+01
-5.282505e-03 2.076899e-03 2.798786e+01
-5.477379e-03 7.265000e-03 2.798679e+01
-5.273103e-03 2.090386e-03 2.798788e+01
-8.356330e-03 6.146009e-03 2.798604e+01
-8.428775e-03 6.165488e-03 2.798604e+01
-1.103873e-02 3.225329e-03 2.798252e+01
-1.106730e-02 3.231902e-03 2.798247e+01
-1.120396e-02 4.324055e-03 2.798068e+01
-8.653436e-03 1.048100e-02 2.798375e+01
-1.125390e-02 4.337630e-03 2.798053e+01
-8.730291e-03 1.051288e-02 2.798372e+01
-9.862596e-03 2.785185e-03 2.798307e+01
-9.761697e-03 2.694220e-03 2.798314e+01
-5.769535e-03 1.675904e-02 2.799808e+01
-5.622331e-03 1.650328e-02 2.799848e+01
-2.638761e-03 1.093253e-02 2.802040e+01
-8.158740e-03 -3.089786e-03 2.798873e+01
-2.492454e-03 1.054216e-02 2.802099e+01
-8.087534e-03 -3.247633e-03 2.798875e+01
-8.758689e-03 4.584221e-02 2.803348e+01
-8.869644e-03 4.554243e-02 2.803400e+01
-3.017395e-02 5.837498e-02 2.807023e+01
-3.097338e-02 5.844822e-02 2.806999e+01
-3.984376e-02 9.027252e-02 2.810833e+01
-1.216817e-02 6.116977e-02 2.807467e+01
-4.039696e-02 9.035643e-02 2.810808e+01
-1.229322e-02 6.072421e-02 2.807555e+01
-5.897682e-02 -1.349234e-02 2.806649e+01
-6.011073e-02 -1.277560e-02 2.806477e+01
-4.219794e-02 -1.593742e-01 2.800932e+01
-4.222207e-02 -1.586398e-01 2.800719e+01
-5.372152e-02 -2.015507e-01 2.795688e+01
-6.149277e-02 6.325307e-03 2.806724e+01
-5.425048e-02 -2.000869e-01 2.795373e+01
-6.246927e-02 7.417657e-03 2.806484e+01
3.423569e-02 -2.471071e-01 2.795156e+01
3.584120e-02 -2.473837e-01 2.795108e+01
1.395983e-01 -2.027012e-01 2.795497e+01
1.419455e-01 -2.040035e-01 2.795619e+01
1.134658e-01 -3.300311e-01 2.786317e+01
3.535927e-03 -3.403092e-01 2.786461e+01
1.167606e-01 -3.316857e-01 2.786419e+01
4.793995e-03 -3.402198e-01 2.786338e+01
2.380732e-01 -1.085165e-01 2.800765e+01
2.394303e-01 -1.094363e-01 2.800885e+01
2.783640e-01 -4.049792e-02 2.802225e+01
2.760453e-01 -4.033732e-02 2.802336e+01
3.383077e-01 -4.274603e-02 2.818997e+01
2.550374e-01 -2.214588e-01 2.799073e+01
3.383658e-01 -4.618593e-02 2.819204e+01
2.583943e-01 -2.246093e-01 2.799296e+01
2.539509e-01 -2.867669e-03 2.798411e+01
2.479187e-01 -9.165284e-04 2.798593e+01
2.274780e-01 2.721994e-02 2.787389e+01
2.223477e-01 2.847034e-02 2.787589e+01
3.322890e-01 5.582562e-02 2.820562e+01
3.522801e-01 1.976317e-02 2.834550e+01
3.287851e-01 5.947124e-02 2.820729e+01
3.486858e-01 1.983658e-02 2.834728e+01
1.949066e-01 9.636339e-02 2.786376e+01
1.930839e-01 9.615116e-02 2.786487e+01
1.381958e-01 1.567234e-01 2.787244e+01
1.386588e-01 1.572986e-01 2.787328e+01
1.307035e-01 2.644356e-01 2.782609e+01
2.582476e-01 1.739619e-01 2.798995e+01
1.324007e-01 2.660327e-01 2.782763e+01
2.578742e-01 1.777813e-01 2.799165e+01
6.570308e-02 2.000012e-01 2.787557e+01
6.687180e-02 2.000260e-01 2.787579e+01
1.676743e-02 1.618099e-01 2.793700e+01
1.740921e-02 1.603585e-01 2.793487e+01
1.294100e-02 1.594008e-01 2.791948e+01
2.731107e-02 2.708957e-01 2.783564e+01
1.293436e-02 1.578237e-01 2.791666e+01
2.859129e-02 2.698986e-01 2.783440e+01
1.311356e-02 -1.128360e-02 2.801795e+01
1.327465e-02 -1.214307e-02 2.801532e+01
3.178228e-02 -1.046516e-01 2.806883e+01
3.165148e-02 -1.048314e-01 2.806861e+01
3.678834e-02 -1.113997e-01 2.803942e+01
3.464007e-02 -1.834697e-02 2.798409e+01
3.699862e-02 -1.117459e-01 2.803904e+01
3.493274e-02 -1.910462e-02 2.798185e+01
5.157310e-02 -5.725351e-02 2.807272e+01
5.113294e-02 -5.717125e-02 2.807358e+01
6.167582e-02 -2.171633e-03 2.804639e+01
6.154867e-02 -2.026449e-03 2.804695e+01
6.024939e-02 -2.735836e-03 2.806934e+01
4.895486e-02 -8.057463e-02 2.807753e+01
6.011458e-02 -2.641169e-03 2.807030e+01
4.851832e-02 -8.063393e-02 2.807837e+01
6.040320e-02 6.195029e-03 2.804120e+01
6.044851e-02 6.230445e-03 2.804124e+01
5.260263e-02 1.594622e-03 2.803922e+01
5.277532e-02 1.586082e-03 2.803897e+01
4.180346e-02 1.584427e-02 2.806376e+01
5.481069e-02 1.134112e-02 2.806673e+01
4.195233e-02 1.592651e-02 2.806385e+01
5.488477e-02 1.145939e-02 2.806699e+01
-3.361370e-04 9.387957e-05 2.798919e+01
-3.249848e-04 8.900515e-05 2.798919e+01
-3.801998e-04 1.822351e-04 2.798922e+01
-3.742886e-04 1.795604e-04 2.798923e+01
-4.371918e-04 2.706261e-04 2.798920e+01
-3.229724e-04 1.647102e-04 2.798920e+01
-4.247575e-04 2.620011e-04 2.798919e+01
-3.197678e-04 1.638980e-04 2.798922e+01
-4.730081e-04 2.493009e-04 2.798921e+01
-4.913725e-04 2.535665e-04 2.798919e+01
-5.441739e-04 2.955518e-04 2.798920e+01
-5.345857e-04 2.836997e-04 2.798921e+01
-6.366025e-04 3.950834e-04 2.798919e+01
-4.960831e-04 3.225992e-04 2.798920e+01
-6.179058e-04 3.955978e-04 2.798918e+01
-4.940830e-04 3.230565e-04 2.798921e+01
-7.040568e-04 3.472317e-04 2.798919e+01
-6.973194e-04 3.498684e-04 2.798919e+01
-7.568165e-04 3.688709e-04 2.798918e+01
-7.609477e-04 3.717656e-04 2.798917e+01
-8.943606e-04 4.973148e-04 2.798917e+01
-6.982521e-04 4.617885e-04 2.798918e+01
-9.015383e-04 4.942019e-04 2.798917e+01
-7.169194e-04 4.481282e-04 2.798919e+01
-9.580283e-04 4.179752e-04 2.798917e+01
-9.474908e-04 4.153739e-04 2.798916e+01
-1.048777e-03 3.854411e-04 2.798912e+01
-1.056286e-03 3.747549e-04 2.798913e+01
-1.206316e-03 5.907242e-04 2.798914e+01
-9.766300e-04 5.283193e-04 2.798915e+01
-1.236775e-03 5.809054e-04 2.798915e+01
-9.749083e-04 5.179958e-04 2.798916e+01
-1.319957e-03 4.405378e-04 2.798912e+01
-1.307817e-03 4.346420e-04 2.798911e+01
-1.432269e-03 3.301734e-04 2.798904e+01
-1.431387e-03 3.183329e-04 2.798904e+01
-1.624209e-03 6.100252e-04 2.798908e+01
-1.333795e-03 5.444786e-04 2.798910e+01
-1.653221e-03 6.099616e-04 2.798908e+01
-1.335034e-03 5.370843e-04 2.798910e+01
-1.729200e-03 4.383594e-04 2.798904e+01
-1.742219e-03 4.255222e-04 2.798905e+01
-1.935968e-03 3.609519e-04 2.798897e+01
-1.913011e-03 3.599974e-04 2.798897e+01
-2.132772e-03 7.420707e-04 2.798902e+01
-1.790023e-03 5.446277e-04 2.798901e+01
-2.127546e-03 7.436627e-04 2.798902e+01
-1.792015e-03 5.396537e-04 2.798901e+01
-2.192239e-03 6.787317e-04 2.798901e+01
-2.204544e-03 6.903144e-04 2.798900e+01
-2.421561e-03 7.586547e-04 2.798889e+01
-2.436314e-03 7.652001e-04 2.798890e+01
-2.588869e-03 1.247395e-03 2.798887e+01
-2.278121e-03 7.614227e-04 2.798888e+01
-2.594783e-03 1.249665e-03 2.798886e+01
-2.274362e-03 7.630893e-04 2.798889e+01
-2.735136e-03 1.421821e-03 2.798886e+01
-2.719052e-03 1.427193e-03 2.798885e+01
-3.073979e-03 1.477354e-03 2.798867e+01
-3.086537e-03 1.488303e-03 2.798867e+01
-2.910539e-03 2.112478e-03 2.798853e+01
-2.712720e-03 1.415516e-03 2.798868e+01
-2.926597e-03 2.135686e-03 2.798851e+01
-2.717637e-03 1.422437e-03 2.798869e+01
-3.336136e-03 2.622850e-03 2.798851e+01
-3.343710e-03 2.632486e-03 2.798853e+01
-3.990483e-03 4.061503e-03 2.798822e+01
-4.000066e-03 4.088173e-03 2.798820e+01
-3.051515e-03 5.063814e-03 2.798770e+01
-3.054735e-03 2.453757e-03 2.798807e+01
-3.052569e-03 5.084314e-03 2.798771e+01
-3.021762e-03 2.460459e-03 2.798811e+01
-4.816928e-03 2.989636e-03 2.798691e+01
-4.831164e-03 3.006005e-03 2.798694e+01
-5.380694e-03 7.190454e-03 2.798422e+01
-5.335260e-03 7.199049e-03 2.798435e+01
-3.730643e-03 7.535847e-03 2.798093e+01
-3.584362e-03 3.591869e-03 2.798540e+01
-3.664691e-03 7.562737e-03 2.798107e+01
-3.623252e-03 3.643965e-03 2.798539e+01
-6.870448e-03 1.558023e-02 2.798128e+01
-6.904441e-03 1.560700e-02 2.798126e+01
-8.722633e-03 3.921938e-03 2.798233e+01
-8.828656e-03 3.894567e-03 2.798207e+01
-1.146830e-03 3.052198e-03 2.798943e+01
-2.987650e-03 1.647145e-02 2.797943e+01
-1.286344e-03 2.958377e-03 2.798911e+01
-2.971988e-03 1.646231e-02 2.797945e+01
-3.892756e-03 -1.182427e-02 2.800245e+01
-3.829500e-03 -1.207769e-02 2.800251e+01
-7.840307e-03 1.470285e-02 2.804923e+01
-7.888442e-03 1.420069e-02 2.805009e+01
-3.299302e-02 4.047549e-02 2.807227e+01
-6.973547e-03 -1.233390e-02 2.802356e+01
-3.313607e-02 3.996467e-02 2.807337e+01
-7.142750e-03 -1.270745e-02 2.802382e+01
-3.285045e-02 8.763073e-02 2.810088e+01
-3.297298e-02 8.718962e-02 2.810185e+01
-5.764921e-02 1.144954e-01 2.810157e+01
-5.781786e-02 1.147327e-01 2.810091e+01
-7.164425e-02 1.107555e-01 2.805501e+01
-6.887458e-02 1.185746e-01 2.809272e+01
-7.139933e-02 1.111260e-01 2.805392e+01
-6.886484e-02 1.183526e-01 2.809321e+01
-5.671745e-02 6.378420e-03 2.802399e+01
-5.725495e-02 7.600563e-03 2.802150e+01
-6.082049e-02 -1.991114e-01 2.790504e+01
-6.205331e-02 -1.971544e-01 2.790163e+01
-6.130937e-02 -1.758502e-01 2.785842e+01
-5.716262e-02 -6.620749e-04 2.797600e+01
-6.220593e-02 -1.736139e-01 2.785510e+01
-5.756688e-02 5.191285e-04 2.797396e+01
-4.841169e-02 -4.119146e-01 2.776108e+01
-4.814572e-02 -4.105378e-01 2.775837e+01
6.045968e-02 -4.848303e-01 2.769226e+01
6.457221e-02 -4.858221e-01 2.769258e+01
4.837993e-03 -6.507042e-01 2.740879e+01
-6.973699e-02 -4.327672e-01 2.763670e+01
9.339134e-03 -6.485661e-01 2.740770e+01
-7.084122e-02 -4.294275e-01 2.763240e+01
2.164597e-01 -3.689474e-01 2.781111e+01
2.231099e-01 -3.731797e-01 2.781357e+01
3.539028e-01 -1.122979e-01 2.806619e+01
3.606072e-01 -1.176874e-01 2.806837e+01
4.037833e-01 -2.551033e-01 2.728626e+01
1.998650e-01 -5.526986e-01 2.731697e+01
4.197625e-01 -2.558305e-01 2.728756e+01
2.105566e-01 -5.540019e-01 2.731830e+01
4.227183e-01 2.000731e-02 2.829604e+01
4.299946e-01 1.963580e-02 2.829657e+01
3.680774e-01 1.442905e-01 2.809118e+01
3.741621e-01 1.497907e-01 2.809228e+01
3.554081e-01 3.296398e-01 2.709800e+01
4.773236e-01 5.226716e-02 2.725387e+01
3.749533e-01 3.315425e-01 2.709908e+01
4.992962e-01 5.352224e-02 2.725475e+01
2.110180e-01 3.219889e-01 2.780083e+01
2.169216e-01 3.266981e-01 2.780255e+01
5.528537e-02 4.024800e-01 2.768000e+01
5.856063e-02 4.022981e-01 2.768080e+01
6.631641e-03 5.383829e-01 2.746938e+01
1.624603e-01 5.233155e-01 2.718310e+01
1.053189e-02 5.330763e-01 2.746679e+01
1.744350e-01 5.210638e-01 2.718395e+01
-1.003193e-02 3.084606e-01 2.777092e+01
-9.372579e-03 3.059003e-01 2.776741e+01
2.631225e-02 1.078247e-01 2.790418e+01
2.640139e-02 1.063785e-01 2.790109e+01
7.465458e-02 9.115350e-02 2.784510e+01
1.897023e-02 2.485494e-01 2.769963e+01
7.543561e-02 8.982971e-02 2.784303e+01
1.853854e-02 2.449094e-01 2.769518e+01
6.288599e-02 -1.640909e-02 2.795380e+01
6.313639e-02 -1.711988e-02 2.795251e+01
5.124991e-02 -9.646444e-02 2.800260e+01
5.180924e-02 -9.692667e-02 2.800184e+01
6.570520e-02 -6.400227e-02 2.797758e+01
7.255220e-02 -2.339807e-02 2.792189e+01
6.625334e-02 -6.452071e-02 2.797691e+01
7.265747e-02 -2.416940e-02 2.792084e+01
4.631084e-02 -9.804318e-02 2.806481e+01
4.609483e-02 -9.830987e-02 2.806551e+01
4.925275e-02 -2.780529e-04 2.809727e+01
4.913929e-02 -3.741323e-04 2.809864e+01
4.428884e-02 9.781721e-03 2.812495e+01
4.983559e-02 -1.032083e-01 2.805167e+01
4.413783e-02 9.522534e-03 2.812671e+01
4.986618e-02 -1.036448e-01 2.805206e+01
3.966651e-02 2.140213e-02 2.809925e+01
3.979417e-02 2.145531e-02 2.809997e+01
2.730074e-02 2.916520e-02 2.809851e+01
2.742988e-02 2.925362e-02 2.809872e+01
2.511477e-02 4.270448e-02 2.813507e+01
3.526887e-02 2.900687e-02 2.813319e+01
2.530497e-02 4.273969e-02 2.813586e+01
3.529757e-02 2.907286e-02 2.813407e+01
-3.415579e-04 2.414864e-04 2.798920e+01
-3.463507e-04 2.370399e-04 2.798919e+01
-4.397438e-04 3.398262e-04 2.798919e+01
-4.381015e-04 3.300725e-04 2.798920e+01
-5.801223e-04 4.290868e-04 2.798919e+01
-5.791748e-04 4.231122e-04 2.798919e+01
-6.290240e-04 4.935932e-04 2.798918e+01
-6.379273e-04 4.927895e-04 2.798918e+01
-8.203173e-04 5.628577e-04 2.798915e+01
-8.082411e-04 5.482903e-04 2.798917e+01
-9.144997e-04 6.319752e-04 2.798916e+01
-9.249195e-04 6.298605e-04 2.798917e+01
-1.111875e-03 6.552090e-04 2.798915e+01
-1.132723e-03 6.671004e-04 2.798913e+01
-1.250023e-03 7.460528e-04 2.798914e+01
-1.214490e-03 7.368135e-04 2.798914e+01
-1.506607e-03 7.343032e-04 2.798908e+01
-1.518501e-03 7.309295e-04 2.798909e+01
-1.654081e-03 8.073431e-04 2.798907e+01
-1.661591e-03 7.964520e-04 2.798906e+01
-1.995344e-03 8.022875e-04 2.798901e+01
-1.991969e-03 8.015882e-04 2.798902e+01
-2.109655e-03 9.443621e-04 2.798894e+01
-2.106078e-03 9.474124e-04 2.798895e+01
-2.447249e-03 1.063660e-03 2.798888e+01
-2.448183e-03 1.065595e-03 2.798887e+01
-2.506071e-03 1.343885e-03 2.798872e+01
-2.508186e-03 1.343268e-03 2.798872e+01
-2.654314e-03 1.587335e-03 2.798854e+01
-2.632070e-03 1.597336e-03 2.798854e+01
-2.455611e-03 2.080967e-03 2.798819e+01
-2.432830e-03 2.091562e-03 2.798820e+01
-2.283391e-03 2.574133e-03 2.798763e+01
-2.272810e-03 2.586232e-03 2.798765e+01
-1.564129e-03 4.353236e-03 2.798639e+01
-1.531411e-03 4.381789e-03 2.798642e+01
-3.913605e-04 4.170368e-03 2.798293e+01
-3.469015e-04 4.237741e-03 2.798290e+01
7.063126e-04 6.568687e-03 2.797776e+01
7.866409e-04 6.601958e-03 2.797790e+01
5.548538e-03 1.230939e-02 2.797927e+01
5.608407e-03 1.225112e-02 2.797929e+01
4.144532e-03 6.062307e-03 2.799919e+01
3.961055e-03 5.845903e-03 2.799910e+01
-2.574128e-02 1.671590e-02 2.804617e+01
-2.632062e-02 1.635745e-02 2.804678e+01
-7.608464e-02 8.251407e-02 2.807612e+01
-7.651030e-02 8.220528e-02 2.807696e+01
-1.002833e-01 1.341634e-01 2.804885e+01
-1.001924e-01 1.341410e-01 2.804872e+01
-9.086293e-02 8.929547e-02 2.800399e+01
-9.068001e-02 8.967755e-02 2.800290e+01
-7.366432e-02 -6.708542e-03 2.792300e+01
-7.373688e-02 -5.771088e-03 2.792111e+01
-5.311683e-02 -1.775217e-01 2.776346e+01
-5.354020e-02 -1.754882e-01 2.776038e+01
-2.809917e-02 -4.334882e-01 2.748714e+01
-2.907056e-02 -4.284581e-01 2.748220e+01
5.645680e-02 -7.967940e-01 2.701232e+01
6.006694e-02 -7.890651e-01 2.700930e+01
2.933035e-01 -8.162317e-01 2.621561e+01
3.135716e-01 -8.040742e-01 2.621483e+01
5.961370e-01 -4.452013e-01 2.526719e+01
6.286978e-01 -4.371755e-01 2.526883e+01
6.795347e-01 1.530983e-01 2.493657e+01
7.339294e-01 1.558263e-01 2.493244e+01
4.793698e-01 6.489143e-01 2.507096e+01
5.110917e-01 6.415294e-01 2.507506e+01
2.116700e-01 7.634231e-01 2.628324e+01
2.290349e-01 7.433028e-01 2.628272e+01
1.509876e-01 5.828930e-01 2.731073e+01
1.541471e-01 5.735973e-01 2.730487e+01
1.576613e-01 2.279809e-01 2.763274e+01
1.600669e-01 2.248819e-01 2.762948e+01
1.134093e-01 1.240010e-01 2.778994e+01
1.145719e-01 1.227613e-01 2.778826e+01
8.172052e-02 -1.040769e-02 2.788076e+01
8.256435e-02 -1.100832e-02 2.787940e+01
6.490524e-02 -4.510929e-02 2.796725e+01
6.520547e-02 -4.562123e-02 2.796668e+01
5.255069e-02 -8.759671e-02 2.804328e+01
5.285719e-02 -8.806323e-02 2.804343e+01
6.018253e-02 -2.907442e-03 2.812212e+01
5.963079e-02 -3.343987e-03 2.812360e+01
0.000000e+00 0.000000e+00 0.000000e+00
0.000000e+00 0.000000e+00 0.000000e+00
0.000000e+00 0.000000e+00 0.000000e+00
0.000000e+00 0.000000e+00 0.000000e+00
0.000000e+00 0.000000e+00 0.000000e+00
0.000000e+00 0.000000e+00 0.000000e+00
3.375583e-04 1.140949e-04 1.360756e-03
-2.258812e-04 -3.321227e-04 1.062891e-03
8.802248e-05 9.926421e-05 6.361607e-04
-7.626442e-05 -3.192304e-06 -1.560416e-04
-8.414823e-04 -3.739500e-04 -5.766299e-04
-1.492344e-03 -2.292504e-04 -7.669980e-04
1.560511e-03 3.818644e-05 1.182700e-03
2.973176e-04 -2.599557e-04 1.659391e-03
6.128118e-04 -1.094508e-04 8.545416e-04
1.750248e-04 -6.509593e-05 -5.587547e-05
-1.265316e-03 -2.762843e-04 -9.771614e-04
-2.858223e-03 -4.447190e-04 -1.519998e-03
2.337396e-03 -2.366065e-05 1.460227e-03
9.447740e-04 -3.791818e-04 1.925121e-03
8.222661e-04 -1.755402e-04 1.197332e-03
2.372800e-04 -1.484605e-05 1.550568e-04
-1.579296e-03 5.676456e-06 -1.112167e-03
-3.685801e-03 -9.498093e-05 -1.612817e-03
2.301390e-03 8.458022e-05 1.587481e-03
9.199736e-04 -1.589079e-04 2.390549e-03
8.703423e-04 -2.009419e-04 9.873659e-04
1.352138e-04 1.718840e-04 3.192060e-04
-1.840115e-03 3.874022e-04 -9.059475e-04
-3.813845e-03 3.449671e-04 -1.540993e-03
2.158929e-03 -1.286214e-04 1.570844e-03
1.072096e-03 6.889471e-07 1.664727e-03
5.145861e-04 -4.131864e-05 1.062180e-03
-1.835418e-04 2.365738e-04 1.429031e-04
-1.772036e-03 7.261773e-04 -8.093703e-04
-3.799157e-03 9.640720e-04 -1.199629e-03
2.210846e-03 -1.859885e-04 6.648550e-04
7.077909e-04 1.699122e-04 1.067960e-03
3.809649e-04 -1.759985e-04 5.229418e-04
-4.175633e-04 3.515685e-04 -1.724368e-04
-1.852127e-03 9.973883e-04 -6.306100e-04
-3.199565e-03 1.380091e-03 -1.143549e-03
1.705131e-03 -1.014150e-03 3.516848e-04
4.870221e-04 -1.757088e-04 1.840251e-04
3.184388e-05 -2.782743e-04 2.101298e-04
-6.658405e-04 3.979177e-04 -3.549404e-04
-1.738771e-03 1.355338e-03 -5.816468e-04
-2.548706e-03 1.415771e-03 -1.055363e-03
4.459560e-04 -8.753186e-04 -2.173363e-04
1.607435e-04 -6.383616e-04 -1.752626e-04
-3.767617e-04 -1.850496e-04 -1.551522e-04
-8.404963e-04 4.332297e-04 -3.650703e-04
-1.393376e-03 1.210150e-03 -6.550966e-04
-2.188160e-03 1.668030e-03 -6.430624e-04
-8.561837e-05 -1.232722e-03 -5.841322e-04
-3.644359e-04 -8.903899e-04 -4.861338e-04
-5.648927e-04 -4.424950e-04 -5.475838e-04
-9.561527e-04 4.361896e-04 -6.325459e-04
-1.442549e-03 1.198707e-03 -6.426351e-04
-1.802554e-03 1.492241e-03 -6.390781e-04
-6.459750e-04 -1.360485e-03 -8.818104e-04
-8.061150e-04 -1.018934e-03 -9.979118e-04
-9.921403e-04 -4.243691e-04 -1.146086e-03
-1.259982e-03 3.731272e-04 -1.140970e-03
-1.566375e-03 1.040508e-03 -1.005524e-03
-1.849245e-03 1.403525e-03 -8.928679e-04
0.000000e+00 0.000000e+00 0.000000e+00
0.000000e+00 0.000000e+00 0.000000e+00
0.000000e+00 0.000000e+00 0.000000e+00
0.000000e+00 0.000000e+00 0.000000e+00
0.000000e+00 0.000000e+00 0.000000e+00
0.000000e+00 0.000000e+00 0.000000e+00
5.414730e-04 4.655166e-04 8.448076e-04
2.758373e-04 -2.517196e-04 4.421260e-04
4.776201e-04 -2.241117e-04 6.848592e-04
4.642158e-04 -6.324604e-05 7.380127e-04
-2.780856e-04 1.368890e-04 3.578276e-04
-1.028657e-03 7.492513e-05 -8.810818e-05
1.163855e-03 3.042718e-04 1.215369e-03
6.965199e-04 -4.229247e-04 1.066360e-03
8.737687e-04 -3.738808e-04 9.613207e-04
7.896286e-04 6.804473e-05 1.093020e-03
-8.718489e-04 -2.264430e-05 6.948278e-04
-2.197707e-03 2.678566e-04 -1.221831e-04
1.963532e-03 4.648903e-04 1.731812e-03
1.151672e-03 -2.623276e-04 9.632745e-04
1.078646e-03 -1.469016e-04 1.274613e-03
8.017521e-04 1.370779e-04 1.118048e-03
-1.355151e-03 3.400364e-04 1.144281e-03
-2.808048e-03 1.409777e-04 -1.852775e-05
2.201543e-03 1.159512e-04 1.686969e-03
1.141872e-03 3.635537e-05 9.537731e-04
8.776111e-04 8.467811e-05 1.354902e-03
6.984541e-04 3.245329e-04 1.249987e-03
-1.545867e-03 4.231901e-04 1.229850e-03
-3.232650e-03 4.610784e-04 3.272326e-04
2.216820e-03 -4.810796e-04 1.598747e-03
1.397781e-03 4.620371e-04 1.154296e-03
8.140845e-04 1.703132e-04 1.074224e-03
2.499616e-04 3.416537e-04 1.134496e-03
-1.745180e-03 7.403817e-04 1.276843e-03
-3.147707e-03 7.021415e-04 1.346152e-04
1.948113e-03 -6.043703e-04 1.352138e-03
1.497071e-03 6.831179e-06 8.555708e-04
4.124621e-04 3.478849e-04 8.798347e-04
-1.516495e-04 3.608499e-04 1.226352e-03
-1.523381e-03 1.023687e-03 7.495512e-04
-3.050221e-03 1.077306e-03 2.945246e-04
1.474328e-03 -4.527688e-04 1.578610e-04
7.077944e-04 3.721278e-05 8.943020e-04
3.361355e-04 1.490950e-04 6.589863e-04
-4.857091e-04 5.482300e-04 8.582237e-04
-1.424273e-03 9.206259e-04 4.419008e-04
-2.479794e-03 1.543271e-03 2.649257e-04
9.510603e-04 -9.205902e-04 4.005298e-04
1.798168e-04 -2.221046e-04 3.259488e-04
-6.471530e-05 -7.416997e-05 5.109039e-04
-6.668752e-04 5.279530e-04 2.305779e-04
-1.444312e-03 1.299798e-03 2.974420e-04
-1.787972e-03 1.436435e-03 -1.762621e-04
-5.938425e-06 -8.245370e-04 -1.680043e-04
-2.154649e-04 -4.953941e-04 -1.997480e-04
-5.586311e-04 1.751489e-05 -1.391554e-04
-9.421960e-04 6.883823e-04 -6.739924e-05
-1.326939e-03 1.264376e-03 -2.031997e-04
-1.683567e-03 1.632709e-03 -3.028052e-04
-4.114830e-04 -1.008265e-03 -6.112743e-04
-5.987528e-04 -5.641700e-04 -7.230730e-04
-8.133720e-04 -1.121627e-04 -8.065700e-04
-1.213232e-03 6.067936e-04 -7.883576e-04
-1.579362e-03 1.263424e-03 -6.371319e-04
-1.799322e-03 1.555755e-03 -6.003350e-04
0.000000e+00 0.000000e+00 0.000000e+00
0.000000e+00 0.000000e+00 0.000000e+00
0.000000e+00 0.000000e+00 0.000000e+00
0.000000e+00 0.000000e+00 0.000000e+00
0.000000e+00 0.000000e+00 0.000000e+00
0.000000e+00 0.000000e+00 0.000000e+00
1.590137e-05 3.351848e-04 -3.241229e-04
7.333090e-05 3.927256e-05 2.179221e-04
5.094281e-04 -6.924372e-05 6.519274e-04
6.237788e-04 -2.547972e-05 7.883015e-04
-1.850950e-04 6.877356e-05 7.983149e-04
-2.482338e-04 1.636609e-04 -7.226056e-05
5.588369e-04 1.463369e-03 -1.014618e-03
4.790890e-04 1.726332e-04 -3.843464e-04
4.662131e-05 -3.545953e-04 7.314634e-04
5.231301e-04 2.522598e-04 1.338976e-03
-4.113371e-04 4.544218e-04 1.026068e-03
-1.030564e-03 1.460566e-04 2.572659e-04
-2.552586e-04 5.860883e-05 -3.483422e-03
1.155646e-03 8.360139e-04 2.609442e-04
6.903749e-05 -7.439750e-05 -3.422004e-04
1.465585e-04 2.285273e-04 1.281360e-03
-7.944351e-04 5.384945e-04 1.373303e-03
-1.909039e-03 2.591912e-04 6.033338e-04
9.891944e-04 8.260396e-04 -1.150015e-03
2.325202e-03 -1.901504e-04 -8.406494e-04
-4.428021e-05 2.788538e-04 -6.339351e-05
-1.469594e-04 1.419431e-04 1.319824e-03
-1.158505e-03 6.109884e-04 1.518781e-03
-2.349413e-03 4.874561e-04 9.203195e-04
1.354565e-03 1.328764e-04 -2.273478e-03
1.111373e-03 -3.972473e-04 8.440140e-04
3.479597e-05 1.190421e-04 4.047906e-04
-3.844380e-04 5.431503e-04 1.903737e-03
-1.170694e-03 3.387543e-04 1.635580e-03
-2.554746e-03 8.523940e-04 1.191850e-03
2.369906e-03 -1.054544e-03 1.421706e-03
9.189888e-04 8.123769e-04 1.105672e-03
5.387997e-04 2.997569e-04 2.005804e-03
3.155347e-05 6.660997e-05 1.302632e-03
-1.685996e-03 6.146566e-04 1.842971e-03
-2.057722e-03 1.000735e-03 8.038965e-04
1.606474e-03 -8.421216e-05 2.385638e-03
1.490623e-03 -9.214861e-05 1.455172e-03
3.032782e-04 2.265742e-04 1.613649e-03
-3.422211e-04 1.939864e-05 1.482297e-03
-1.539137e-03 1.023976e-03 1.340067e-03
-1.905618e-03 1.288855e-03 6.624870e-04
8.709063e-04 -7.237111e-04 6.649211e-04
3.777605e-04 -1.240559e-04 1.298944e-03
-1.662831e-04 4.373853e-05 1.041907e-03
-8.802048e-04 6.061531e-04 1.298840e-03
-1.164893e-03 1.072381e-03 7.015635e-04
-1.767700e-03 1.793206e-03 4.465991e-04
2.219320e-04 -1.056840e-03 4.651813e-04
-2.822537e-04 -2.636103e-04 3.085336e-04
-5.105972e-04 1.063504e-04 5.006766e-04
-9.483538e-04 7.559708e-04 2.600351e-04
-1.394653e-03 1.514362e-03 2.174607e-04
-1.378778e-03 1.870855e-03 -1.713101e-04
-1.874866e-04 -9.230247e-04 -3.212320e-04
-2.621675e-04 -4.874615e-04 -4.000017e-04
-6.992814e-04 6.879689e-05 -5.409818e-04
-1.141975e-03 8.439887e-04 -4.564939e-04
-1.437355e-03 1.428557e-03 -4.882257e-04
-1.563325e-03 1.912462e-03 -5.291513e-04
0.000000e+00 0.000000e+00 0.000000e+00
0.000000e+00 0.000000e+00 0.000000e+00
0.000000e+00 0.000000e+00 0.000000e+00
0.000000e+00 0.000000e+00 0.000000e+00
0.000000e+00 0.000000e+00 0.000000e+00
0.000000e+00 0.000000e+00 0.000000e+00
-2.275805e-03 -9.309438e-04 -7.916397e-04
5.994766e-04 8.554750e-04 1.328078e-04
2.993582e-04 -8.667056e-04 -5.769962e-04
4.594311e-04 -5.173057e-05 6.751100e-04
3.513198e-04 7.466031e-05 2.261157e-04
-3.467221e-05 3.627238e-04 -3.224573e-04
-2.973629e-03 1.337127e-03 -7.549897e-04
-3.593539e-04 6.952895e-04 -8.452484e-05
-6.806388e-04 -1.211946e-03 9.816978e-04
6.135095e-04 -5.985825e-04 8.954665e-04
2.799729e-04 3.476904e-04 1.046013e-04
-4.416020e-04 3.593743e-04 -3.753712e-04
8.716898e-04 8.126895e-04 8.634703e-04
2.722254e-03 1.315709e-04 -6.753290e-04
-2.267199e-03 -2.143086e-03 6.328460e-04
-1.139782e-04 3.631489e-04 1.434300e-03
-2.941199e-04 2.672581e-04 4.833605e-04
-9.221301e-04 2.894134e-04 -3.119525e-04
1.307240e-04 -2.007971e-03 -1.818011e-05
1.009055e-03 -2.549968e-04 4.133463e-04
-2.611889e-03 4.454912e-04 2.056938e-03
-1.868797e-04 4.572627e-05 9.148741e-04
-9.202145e-04 5.273536e-04 1.207221e-03
-1.292254e-03 9.088947e-05 2.271487e-04
-1.695582e-03 2.507939e-03 3.904201e-03
1.932285e-03 -5.472349e-04 1.126439e-03
-9.764178e-04 2.335555e-03 1.987571e-03
1.111992e-05 -4.842197e-04 1.868601e-03
-8.926092e-04 4.066931e-04 1.296078e-03
-1.967206e-03 2.103074e-04 1.065523e-03
-1.646502e-04 1.798485e-03 -8.036301e-04
1.509459e-03 3.593498e-04 3.126169e-03
9.669642e-04 1.622289e-04 8.517500e-04
-7.715050e-04 5.440306e-04 2.606331e-03
-5.877909e-04 -1.137489e-04 1.630198e-03
-2.271274e-03 5.641852e-04 1.336546e-03
3.244167e-03 -2.140880e-04 2.320270e-03
1.393659e-03 5.373465e-04 1.809084e-03
5.691345e-04 4.494045e-04 2.349796e-03
-3.462059e-04 -7.473604e-05 1.995432e-03
-1.189907e-03 3.421794e-04 1.733918e-03
-1.833386e-03 8.904048e-04 9.592815e-04
1.664442e-03 -7.121077e-04 1.935510e-03
8.520449e-04 -1.430239e-04 1.783650e-03
-1.157399e-04 2.902365e-05 1.962609e-03
-6.894578e-04 4.076503e-05 1.587945e-03
-1.524002e-03 8.948918e-04 1.109662e-03
-1.418573e-03 1.625949e-03 5.642301e-04
6.548373e-05 -1.636703e-03 7.557100e-04
-7.859160e-05 -5.314572e-04 9.004407e-04
-5.748261e-04 -1.904357e-04 8.072692e-04
-1.146761e-03 6.272009e-04 6.083898e-04
-1.257922e-03 1.411864e-03 2.607167e-04
-1.332428e-03 1.929917e-03 -6.306070e-05
1.323132e-04 -1.700635e-03 -2.889294e-04
-6.941755e-05 -7.678073e-04 -3.677295e-04
-4.786497e-04 -1.202036e-04 -4.512409e-04
-9.652397e-04 7.760809e-04 -5.007887e-04
-1.308099e-03 1.521686e-03 -5.837373e-04
-1.165721e-03 2.046023e-03 -7.220056e-04
0.000000e+00 0.000000e+00 0.000000e+00
0.000000e+00 0.000000e+00 0.000000e+00
0.000000e+00 0.000000e+00 0.000000e+00
0.000000e+00 0.000000e+00 0.000000e+00
0.000000e+00 0.000000e+00 0.000000e+00
0.000000e+00 0.000000e+00 0.000000e+00
-3.235045e-03 9.128605e-04 -1.539190e-03
-6.755960e-04 1.775696e-03 -2.842665e-03
9.013209e-04 -1.974289e-03 -1.251866e-03
1.293109e-03 -1.189045e-03 1.397236e-04
4.401109e-04 1.239294e-04 7.088886e-04
-2.503213e-04 1.485278e-04 6.738824e-04
-1.700771e-03 9.072867e-04 2.568612e-03
6.093580e-04 7.738177e-04 1.169276e-03
-1.291332e-03 -2.922857e-03 1.992840e-03
6.695888e-04 -1.833496e-03 1.039073e-03
1.495977e-03 1.287728e-05 5.438379e-04
-7.647408e-04 3.656291e-04 4.658235e-04
6.021879e-03 2.742197e-03 2.776652e-03
6.868478e-04 -1.334414e-03 1.051220e-03
-3.937026e-03 -7.263217e-04 2.604978e-03
-1.226067e-03 -7.623279e-04 2.881130e-03
1.990126e-03 -9.684669e-05 8.314358e-04
-1.607404e-03 -1.410262e-05 3.320766e-04
-9.918563e-04 2.477578e-04 1.938115e-03
1.012022e-04 1.258599e-03 6.797764e-03
-2.636676e-03 -2.902425e-04 1.696814e-03
-2.055137e-03 4.226122e-04 2.545264e-03
1.593719e-03 1.618783e-04 2.048842e-03
-2.302073e-03 -3.647553e-04 1.249783e-03
5.464608e-03 -2.368457e-03 5.971796e-03
7.997271e-04 -6.130850e-04 -2.736787e-04
-1.000002e-03 1.616518e-03 2.778220e-03
-9.582326e-04 7.868671e-04 2.444728e-03
2.535484e-04 3.405841e-04 2.505939e-03
-2.290021e-03 -5.048523e-04 2.151110e-03
-1.482907e-03 1.422537e-03 3.147818e-03
9.595844e-04 -1.482055e-03 9.631006e-04
-2.257324e-05 2.757400e-03 3.015356e-03
8.084493e-04 5.750335e-04 2.330828e-03
-8.477012e-04 -1.997255e-04 2.566954e-03
-2.319252e-03 2.630505e-04 2.869403e-03
2.038619e-03 1.856910e-04 3.090271e-04
1.736234e-03 8.712629e-04 2.523927e-03
1.495717e-03 4.614216e-04 1.951467e-03
-3.463518e-04 2.343055e-04 2.687851e-03
-1.121635e-03 -8.458079e-07 2.605576e-03
-1.952417e-03 8.928477e-04 2.119783e-03
2.794773e-03 -6.290287e-04 2.506126e-03
1.388972e-03 2.806724e-04 2.733237e-03
1.831616e-04 1.054602e-04 2.528564e-03
-9.447839e-04 1.573095e-04 2.288372e-03
-1.238169e-03 7.599146e-04 1.660505e-03
-1.623170e-03 1.361496e-03 9.189534e-04
6.598657e-04 -1.637005e-03 1.333897e-03
3.959939e-04 -3.130909e-04 1.291747e-03
-3.834831e-04 2.152665e-05 1.194105e-03
-9.996786e-04 5.705405e-04 9.300937e-04
-1.330914e-03 1.209421e-03 3.131973e-04
-1.304114e-03 1.925056e-03 5.338789e-05
-1.726827e-04 -1.892126e-03 -5.331064e-04
-1.356671e-04 -5.183001e-04 -4.938520e-04
-5.500643e-04 7.982038e-06 -3.620228e-04
-9.766361e-04 8.356447e-04 -5.762832e-04
-1.138655e-03 1.536640e-03 -6.117502e-04
-1.007190e-03 2.003052e-03 -8.041934e-04
0.000000e+00 0.000000e+00 0.000000e+00
0.000000e+00 0.000000e+00 0.000000e+00
0.000000e+00 0.000000e+00 0.000000e+00
0.000000e+00 0.000000e+00 0.000000e+00
0.000000e+00 0.000000e+00 0.000000e+00
0.000000e+00 0.000000e+00 0.000000e+00
-4.592719e-03 -1.451270e-03 -9.367855e-03
-3.614134e-03 3.564979e-04 -5.363377e-03
2.184797e-03 -8.814358e-04 -4.574927e-03
-7.937266e-05 -8.205222e-04 -1.013146e-03
2.161876e-04 4.734101e-04 1.426319e-03
-1.214098e-03 -6.707070e-05 1.970919e-03
4.888169e-03 -9.597907e-03 -1.029452e-03
1.814571e-03 -1.097910e-03 4.780755e-03
1.757684e-03 -8.464458e-04 2.346319e-03
-1.297880e-04 -1.673402e-03 -1.402827e-03
7.553779e-04 4.801933e-04 8.216391e-04
-1.780155e-03 4.820606e-04 2.671848e-03
9.573163e-03 -1.722896e-03 3.236794e-02
1.949357e-04 -2.252044e-03 1.238157e-02
-3.198112e-05 -1.350087e-03 6.337568e-03
-3.430085e-04 -1.022940e-03 3.095598e-04
9.251352e-04 7.815647e-04 4.398289e-04
-2.823004e-03 1.062256e-04 3.768062e-03
4.232607e-03 7.538512e-03 2.593599e-02
8.258174e-03 -5.804517e-04 1.531426e-02
-1.628683e-03 -4.275820e-04 6.701259e-03
-1.978606e-03 1.328721e-03 8.330132e-04
6.552006e-04 -2.632512e-06 1.281757e-03
-3.477752e-03 -1.936859e-04 4.823453e-03
6.738787e-03 4.392545e-03 -7.872840e-03
-7.805330e-03 1.851267e-03 3.286065e-03
3.424549e-03 1.428231e-03 4.638536e-03
-7.360582e-04 6.032154e-04 8.570487e-04
-5.996088e-04 -3.658088e-04 2.882773e-03
-3.495197e-03 -1.603880e-04 4.959822e-03
1.995690e-03 7.072828e-04 -2.471238e-04
1.186230e-03 1.173948e-04 3.147105e-03
3.037696e-03 -4.984082e-04 9.711988e-04
-1.420148e-03 -7.150205e-05 1.964352e-03
-8.741237e-04 -1.130637e-04 3.701171e-03
-3.275584e-03 1.600258e-05 4.061327e-03
7.253357e-04 -1.998493e-03 4.615626e-03
2.599872e-03 -1.962240e-03 1.604063e-03
-8.892226e-04 1.460012e-04 1.913127e-03
-4.229081e-07 4.194732e-04 3.576945e-03
-1.085999e-03 -1.463317e-04 3.244997e-03
-2.708378e-03 8.604994e-04 3.132074e-03
3.257711e-03 -1.328147e-03 4.088675e-03
1.375750e-03 7.197815e-05 3.359323e-03
4.807087e-04 4.939857e-04 3.628611e-03
-4.767196e-04 2.742511e-04 2.972629e-03
-1.520420e-03 5.747265e-04 2.187693e-03
-1.658959e-03 1.664310e-03 1.812142e-03
8.186995e-04 -7.739188e-04 1.641585e-03
4.853121e-04 6.403482e-04 1.966677e-03
-2.556538e-04 3.590678e-04 1.742282e-03
-1.011600e-03 8.359020e-04 1.264536e-03
-1.110678e-03 1.331231e-03 7.192854e-04
-1.272772e-03 1.857972e-03 1.996178e-04
-4.088908e-04 -7.971349e-04 -8.290073e-04
-2.874097e-04 4.261141e-04 -3.136319e-04
-6.645376e-04 6.985066e-04 1.939581e-05
-8.197373e-04 1.180040e-03 -1.183511e-04
-1.018722e-03 1.478947e-03 -4.903086e-04
-1.043601e-03 2.069613e-03 -6.180447e-04
SCALARS Vx float 1
LOOKUP_TABLE default
2.085175e+02
2.026501e+02
1.934044e+02
1.844519e+02
2.194771e+02
2.038107e+02
1.911285e+02
1.916699e+02
1.879109e+02
7.351371e+01
1.828475e+02
8.146354e+01
9.119283e+01
7.660056e+01
8.407826e+01
8.113703e+01
1.706385e+02
1.731041e+02
6.066297e+01
6.293809e+01
6.390628e+01
3.586831e+01
5.890750e+01
6.740154e+01
5.502959e+01
3.891334e+01
6.319369e+01
7.091545e+01
5.935231e+01
7.509332e+01
6.592474e+01
5.975185e+01
6.802593e+01
5.614852e+01
5.109557e+01
4.801298e+01
3.181508e+01
6.483087e+01
4.722682e+01
2.860115e+01
6.225985e+01
4.537646e+01
4.104051e+01
2.910936e+01
3.451216e+01
3.713535e+01
4.077497e+01
3.337379e+01
4.520818e+01
3.775310e+01
5.345237e+01
6.275319e+01
1.346075e+01
1.014434e+01
1.700771e+01
1.631465e+01
1.419206e+01
1.078324e+01
1.766302e+01
1.446750e+01
2.590232e+01
3.708226e+01
2.561010e+01
3.119726e+01
3.369800e+01
1.436246e+01
3.133102e+01
1.334768e+01
1.485002e+01
1.776661e+01
3.760089e+01
1.934379e+01
4.360426e+01
4.974354e+01
4.188576e+01
1.893891e+01
3.738935e+01
4.182967e+01
2.220037e+01
2.562943e+01
4.233033e+01
4.197077e+01
5.155781e+00
7.880371e+00
1.435847e+01
1.404149e+01
9.211495e+00
3.500484e+00
1.631999e+01
1.720127e+01
1.550506e+01
1.315334e+01
1.406875e+01
1.369789e+01
6.561139e+00
1.008714e-01
2.065162e+01
1.722439e+01
6.176302e+00
-7.953044e-01
1.312431e+01
2.318677e+01
3.588101e+00
1.155017e+01
7.512840e+00
1.146559e+01
2.270130e+01
2.381900e+01
1.980147e+01
2.686375e+01
3.032992e+01
3.046226e+01
8.401926e+00
1.573950e+01
1.847705e+01
1.339796e+01
3.293785e+00
1.715318e+01
1.800216e+01
1.074992e+01
1.093985e+01
2.080260e+01
1.747886e+01
1.953933e+01
1.650918e+01
1.863364e+01
2.122351e+01
1.597102e+01
1.564023e+01
2.074391e+01
5.102502e+01
7.141399e+01
9.666377e+01
3.539820e+01
5.357252e+01
7.092219e+01
9.394509e+01
3.094781e+01
1.405729e+02
1.597682e+02
1.336701e+02
1.661729e+02
9.683099e+01
6.893384e+01
1.014527e+02
6.278621e+01
5.070472e+01
4.727803e+01
5.291171e+01
6.127788e+01
6.328094e+01
5.103140e+01
6.727785e+01
6.611408e+01
6.182553e+01
5.968130e+01
5.146885e+01
6.297950e+01
8.183788e+01
8.053306e+01
6.676077e+01
6.324425e+01
5.700165e+01
4.853859e+01
5.376017e+01
6.210247e+01
4.062620e+01
5.755869e+01
1.372400e+02
1.068184e+02
3.061481e+01
6.219669e+01
1.380187e+02
1.010742e+02
1.284786e+02
1.151084e+02
6.483355e+01
4.545772e+01
3.860242e+01
4.826653e+01
6.379344e+01
5.084352e+01
3.853257e+01
4.210788e+01
1.564262e+01
2.104794e+01
1.749394e+01
1.863182e+01
4.047050e+01
3.832184e+01
4.585581e+01
4.150000e+01
5.401553e+01
5.085391e+01
5.949914e+01
6.523733e+01
7.095639e+01
6.042188e+01
6.576189e+01
5.992960e+01
9.607776e+01
9.737111e+01
1.216701e+02
9.397932e+01
1.200708e+02
9.440415e+01
5.970013e+01
6.120737e+01
4.052287e+01
5.478821e+01
3.116410e+01
6.171367e+01
2.906425e+01
5.847968e+01
3.683798e+01
5.377659e+01
4.584015e+01
5.281625e+01
5.296311e+01
3.944034e+01
2.142091e+01
1.116507e+00
1.389228e+00
-2.237173e-01
2.549965e+01
1.281963e+01
2.780350e+01
1.157186e+01
1.002175e+01
1.662715e+01
1.498640e+01
2.895175e+01
1.193491e+01
2.885245e+01
-1.048915e+01
-3.901022e+00
7.406117e+00
1.326586e+01
-7.500609e-01
-7.159201e+00
1.360281e+01
1.094038e+01
-4.698391e+00
8.722262e+00
-4.348349e+00
5.969370e+00
8.870673e+00
1.437864e+01
1.140766e+01
1.219582e+01
4.041421e+00
3.321430e+00
-8.572703e-01
3.259393e+00
4.836908e+00
4.994086e+00
3.203653e+00
5.907506e+00
5.154973e+00
6.491339e+00
5.564363e+00
1.808136e+00
-6.778946e+00
3.547098e+00
-3.023672e+00
1.799705e+00
6.281031e+00
9.283923e+00
1.329063e+01
1.178152e+01
1.627361e+01
6.867086e+00
1.110894e+01
9.724655e+00
4.952353e+00
2.854077e+00
1.584169e+01
-1.713278e+00
4.585776e+00
9.723647e+00
1.042519e+01
-5.679233e+00
8.273044e+00
8.917727e+00
3.962100e+00
3.313971e+00
5.663911e+00
9.120282e+00
2.254702e+00
5.291930e+00
1.955968e+01
8.526168e+00
2.071207e+00
1.036659e+01
1.350318e+01
1.044659e+01
1.594071e+01
1.715159e+01
8.229041e+00
2.140213e+01
1.412270e+01
1.632066e+01
2.885443e-01
2.075863e+01
1.447918e+01
2.058545e+01
1.832851e+01
2.271657e+01
6.210265e+00
1.361199e+01
1.577374e+01
1.278058e+01
5.071116e+01
5.272282e+01
5.304078e+01
4.964449e+01
5.275203e+01
5.639577e+01
2.705969e+01
1.970665e+01
2.334329e+01
2.595983e+01
2.169303e+01
1.646183e+01
1.628379e+01
2.058235e+01
1.759690e+01
1.640249e+01
1.659173e+01
1.719198e+01
2.090904e+01
2.081779e+01
-5.940550e+00
5.467756e+00
4.384978e+00
6.002357e+00
-2.038985e+00
3.949982e+00
8.924495e+00
3.360030e+00
1.264423e+00
-2.581913e+00
4.416378e+00
5.449678e+00
7.853160e+01
7.439107e+01
2.449848e+01
5.406872e+01
8.028707e+01
6.660510e+01
3.297439e+01
5.102706e+01
3.794353e+01
3.700365e+01
1.874416e+01
1.435996e+01
1.524435e+01
1.619391e+01
8.803054e+01
6.137496e+01
8.211191e+01
6.195355e+01
1.573440e+02
1.642732e+02
1.206880e+02
1.163805e+02
7.705113e+01
5.910746e+01
8.007008e+01
5.644450e+01
-1.775068e-01
-2.677339e+00
-5.708202e+00
-1.999671e+00
-4.614428e+00
-9.371153e+00
2.200907e+00
7.341653e+00
6.741318e+00
5.310265e+00
8.115153e+00
7.394723e+00
1.689068e+02
1.431723e+02
1.394209e+02
1.411796e+02
1.681023e+02
1.354583e+02
1.339874e+02
1.407275e+02
-2.526472e+00
2.691705e+00
-5.177489e+00
-4.871354e+00
1.909288e+02
1.507013e+02
1.839520e+02
1.503106e+02
7.692508e+01
8.186878e+01
8.193645e+01
9.075749e+01
1.813788e+01
1.732703e+01
1.348525e+01
1.292337e+01
1.839890e+00
5.597863e+00
2.993436e+00
6.788700e+00
-1.788014e-02
2.919720e+00
-1.054444e+00
6.581871e+00
1.489014e+00
6.678915e+00
-5.806068e+00
-1.084005e+01
4.330189e+00
2.263756e+00
-3.295498e-01
2.026399e+00
-5.803413e+00
-2.573707e+00
-4.081265e+00
-9.561908e-01
1.694850e-01
-3.626860e+00
8.361766e+00
7.369034e+00
-5.654331e-01
-4.481744e+00
-5.727084e+00
-1.842003e+00
3.287228e+00
2.373410e+00
7.121120e+00
8.830769e+00
9.834356e+00
7.481076e+00
6.458514e+00
7.741736e+00
3.666648e+00
4.780201e+00
1.668469e+00
3.222488e+00
3.452450e+00
2.479726e+00
1.903472e+00
3.859559e+00
3.606162e-01
1.037654e+01
-1.459147e-01
1.040858e+01
4.250428e+00
4.449365e+00
2.336891e+00
1.446082e+00
1.118513e+00
2.655119e+00
-4.962554e+00
2.011320e-01
-4.187523e+00
-6.326204e+00
-5.276502e+00
-2.719749e+00
-4.226025e+00
-2.811878e+00
-7.024407e+00
6.338052e-01
-8.297560e+00
-5.705689e+00
1.135030e+00
-7.838388e+00
2.617233e+00
-2.908096e+00
1.499059e+00
-7.085624e+00
8.878113e+00
5.870509e+00
7.625222e+00
9.019843e+00
7.866909e+00
9.654126e-01
5.211616e+00
1.766474e+00
4.582195e+00
4.527289e+00
2.487507e+00
7.952816e-01
-4.063253e+00
6.099255e+00
-5.388125e-01
6.306697e+00
1.274123e+00
-6.017589e+00
2.757801e-01
-8.169455e+00
7.911402e+00
6.025857e+00
9.722562e-01
5.342086e+00
1.693749e+00
3.024140e+00
-6.016956e+00
-1.213888e+01
1.554135e+00
1.820345e+00
-5.706516e+00
-3.709327e+00
-5.622269e+00
6.883864e+00
-1.852793e+00
7.811580e+00
-4.878353e+00
-3.991826e+00
5.851678e+00
2.078293e+00
5.233955e+00
-1.869361e+00
5.069716e+00
-6.052151e+00
2.685709e+00
6.959378e-01
2.948750e-01
9.081028e-01
-4.436188e-01
1.814945e+00
-1.380743e+00
5.530478e+00
4.997092e+00
4.940274e+00
-8.145815e+00
1.808933e+00
-1.307425e+00
-1.279697e+00
-4.730934e+00
-8.099423e-01
-1.064749e+00
1.175659e+00
2.836058e+00
-1.621364e+00
-1.297716e-01
6.122796e-01
1.556787e+00
-4.545781e-01
1.635698e+00
-4.982193e+00
-3.466677e+00
3.133604e+00
3.263903e-01
4.025724e+00
1.417423e+00
1.037213e-01
7.000990e-01
8.331192e-01
-1.931220e-01
-2.580015e+00
4.837377e-01
3.415584e+00
2.205098e+00
4.289203e+00
5.675931e+00
3.312596e+00
6.984458e+00
4.348558e+00
7.536897e-01
2.671737e+00
2.201413e+00
3.311399e+00
-6.458014e-01
2.725112e+00
1.788821e+00
2.480803e+00
-6.731932e+00
-4.894570e+00
-7.264416e+00
-6.345426e+00
-1.065535e+01
-5.665422e+00
-5.904800e+00
-5.263009e+00
-5.525980e+00
1.135424e+00
-4.978147e+00
-3.815265e+00
-3.275399e-01
4.666003e-01
-3.216828e+00
-6.683712e+00
-8.131160e+00
-5.863276e+00
1.437544e+00
5.595922e+00
-1.461450e+00
-2.447658e+00
2.031708e+00
-1.244078e+00
-3.645592e+00
3.176247e+00
-2.190545e-01
8.927337e-01
5.791518e+00
1.553174e+00
9.592639e+00
1.001126e+01
6.782166e+00
8.793526e+00
4.758622e+00
7.446867e+00
1.983054e-01
6.007059e+00
-1.107527e+00
-9.611981e-01
-2.498375e+00
2.092784e+00
-3.557078e-01
4.793395e+00
-5.506183e+00
-2.484121e+00
-6.822537e+00
-9.506033e+00
-1.490066e+01
-1.975018e-01
-6.990422e+00
-1.392786e+00
-8.316889e+00
2.530601e+00
-7.773151e+00
6.394947e+00
-7.096411e+00
-4.627922e+00
-3.961873e+00
-7.163092e+00
-1.105192e+01
-2.179812e+00
-1.096621e+00
2.506124e+00
-3.187173e+00
-2.579759e+00
7.138815e+00
2.271646e+00
8.338473e+00
-2.281732e+00
6.793319e+00
-3.102804e+00
4.765709e+00
8.744439e+00
2.023086e+00
4.664164e-01
1.348697e+00
2.445105e+00
8.349721e-01
4.249887e+00
3.170710e+00
4.929039e+00
-9.819100e-01
-9.185668e-01
1.704309e+00
4.265957e+00
-1.302714e+00
3.298621e+00
-1.090788e+00
1.324632e-01
-1.038225e+01
-4.725382e+00
-1.811735e+00
-2.371878e+00
-3.608202e+00
-5.479548e-01
-4.758237e-01
-5.280181e+00
-4.071645e+00
-5.160252e+00
-6.448438e+00
-1.777029e+00
4.620993e+00
-3.785110e+00
3.811410e+00
-5.871327e+00
-3.807783e+00
-3.648210e+00
8.543429e-01
4.444915e-01
1.354398e+00
2.077113e+00
6.127085e+00
-3.736779e+00
-2.997995e-01
-1.858623e+00
6.722282e+00
3.619986e+00
3.215501e+00
4.702031e+00
9.623226e+00
3.265527e+00
7.379843e+00
2.439008e+00
5.996659e+00
4.250129e+00
-3.989941e+00
1.458885e+00
1.349609e+00
-5.065532e-01
5.974380e-01
3.385655e+00
-8.492531e-01
-3.898366e+00
-4.101951e+00
-2.362349e+00
-2.236548e+00
-7.580007e+00
-7.203188e+00
-2.988982e+00
-1.453575e+00
-5.284083e+00
-1.494091e+00
-5.102513e+00
-2.387778e-01
-2.445084e+00
4.322113e+00
-4.627054e+00
4.040009e+00
-3.539396e+00
-1.142745e+00
-2.956501e-01
8.806004e+00
6.061769e+00
-3.591930e+00
-1.230574e+00
6.401763e+00
2.661776e+00
8.696441e+00
2.632100e+00
8.911219e+00
9.794901e+00
-6.412020e-01
-5.534958e-01
-3.358583e+00
5.030146e-03
1.499840e+00
2.389930e+00
2.991700e+00
1.705910e+00
5.241465e-01
-5.924183e-01
2.262678e-01
1.006929e+00
1.008557e+00
9.585103e-01
-4.749308e+00
-5.872032e+00
-6.862787e+00
-6.988148e+00
-7.739081e+00
-9.102661e+00
-1.418995e+01
-2.766682e+00
5.705487e+00
-1.114039e+00
4.741808e+00
-5.049235e+00
-1.167037e+00
1.500044e+00
-1.078937e+00
7.597392e+00
3.315613e+00
5.975297e+00
2.143199e+00
1.239174e+00
5.120253e+00
4.768557e+00
2.530973e+00
-4.916071e-01
-4.288805e+00
-1.574250e-01
4.178138e-02
1.152509e+00
-1.168772e+00
3.362806e+00
2.613857e-01
-4.886147e+00
6.493791e-01
4.151979e+00
1.307283e+00
-2.534412e+00
4.782050e+00
2.649766e+00
-2.636950e+00
1.862928e+00
-4.109693e+00
2.177667e+00
7.686042e-01
-1.585248e+00
-6.575762e+00
-5.230649e+00
-1.468881e+01
-8.200774e+00
-2.056972e+00
-5.297140e+00
-3.824408e+00
-6.403934e+00
2.949922e+00
2.896786e+00
4.957182e+00
3.637819e+00
4.179222e+00
5.798055e+00
-1.402337e+00
5.283517e+00
3.427572e-01
8.959038e+00
2.357019e+00
-1.943909e-02
-6.865316e+00
-6.055931e-02
2.276758e+00
-5.784433e-01
-1.039370e+00
3.018269e+00
9.217778e-01
3.128809e+00
-2.263722e+00
2.741099e-01
1.721075e+00
1.590276e+00
-4.439149e+00
-6.757784e-01
-1.951527e+00
4.874315e+00
-6.960969e+00
-2.346143e+00
-1.125109e+00
-5.303158e+00
-1.728766e+00
-7.604306e+00
-4.032008e+00
-4.814831e+00
-3.067364e+00
-1.765801e+00
4.964781e+00
-3.207596e-01
5.031959e+00
1.403389e+00
5.880484e+00
-7.405867e-01
3.739632e+00
5.745121e+00
-1.029586e+00
4.949057e+00
-2.663682e-02
-1.847910e+00
-3.725337e+00
-4.129781e+00
-2.391054e+00
1.822382e+00
6.704189e+00
3.600039e+00
4.234252e+00
4.224220e+00
2.183213e+00
1.730633e+00
-3.547833e-01
4.530542e+00
2.380490e+00
-1.635504e+00
2.541190e+00
-7.437909e-01
-7.056010e+00
-1.414106e+00
-3.553828e+00
1.540024e-01
-6.961034e+00
1.444962e+00
-2.119281e+00
-6.142380e+00
-4.798723e+00
-4.245888e+00
-3.768817e+00
-5.460991e+00
-3.348542e+00
-3.935225e+00
3.328040e+00
5.868521e-01
1.127943e+01
9.379526e+00
1.260472e+01
8.471585e+00
1.094957e+01
4.782121e+00
-4.625696e+00
3.180717e+00
-3.522054e+00
1.014659e+01
-5.564941e+00
-8.204954e+00
-4.218440e+00
-5.051224e+00
-9.458364e+00
-2.623294e+00
5.097050e-01
2.112681e+00
-1.533613e+00
4.198086e-01
4.544070e-01
2.428685e-01
-5.106843e+00
-1.648723e+00
-7.320763e+00
-1.211298e+00
-5.398054e+00
-4.779812e+00
-2.790708e+00
-8.727482e-01
-3.562593e+00
-5.111111e+00
-5.913041e+00
-5.280025e+00
-8.450906e+00
-1.028350e+01
4.942248e+00
2.804667e+00
9.127830e+00
-3.556475e+00
1.927122e+00
-6.577739e-01
1.056236e+01
9.008153e+00
1.252153e+01
9.570362e+00
7.313072e+00
1.050201e+01
1.173580e+01
9.582613e+00
-1.154768e+00
-4.678095e-01
-6.213457e+00
6.729403e+00
-2.694536e+00
3.634286e+00
3.464323e-01
-1.059924e+00
3.252564e-01
-3.702007e+00
4.992978e+00
7.929990e+00
-9.870556e+00
-1.098091e+01
-5.023980e+00
-3.726485e+00
-2.736242e+00
-9.003722e+00
-4.402253e+00
-7.500846e+00
-4.876634e+00
-8.878542e+00
-3.226937e+00
-6.083021e+00
-1.359933e+00
-5.053517e+00
-9.431111e-01
-7.431864e+00
4.639105e+00
4.947325e-01
1.718801e+00
4.009196e+00
1.409106e+00
8.397267e-01
5.119279e-01
-5.089689e-01
9.580206e+00
8.254918e+00
1.025918e+01
8.290056e+00
6.382834e+00
8.139323e+00
8.497494e+00
5.049338e+00
-1.412339e+00
5.778409e+00
4.811675e+00
1.483740e+00
-4.067840e+00
-5.274313e+00
-8.474484e+00
9.959461e-01
1.988630e-01
8.064718e-01
1.731341e+00
7.781167e+00
-3.497730e+00
-3.222758e+00
-2.907394e+00
-3.764950e+00
3.517232e+00
-4.967832e+00
1.096619e+00
-7.396900e+00
2.107230e-01
1.383981e+00
-2.848637e-01
-3.523340e+00
-5.022294e+00
1.198026e+00
4.419262e+00
9.258913e-01
-1.110887e+00
-6.541983e-01
2.492558e+00
8.302690e-01
3.847752e+00
-1.824406e+00
2.897220e+00
-3.273882e+00
3.663331e+00
2.325746e+00
-7.700193e-01
4.479593e+00
2.631865e-01
-2.391842e+00
-2.299912e+00
4.047408e+00
2.310438e+00
-3.509560e+00
-6.787272e-01
6.686365e-01
2.353844e+00
-1.928225e+00
-4.279211e+00
-1.937324e+00
-3.304401e-01
3.029828e+00
-1.258215e+00
3.522777e+00
-2.509780e-01
2.229794e+00
2.044633e+00
-4.571291e+00
-4.327206e+00
-1.372951e+00
-1.545689e+00
-3.131121e-01
7.395149e-01
-1.196840e+00
1.365183e+00
1.370418e+00
-2.359835e+00
1.456918e+00
2.264512e+00
-4.276096e-01
3.043704e+00
1.627870e+00
-5.593358e+00
2.681067e+00
-1.383219e+00
1.708143e+00
1.208057e+00
-8.167580e-01
-2.586131e+00
-3.593532e+00
2.502523e+00
-6.312914e+00
-5.426232e+00
-5.379395e+00
-6.465604e+00
-3.689465e+00
-5.378480e+00
-1.877517e+00
3.017627e+00
-3.623645e-01
4.096782e+00
2.932214e-01
2.263540e+00
-5.987440e-02
3.398464e+00
-2.477065e+00
2.072928e+00
-3.445088e+00
3.196487e+00
3.414997e+00
5.294035e+00
5.127438e+00
-5.807006e+00
-3.156829e+00
-8.186775e+00
4.607516e+00
-6.753847e+00
-4.077830e+00
-3.838065e+00
-6.471350e+00
-5.003220e+00
-4.855199e+00
-2.776807e+00
-7.879298e+00
-1.207055e+00
-7.828059e+00
3.717176e+00
5.346244e+00
2.741675e+00
5.562813e-01
4.626624e-02
-1.878405e-01
3.631235e+00
3.448649e+00
8.670674e+00
5.647417e+00
-7.432789e+00
-4.782256e+00
-7.793521e+00
-3.846260e+00
2.636786e+00
-1.440527e-01
-2.601403e+00
-1.553975e+00
-1.536354e+00
-7.950664e+00
-7.502655e+00
-8.632641e+00
-1.481044e-02
-4.632215e-01
7.890668e+00
9.429519e+00
7.538453e+00
5.850352e+00
6.380560e+00
4.240578e+00
4.057695e+00
3.993679e+00
7.177734e+00
1.078167e+01
-2.504185e+00
-4.646592e+00
-2.981643e+00
-4.361002e+00
-1.156615e+00
-3.930942e+00
3.077424e+00
-5.623016e+00
4.364946e+00
-5.615777e+00
-4.744824e+00
-5.409414e+00
6.026553e+00
3.292774e+00
5.866592e+00
6.425388e+00
6.212367e+00
-9.828070e-01
6.571788e+00
-2.863959e+00
9.834295e+00
4.557217e+00
3.328835e+00
1.277702e+00
6.916608e-01
-3.502603e+00
9.368452e-01
-6.391118e+00
3.926004e-01
1.746946e+00
-2.406818e+00
4.803375e+00
2.860936e+00
3.978748e+00
-3.937425e-01
-3.472207e+00
1.639305e+00
-5.554000e-01
9.751308e-01
-8.658861e-01
-4.355430e+00
1.263287e+00
4.552066e+00
8.254267e-01
1.170726e+00
4.386276e+00
1.040910e+00
-1.587861e+00
1.374029e+01
-2.935869e+00
1.073392e+01
6.154565e+00
-2.127224e-01
1.139926e+00
5.472075e+00
-5.941148e+00
7.436351e+00
-7.907614e-01
8.872363e+00
5.723964e+00
-2.865844e+00
-1.030002e-01
-4.967462e+00
-3.419491e+00
6.154392e+00
-2.123069e+00
4.822393e+00
-6.926329e+00
6.606057e+00
6.283918e+00
2.114167e+00
3.956646e+00
1.505998e+00
5.062963e-01
-1.761460e-01
2.773832e+00
-1.531072e+00
-1.422000e-01
2.071646e+00
-1.877548e+00
-3.919506e-01
-6.957956e-01
5.029183e-01
-4.521736e-01
-2.116748e+00
2.037534e+00
-1.377959e+00
-1.508493e+00
2.794623e+00
1.295231e+00
1.139193e+00
-4.073062e+00
4.104267e+00
5.386807e+00
-2.998464e+00
-1.044047e+00
-3.315445e-01
3.413726e+00
2.362165e-01
3.431287e+00
-6.452462e-01
-7.707672e-01
-3.554111e+00
-1.309958e+00
2.430348e+01
2.021821e+01
2.188252e+01
2.166851e+01
-1.027240e+01
-5.205708e+00
4.087688e+01
9.399892e+01
3.892167e+01
1.017541e+02
-6.588237e+01
-5.623391e+01
5.609805e+00
1.433485e+00
8.493611e-01
7.371176e+00
3.573647e+01
4.536303e+01
4.022181e+01
4.580231e+01
2.662406e+00
-2.442521e-01
5.037028e+00
1.408764e+00
4.836823e+01
4.852930e+01
5.357640e+01
5.183050e+01
-2.861038e+00
-2.881456e+00
2.812581e+00
-1.913890e+00
3.138054e+01
4.042283e+01
3.348260e+01
3.794498e+01
-2.537539e+00
2.778390e+00
5.658749e+00
2.828328e+00
1.538392e+01
3.241221e+01
1.902139e+01
2.855995e+01
1.036242e-01
-2.917379e-01
-5.658241e-01
1.368295e-02
1.266822e+00
3.726854e+00
-3.727004e+00
4.265157e+00
2.565618e+00
-3.517861e-01
3.825949e+00
6.986411e+00
-5.475287e-01
-2.532927e+00
-3.197415e+00
-2.509206e+00
-5.521020e+00
-4.408724e-02
-7.144407e+00
1.590557e+00
8.254485e+00
9.697035e+00
-1.443874e+01
-8.075678e+00
-1.098601e+00
5.324231e+00
-8.064872e-01
8.189797e+00
1.537896e+01
1.871314e+01
-1.111963e+00
5.237998e+00
5.771490e+00
3.194370e+01
1.662041e+01
3.246498e+01
2.368929e+01
3.938035e+01
3.183998e+01
2.351533e+01
1.997373e+01
3.710456e+01
2.621268e+01
4.171460e+01
2.948999e+01
3.632626e+01
2.053440e+01
1.978141e+01
1.796520e+01
2.437489e+01
2.185912e+01
2.292267e+01
1.421115e+01
2.670920e+01
1.042094e+01
4.409924e+00
-1.092800e+01
1.594774e+01
-7.743683e+00
2.756378e+01
2.036281e+00
1.347907e+01
-2.045285e+01
-1.124487e+01
-2.968408e+01
4.074641e+01
-1.935893e+01
3.666573e+01
-1.138406e+01
3.577345e+01
-1.519073e+01
3.627334e+01
-1.701168e+01
2.270016e+01
-9.423940e+00
2.317933e+01
-1.064557e+01
1.333460e+01
-9.683294e+00
1.899267e+01
-5.257972e+00
-6.100695e+00
1.096776e+00
8.316826e+00
-8.024111e-01
-9.578068e-01
-6.380991e-01
4.305508e+00
2.110684e+00
3.261034e+00
6.842699e+00
1.072577e+00
-2.757101e+00
2.935683e+00
-2.565973e+00
2.501418e+00
-2.372569e+00
-5.500308e+00
2.490075e+00
-3.442941e+00
2.090989e+00
-3.201597e+00
-1.925499e+00
-1.211333e+00
-1.004461e+00
-7.125812e+00
5.330766e+00
-1.903419e+00
1.630788e+00
3.054732e+00
4.162810e+00
-5.375781e-01
-6.794865e-03
3.299778e+00
-3.175190e+00
-3.159373e+00
-2.639367e+00
-8.744995e+00
-2.606561e+00
-2.926316e+00
-3.999936e-01
-8.098781e+00
3.355228e-01
2.757625e-01
-1.415267e+00
-6.238217e-01
2.562585e-02
9.675608e-01
-1.832698e+00
6.698831e+00
4.417684e+00
2.037482e+00
4.281682e+00
3.251788e+00
5.533108e+00
-3.896054e+00
5.734884e+00
-1.500728e+00
-9.645127e+00
5.294587e+00
1.405332e+00
7.133932e-02
-9.683696e-01
3.630394e+00
-2.113945e+00
-8.387917e+00
-4.840952e+00
-8.404869e+00
6.843405e+00
-1.083598e-01
1.026773e+00
7.806720e-01
-2.240026e+00
-6.293465e+00
-2.068611e-01
9.518306e-01
-4.995316e+00
-1.298268e+00
-1.532634e+00
-4.551232e+00
-9.403119e+00
-4.809610e+00
-1.367614e+01
-6.341520e+00
5.462111e+00
-6.658867e+00
-7.958299e+00
-4.825280e+00
4.202656e+00
-6.265810e+00
-8.715340e+00
-9.456348e-01
-1.194433e+01
-5.058485e+00
6.555878e+00
1.161428e+01
1.449016e+01
1.066997e+01
1.592159e+00
3.733219e+00
-3.620775e+00
-1.473627e+01
-6.788783e+00
-3.333521e+01
-5.554483e+00
-1.050956e+01
-1.002613e+01
-3.017199e+01
-1.545919e+00
-4.647144e+00
-6.705559e+00
-9.485332e+00
-1.695677e+01
-1.810253e+01
-4.535517e+00
4.806082e+00
-3.580445e+00
4.254717e-01
-2.858709e-01
-9.973889e-01
1.454686e+00
-2.960475e+00
-3.643690e-01
-4.405340e-01
8.600330e+00
-2.112823e+00
-2.189966e+00
-2.593504e+00
-7.947281e+00
-2.343854e+00
-2.206687e+00
-1.552951e+00
-2.394410e+00
-1.355067e+00
1.428745e+00
2.926784e+00
-1.246438e+00
-1.583784e+00
-1.365181e+00
4.538158e-01
-8.430004e-01
-2.848343e+00
-1.953492e+00
-2.410412e+00
2.084806e-01
-1.847401e-01
-3.568903e+00
6.662624e-01
-2.160874e+00
-3.867501e+00
1.085332e+00
-3.767063e+00
1.340760e-01
-1.166153e-01
-2.202751e+00
-4.368883e+00
-4.380714e+00
4.906931e-01
-3.016788e+00
2.158347e+00
-3.152697e+00
-6.895712e-01
2.515908e+01
1.248978e+01
1.062061e+00
-9.486511e+00
3.043195e+01
1.094734e+01
3.206407e-01
-1.237493e+01
-8.947915e+00
-9.577599e+00
-2.024457e+01
-2.198230e+01
1.819834e+00
2.231004e+00
-3.930761e+00
-2.065585e+00
-5.454032e-01
-2.336878e+00
-1.768474e+01
7.209753e-01
-2.013325e+01
3.811744e+00
-4.622038e+00
5.205496e+00
3.011517e+00
1.345919e+00
2.028140e+00
7.542436e-01
5.097170e+00
4.938824e+00
5.513966e+00
6.991039e+00
5.474384e+00
3.929914e+00
-4.442902e-01
1.186502e+01
2.329357e+00
-2.029886e+00
-1.336774e+00
1.022994e+01
-5.029430e-01
-3.108570e+00
3.403782e+00
-6.408856e+00
2.105599e+00
9.531100e+00
1.684776e+00
2.474511e+00
-4.095269e-01
-3.789937e-01
-1.177939e+01
8.067340e-01
-2.405895e-01
7.354587e+00
-1.073084e+01
-1.999757e+00
-7.126874e+00
6.233660e+00
-7.639725e+00
6.676258e+00
1.119166e+01
8.346051e+00
1.092895e+01
1.115321e+01
-4.011226e-01
4.158025e+00
-2.584631e+00
-7.902630e+00
-2.449771e+00
-2.639265e+00
-4.533959e+00
-4.225848e+00
-1.268854e+00
2.561158e+00
-1.091798e+01
-8.369896e+00
7.672320e+00
2.189945e+00
6.067157e+00
2.005192e+00
4.113086e+00
4.303691e+00
-8.938737e+00
1.092536e+01
-1.007374e+01
1.005910e+01
-1.617767e+01
2.462522e+00
2.166406e+01
1.491203e+01
-5.757600e+00
-1.338011e+00
2.492388e+01
1.826903e+01
2.353506e+00
7.854159e+00
-2.396009e+00
1.040684e+01
4.819279e+00
1.670597e+01
4.757341e+00
1.744901e+01
4.013383e+01
3.620380e+01
-8.960627e+00
1.427573e+00
-4.500614e+00
-1.592650e+00
-7.168016e+00
-1.474340e+01
1.276317e+00
4.645153e+00
7.241719e+00
4.528259e+00
8.374050e+00
1.895195e+00
-4.587773e+00
-9.479086e+00
-1.195003e+01
-6.852719e-01
8.515229e-02
2.513663e+00
-1.692197e+01
-1.791858e+01
4.437923e+00
2.906209e+00
5.171686e+00
-3.643855e+00
5.310903e+00
-4.714776e-01
1.921333e+01
2.232814e+01
-3.551722e+00
-3.056619e+00
3.800617e-01
-4.720477e+00
-4.815327e+00
-3.367406e+00
-3.317023e+00
4.595545e-01
-8.133043e+00
2.248275e+00
2.967604e+00
-5.888727e+00
-5.800312e+00
4.316799e+00
-1.103268e+00
1.001393e+00
7.257321e+00
-4.633227e+00
6.166356e+00
1.116552e+00
5.162456e+00
-1.511073e+00
2.140584e+00
-3.234356e+00
-2.732464e-02
2.867240e+00
7.829609e+00
3.571864e+00
8.948118e-01
8.747522e-01
-7.741440e-01
1.016208e-01
1.463492e+00
1.894812e+00
-1.380130e+00
1.071790e+00
-1.142995e+00
3.162136e+00
-3.209961e+00
-3.553095e+00
4.316093e+00
2.975161e-02
2.548272e+01
2.511526e+01
-1.095881e+01
-6.752634e+00
4.457230e+00
4.571430e+00
5.620215e+00
3.562921e-01
-3.465172e+00
1.352407e+00
-3.091838e+00
7.957601e+00
-1.278098e+00
3.445088e+00
-2.558785e+00
3.923037e+00
-1.105318e+01
8.087229e+00
3.792574e+00
7.333503e+00
3.126438e+00
2.620140e+00
-3.346318e+00
-8.126208e-01
1.266044e+00
-4.759413e+00
-2.336776e+00
1.809629e+00
-6.807931e-01
8.544640e-01
-4.533539e-01
2.518766e+00
1.482792e+00
4.501005e+00
4.753894e+00
-2.277674e+00
-1.304196e+00
9.082773e+00
-8.764957e-01
-3.990139e+00
-7.683920e+00
-2.147879e-01
-2.774240e+00
-2.640463e+00
8.673163e-01
-6.641087e+00
-7.753205e+00
8.195161e-03
-4.204932e+00
-8.317056e-01
2.769533e+00
-3.187773e+00
-3.218305e+00
1.300224e+00
4.306027e+00
4.745068e+00
1.165625e+01
-1.155361e+00
2.126622e+00
-3.147848e+00
5.394058e+00
-1.193673e+00
9.795562e-01
-8.385960e-01
-5.160708e-01
-1.915839e+00
4.929848e-01
-3.346468e+00
1.501276e+00
-8.452622e-01
-1.834717e+00
4.864928e-01
-3.220554e-01
-2.235052e+00
1.945312e+00
3.672229e+00
2.740277e+00
3.013601e+00
1.517628e+00
3.426281e+00
2.958021e+00
6.621386e-01
5.759571e+00
-2.148778e+00
2.899519e+00
3.169138e+00
3.675284e+00
-4.403271e+00
1.094448e+00
-2.992482e+00
-1.950363e+00
2.010867e+00
-5.025009e-01
1.489997e+00
-6.116283e-01
-3.191118e+00
2.108455e+00
-1.948154e+00
4.286128e+00
-5.062587e-01
4.246724e+00
1.643288e-01
-2.832104e-01
1.381736e+00
1.849859e+00
-7.116239e-01
-3.403691e+00
5.151681e-02
-2.031299e-01
-2.647175e+00
-5.319180e-01
-4.837078e-01
-3.601601e+00
-7.705139e-01
-5.057103e+00
-2.168535e+00
-4.344387e+00
2.226609e-01
3.617845e+00
8.443224e-01
-3.634761e+00
2.661896e+00
8.628581e-01
-1.091023e-01
1.145571e+00
1.894683e+00
-3.221098e+00
-3.268500e+00
-3.334183e+00
-1.989084e+00
2.072270e-01
-2.822707e+00
1.351276e+00
-9.019409e-01
-5.403811e+00
-1.605210e+00
-1.922216e+00
-1.816405e+00
3.474538e+00
1.209632e+00
1.575021e+00
2.217351e+00
-4.155302e+00
3.640295e-01
-2.406333e+00
-2.375823e+00
-1.024733e+00
-1.403699e+00
-1.042347e+00
2.102198e+00
2.546091e+00
3.990590e+00
1.900280e+00
7.099707e+00
1.001064e+00
6.062551e+00
4.135757e+00
3.382368e+00
-8.770882e-01
5.853887e+00
-1.270285e+00
-2.423419e+00
-1.336399e-01
-3.697324e+00
-1.559362e+00
-1.076554e+00
1.810923e+00
-8.754507e-02
1.498931e+00
-2.978708e-01
3.125495e+00
1.517970e+00
-7.616197e-01
2.047361e+00
-4.022745e+00
3.005829e+00
8.543427e-01
1.027664e+00
5.413457e+00
1.805942e+00
1.525613e+00
4.572918e+00
3.456848e+00
-1.479928e+00
2.113613e+00
1.964464e+00
-3.323631e+00
-1.988412e-01
1.599597e+00
-3.916018e+00
-1.857051e+00
6.498252e-02
-2.709936e+00
-1.892603e+00
8.650501e-01
3.327215e-01
8.300064e-01
-4.460260e+00
-3.602711e+00
-7.353487e+00
4.299266e-01
-7.132512e-01
-2.931858e+00
-4.948038e+00
-6.735984e+00
-2.872737e+00
5.560774e-01
-2.725596e+00
-5.862125e-01
-4.993635e+00
6.096532e-01
-3.513165e+00
-1.542329e+00
-2.705380e-01
-2.879676e+00
-5.126127e+00
2.113021e+00
5.210054e+00
2.909359e+00
-3.774104e+00
-9.230615e-01
1.193626e+00
7.731025e-01
2.842350e+00
1.818807e+00
4.524709e-01
2.365745e+00
3.284217e+00
4.947894e-01
4.866844e+00
-7.074249e-01
1.558298e-01
-1.177128e+00
2.001313e+00
2.252739e-01
1.827792e+00
6.114161e-01
-6.628039e-01
3.980443e+00
1.293834e+00
-3.592778e+00
-3.524392e+00
-2.077808e+00
5.785933e-01
-3.660620e-01
-1.574935e+00
4.099895e+00
-6.108404e-01
-4.873021e+00
-5.460208e+00
-1.758195e+00
-6.461024e-01
-6.542984e+00
2.246077e+00
-1.021917e+00
2.287657e+00
2.342526e+00
5.677594e+00
5.011536e+00
-2.976974e+00
1.680881e+00
2.405462e+00
-3.509562e+00
-5.356109e+00
-3.521394e-01
3.719084e+00
8.550173e-01
-1.279801e+00
-1.500045e+00
-1.466580e+00
2.705432e-01
-1.677927e+00
-4.890414e+00
-1.031459e+00
-2.073851e-01
-3.074549e-01
-1.586385e+00
-1.653849e+00
2.660660e+00
2.810945e+00
2.106646e+00
-2.118403e-01
-3.343814e+00
-8.138208e-01
2.817924e+00
7.778968e-02
2.785637e+00
4.023992e+00
2.814285e+00
-9.231168e-01
2.459134e+00
3.084877e+00
2.104060e+00
8.754364e-02
2.856476e+00
1.109207e+00
2.993972e+00
2.574069e+00
5.290197e+00
1.771869e+00
3.641804e+00
5.411538e-01
-2.647014e-01
-2.052236e+00
-5.354530e-01
-1.924893e+00
6.010375e-01
-4.466921e+00
9.150467e-01
-3.389209e+00
-2.425284e+00
-2.801564e+00
-6.072874e+00
-7.087055e+00
-6.676990e+00
-4.491503e-02
-4.605432e+00
-1.798829e+00
-1.732231e+00
-1.562649e+00
5.981362e-01
9.175808e-01
-1.409863e+00
-1.422454e+00
-2.567936e+00
-3.479886e-01
2.028652e+00
-3.366027e-01
-6.806277e-01
-7.756099e-02
6.118766e-01
3.018253e-01
-7.046002e-01
2.210832e+00
4.638168e+00
2.003352e+00
7.815294e-01
-2.476335e+00
3.099666e+00
3.856669e+00
3.112355e+00
4.323818e+00
3.355040e+00
5.722541e+00
1.001111e-01
1.849853e+00
8.135157e-01
1.765329e+00
3.698110e+00
-7.806512e-01
-4.391064e+00
-6.279610e+00
1.683590e+00
2.758018e+00
1.375545e+00
-2.918364e+00
-5.670890e-01
-3.971196e+00
-5.297042e-01
-3.782389e+00
-3.568290e+00
-2.240302e+00
-3.274347e+00
-1.157146e+00
-2.738262e+00
-7.047868e-01
4.586083e+00
3.795134e+00
-2.747756e+00
2.138088e-01
1.604580e-02
1.757538e+00
2.713051e+00
2.213663e+00
3.408518e+00
1.543794e+00
-1.762252e-01
1.187241e+00
-1.936562e+00
5.724425e+00
-4.581870e-01
2.081166e+00
-3.301050e+00
-3.954283e+00
8.079863e-01
2.054934e+00
-1.126278e+00
1.310599e+00
-2.649388e+00
-8.231996e-01
-2.877815e+00
-3.447745e+00
-1.836157e-01
-2.040718e+00
-4.789279e+00
-2.229540e+00
-4.419932e+00
-4.131782e+00
-1.795126e+00
2.641418e-01
-2.963343e-01
2.086483e+00
-9.086593e-01
2.580902e-01
-3.563742e+00
3.617388e+00
2.124824e+00
3.673461e+00
1.807453e+00
2.272757e+00
1.607224e+00
4.640875e-02
-1.934223e+00
4.113481e+00
1.558815e+00
1.227175e-01
1.192354e-01
-3.605083e+00
1.592076e+00
6.710466e-01
-2.592887e-01
2.365727e+00
-2.023930e+00
2.837605e+00
-8.066057e-01
-3.820800e+00
3.161571e-01
2.862426e+00
-5.001464e+00
2.309937e+00
-2.965161e+00
-1.414526e+00
-3.410082e+00
-9.327425e-01
-1.025838e+00
-3.118308e+00
-1.428452e+00
-1.293138e+00
-8.451969e-01
1.741874e+00
1.247085e-01
4.505222e+00
2.160540e+00
3.467101e+00
2.496175e+00
1.791855e+00
4.607121e+00
7.800123e+00
7.765549e+00
3.239369e+00
1.242820e+00
5.775818e+00
2.520872e+00
5.145916e+00
-4.638536e+00
-2.130419e+00
-8.476138e-01
2.651379e+00
-8.579992e-01
8.727321e-02
2.287196e-01
-1.610006e+00
1.735886e+00
4.281372e-01
-1.253484e+00
-3.945027e+00
-1.399850e+00
1.241912e+00
-6.605480e-01
-1.898770e+00
-2.782122e+00
-7.624883e-01
2.762764e+00
-9.464174e-01
4.871574e+00
-4.553381e+00
1.687631e+00
-2.134339e+00
1.344064e-01
-8.780991e-01
3.585222e+00
1.753533e+00
3.295708e+00
-2.781428e+00
5.164237e+00
-1.627831e+00
1.040272e+00
4.124355e+00
1.219849e+00
-3.475269e-01
1.703720e+00
1.434461e+00
3.603689e+00
-1.782552e+00
1.527885e+00
1.321107e+00
-1.410989e-01
-4.719929e+00
-2.641926e+00
2.276101e+00
-3.065699e+00
1.430458e+00
-7.740872e+00
-4.345681e+00
-6.024259e+00
-4.199070e+00
-1.878796e+00
-3.984973e+00
-2.720058e+00
-7.926021e+00
2.511026e+00
-1.103061e-01
-2.143720e+00
-9.492390e-01
1.939440e+00
-6.012924e+00
-3.660245e-01
-7.764426e-01
4.055694e+00
-4.933375e-01
-2.705048e+00
1.360635e+00
4.528776e+00
-7.991831e-01
1.608804e+00
1.341975e+00
1.638462e-01
-1.386039e+00
2.417387e-01
5.410646e+00
9.452253e-01
-2.859126e+00
3.951731e+00
-9.162438e-01
2.075070e+00
1.352666e+00
-5.279608e-01
5.419400e+00
3.208075e+00
1.194713e+00
8.640524e-01
7.032886e-01
-3.848497e+00
4.190458e-01
1.686815e+00
2.311449e+00
6.361047e+00
-1.555101e-01
4.661218e+00
-1.155198e+00
1.578263e-01
1.358812e+00
1.517117e+00
2.532731e+00
4.063705e+00
-1.813066e+00
2.286052e+00
-4.453830e+00
2.273634e+00
4.948604e-01
9.224759e-02
1.014375e+00
-3.276134e+00
-1.964269e+00
2.579149e+00
-2.604821e+00
-4.307069e-01
3.047746e+00
3.580235e+00
-3.021728e+00
-5.890799e+00
8.849215e+00
-4.784112e+00
4.370995e+00
-5.416720e+00
1.036834e+00
-1.066129e+00
2.784223e-01
1.454112e+00
1.838887e+00
-1.976661e-01
-1.133582e+00
1.610324e+00
-3.336475e+00
-3.302903e+00
4.919114e-01
-5.979092e+00
-5.569563e-02
-1.818551e+00
-2.872267e+00
1.569551e+00
1.859391e+00
4.933250e-02
6.411023e-01
-9.709021e-01
5.499477e+00
-6.197142e+00
7.970898e+00
-1.114060e+00
3.218372e+00
2.886968e+00
1.299785e+00
4.474494e+00
-7.459918e-01
2.660534e+00
3.068500e+00
1.775272e+00
1.543192e+00
-1.380194e+00
-4.769644e+00
-2.436734e+00
-2.631149e+00
4.298851e+00
-2.956884e+00
-3.271746e+00
1.475413e+00
-1.376311e+00
-1.391116e+00
-1.851723e+00
4.080454e+00
-1.560893e+00
-3.881766e+00
-3.929708e+00
-4.587301e+00
-1.336084e+00
1.607651e+00
-2.637327e+00
1.935408e+00
-7.336472e+00
-1.100868e+00
1.780894e+00
-3.180437e-01
1.885633e+00
3.098812e+00
5.412368e-01
7.473662e-01
-3.468870e+00
5.924308e+00
-8.493000e-01
-2.177151e+00
2.056662e+00
9.217604e-01
-1.306666e-01
5.112343e-01
-1.837796e-01
3.502453e+00
3.918289e+00
2.794466e-01
-2.620728e+00
-4.857717e-01
9.034461e-01
-2.315930e+00
5.282617e-01
3.530906e+00
2.801077e+00
2.708351e+00
3.903730e+00
-9.165963e-01
-2.233349e+00
-1.240230e+01
-7.726195e+00
6.364983e+00
-3.234618e+00
1.746110e+00
1.328056e+01
6.708148e+00
-8.513845e+00
-9.334535e+00
1.764112e+00
3.418206e+00
-2.864468e+00
-1.241610e+01
-1.969115e+00
-4.016707e+00
4.720462e+00
3.251984e+00
4.898391e+00
-6.575384e-02
5.704456e-01
5.791241e+00
2.790236e+00
5.832553e+00
-2.389839e+00
-2.665571e+00
-1.770088e+00
9.006688e-01
-3.159890e+00
-6.675564e+00
-1.008463e+01
5.587157e+00
2.990076e+00
-2.995812e+00
-4.705370e+00
5.597334e+00
1.228534e+01
-2.896675e+00
4.725163e+00
3.498236e+00
-4.350716e-01
4.802427e+00
1.369671e+00
2.687335e+00
3.691771e+00
1.642828e+00
3.316453e+00
-3.691482e+00
1.798993e+00
3.613191e+00
-2.753994e+00
-8.396147e+00
-1.211294e+01
4.333623e+00
-1.737792e+00
1.782574e+00
-7.188636e+00
1.456735e+00
5.058589e+00
8.676075e+00
1.060308e+00
8.439793e-01
9.316972e+00
-6.696313e+00
-2.225037e+00
-1.551110e+00
9.380931e+00
1.665447e+00
-1.849833e+00
-3.477150e+00
-5.033560e+00
3.736292e+00
2.575943e+00
4.969070e+00
8.793984e+00
3.480931e+00
-8.891344e+00
-4.626749e+00
-5.285568e+00
-5.442209e+00
-2.357475e+00
-7.394153e+00
-2.785603e+00
-5.533615e+00
4.810665e+00
2.799741e+00
2.970426e+00
4.318071e+00
3.506160e+00
6.145972e+00
2.832336e+00
-6.286646e+00
-1.827404e+00
-4.506004e+00
-8.223021e+00
-5.519845e+00
-6.862588e-01
-9.621488e+00
-3.030715e+00
-3.605815e+00
6.320991e+00
-1.093436e+00
8.977685e+00
3.270598e+00
-2.405335e+00
1.452914e+00
1.212260e+00
9.229640e+00
5.587367e+00
5.169333e+00
-4.061372e+00
6.852885e+00
6.865665e+00
7.091348e+00
-2.184974e+00
1.175054e+01
1.656648e+00
5.527553e+00
-3.909369e+00
-8.254921e+00
-3.312752e+00
5.198630e+00
5.048284e-01
-6.090644e+00
-6.735795e+00
-2.702574e-01
2.622149e+00
-7.764678e-01
6.265956e+00
-4.313250e+00
-1.173599e+01
-5.085734e+00
5.244282e+00
-2.457052e+00
2.270723e+00
3.439412e+00
-2.822163e+00
-5.119454e+00
-3.185904e+00
2.398454e+00
7.971995e-01
2.738452e-02
3.470065e+00
-3.025884e+00
-1.345453e+00
-2.174267e+00
-5.474685e+00
3.008869e+00
-2.507033e+00
-1.250562e+00
5.050515e+00
-4.409263e-01
-2.675182e+00
4.150915e-02
-3.030390e+00
2.155705e+00
3.024312e+00
1.662283e+00
-3.801485e+00
-5.193041e+00
9.883570e-01
-3.560494e+00
-1.420479e+00
4.420215e+00
7.294311e-01
1.633425e+00
-2.940376e+00
6.234569e+00
-1.664494e+00
2.171271e+00
6.239180e+00
1.308072e-01
3.023764e+00
-3.200846e+00
6.880918e+00
-2.723373e+00
4.301427e+00
-1.525949e+00
1.844941e+00
7.372506e+00
3.839000e+00
-2.079638e+00
3.144473e+00
-2.091036e+00
-2.987079e+00
-1.094828e-01
5.609808e+00
-6.581818e+00
-3.762282e+00
2.189314e-01
-1.345124e+00
-3.648200e+00
-3.774864e+00
-3.267725e+00
-9.582728e-01
-2.800395e+00
-3.211824e+00
1.141645e+00
-1.917089e+00
1.988755e+00
-1.448521e+00
-9.230934e-01
-1.100467e-01
-6.560727e-01
1.976808e+00
2.436623e+00
3.908510e-01
-1.471615e+00
5.194533e-02
-4.158029e+00
3.664835e+00
4.783651e+00
-3.977050e+00
3.027681e+00
2.537926e+00
1.638474e+00
-1.401231e+00
7.053467e+00
5.711325e-01
2.627758e+00
-9.464439e-01
-1.830581e-01
-2.436452e-01
2.418134e+00
-1.666289e+00
2.586337e+00
6.084322e+00
-5.151306e+00
5.403062e+00
6.292763e-01
-9.337995e+00
3.350610e+00
-1.220228e+00
-1.445831e+00
1.292943e+00
5.013202e+00
-8.143714e-01
-2.746571e+00
2.336467e+00
-1.691541e+00
-1.368016e+00
-7.001405e+00
-1.477007e+00
2.240868e+00
1.905904e+00
-2.648423e+00
4.270265e+00
-4.301516e+00
-8.533427e-01
-6.925838e+00
-9.058640e-01
-4.819080e-01
6.146984e-01
-1.815101e-01
-3.156968e+00
-4.414029e+00
-1.194755e+00
7.300875e+00
-4.612533e+00
-1.458691e+00
1.336943e+00
6.853124e+00
-6.413341e+00
3.754965e+00
4.826088e+00
3.787270e+00
4.750629e+00
7.564078e-02
-4.596861e+00
-8.992795e+00
-3.332908e+00
-7.075863e+00
-8.087333e-01
-1.042096e+00
1.068349e+00
-8.683472e+00
-3.945501e+00
7.059145e+00
-3.274832e+00
1.738233e+00
6.652513e+00
2.054091e+00
-1.257943e+00
4.015197e+00
6.482370e+00
7.813624e-01
-2.333789e+00
2.112543e+00
-1.307002e+00
-3.934195e+00
3.450002e+00
-1.643923e+00
8.066071e-01
-2.887006e+00
4.400687e+00
-2.582330e-01
3.555093e+00
3.870706e+00
7.044778e+00
-3.372886e+00
-3.926200e+00
6.400338e+00
9.951846e-01
1.002871e+00
-4.664633e+00
7.316190e-01
-3.206873e+00
-7.491283e-01
-2.186768e+00
4.336424e+00
-2.977991e+00
-3.965221e+00
-5.991978e+00
-9.081816e+00
1.610975e+00
1.550879e+00
3.081409e+00
-9.596600e+00
-1.202152e+00
-1.439033e+00
2.934494e+00
1.683255e+00
-2.098865e+00
1.109095e+00
-1.630876e+00
7.011629e+00
-5.861640e+00
-1.988940e+00
2.213461e+00
-1.126644e+00
6.238740e+00
4.089920e+00
6.805743e-01
1.600738e+00
8.762546e+00
3.863132e+00
1.458316e+00
-2.679365e+00
1.641029e-01
-1.204522e+01
-1.903002e+00
1.391568e+00
-2.496071e+00
-3.845275e-01
-5.475449e-01
5.166651e-01
-2.046388e-01
-3.278805e+00
-1.591713e+00
4.703142e-01
-3.143655e+00
3.889863e+00
-4.894525e+00
-6.384725e+00
1.488597e+00
-3.582924e+00
-1.053425e+00
7.892002e-01
1.556420e+00
3.635460e+00
2.873226e+00
3.726750e+00
2.094024e+00
-1.426228e+00
5.157600e+00
1.130479e+00
-1.447956e+00
-4.670370e+00
-1.889708e+00
8.192610e+00
-2.520564e-01
1.660567e+00
-3.246945e+00
1.430775e+00
1.277703e+00
-1.184020e+00
4.845577e+00
2.874434e+00
-1.841302e+00
-5.602441e+00
9.502362e-01
-2.156368e+00
-5.597481e+00
-1.111235e+00
3.134793e-03
-7.103790e+00
-9.512445e+00
6.266206e+00
3.024166e+00
-3.380418e+00
5.198135e+00
-5.744236e+00
3.046472e+00
-2.310197e+00
5.463113e+00
1.767356e+00
8.330457e-01
-6.628159e-02
6.172222e+00
8.232174e+00
8.317985e+00
4.266048e+00
3.438354e+00
-8.232442e+00
2.728135e+00
1.593482e-01
1.769782e+00
4.528955e-01
1.536426e+00
6.243618e-01
4.399787e-01
4.909871e+00
1.851281e+00
5.305884e-01
2.052700e+00
-5.320361e-01
9.697899e-01
-4.688345e-01
-7.169319e-01
-1.089130e+00
2.812506e+00
1.456749e+00
1.389324e+00
-4.652691e+00
1.175137e+00
-1.977016e+00
-3.507179e-01
-1.608800e+00
-5.394630e-01
7.168199e+00
-3.737637e+00
3.979986e+00
-2.651296e+00
-4.521943e-01
1.585122e+00
-2.115822e+00
6.530382e-01
-2.019798e+00
-3.923059e-01
3.264088e+00
1.378311e-01
-1.196823e+00
1.103860e+00
-3.289804e+00
-1.234772e+00
1.172780e-01
-2.507203e+00
8.177832e+00
3.992745e+00
-4.589267e-03
-2.520754e+00
-4.606431e+00
-1.185480e+00
5.579985e-01
-9.387438e-01
-5.985269e+00
-4.590271e+00
2.118439e+00
-3.075698e+00
3.187749e+00
-4.978369e+00
1.460438e+00
2.134355e+00
3.874692e-02
-2.672818e+00
2.441947e+00
-3.919523e+00
1.139962e+01
3.121969e-01
-4.795533e+00
-2.391802e+00
-3.558898e+00
6.360522e+00
-2.518366e+00
-2.115233e-01
-5.578839e+00
-7.322344e-01
-2.882074e+00
-2.438981e+00
-1.104732e+01
1.772203e+00
-1.474660e+00
1.001936e+00
-9.869795e-01
6.546556e+00
5.885792e-01
-1.790344e+00
-1.055907e+00
9.989449e+00
-2.078227e+00
1.081900e+01
-1.605167e+00
3.441007e+00
-6.893792e+00
-5.728850e-02
1.419506e+00
-2.068837e+00
-4.221157e-01
-7.044236e-01
-2.305284e+00
-2.258413e+00
-3.273456e-01
3.588813e+00
-2.130856e+00
2.182929e-02
-1.520039e-01
2.407202e+00
5.743039e-01
1.865652e+00
-8.773395e-01
1.237671e+00
1.369645e+00
-5.293116e-01
-1.108599e+00
-4.984562e-01
2.535001e+00
1.883451e+00
-1.708414e+00
-1.401128e+00
1.243126e+00
4.821737e+00
1.176345e+00
-3.289970e+00
-1.317601e+00
5.749388e-01
-5.102096e+00
-1.182877e+00
2.208866e+00
-2.015339e+00
-2.727148e+00
-7.818773e-01
-2.791177e-01
-2.887004e+00
-3.001687e+00
9.170057e-01
1.166213e+00
-2.098125e-02
1.003100e+00
-7.127361e-02
-2.004568e+00
-5.683116e-01
-2.056309e+00
-3.247679e+00
8.938870e-01
-3.966334e+00
-1.191394e+00
-1.249250e+00
1.147535e+00
-1.318202e+00
-2.906907e+00
-1.030474e+00
1.651207e+00
3.991258e+00
-5.128504e+00
5.308631e+00
4.345760e-01
-8.595463e-01
7.663986e-01
7.028844e-02
-8.783002e-01
6.115050e-02
-5.601106e-01
-3.988768e+00
-8.772538e-01
-4.926555e+00
-3.167636e+00
-2.847354e+00
-1.448889e+00
6.343235e+00
1.681637e+00
-4.913166e+00
-4.713696e+00
-1.086029e+00
-1.483409e+00
-7.989089e+00
-5.638388e+00
-5.425345e+00
1.482326e+01
-1.248137e+01
7.656385e+00
-3.298074e+00
3.823042e+00
2.650796e+00
2.748397e+00
2.972995e+00
1.078745e+00
1.525238e+00
7.161158e+00
-4.352619e+00
1.836354e-01
-5.552270e+00
1.385087e+00
-2.298222e+00
-3.677856e+00
-2.640508e+00
1.809224e+00
4.748998e+00
7.371879e-01
5.185071e-01
3.850675e-01
4.638647e-02
-7.455383e-01
-1.290272e-01
3.473119e+00
-1.986914e+00
-2.222769e+00
-4.990204e-01
1.878654e+00
-3.148309e-01
-3.597497e-01
3.453135e-01
-1.802237e+00
2.413231e+00
1.756646e-01
-1.534345e+00
-3.386007e+00
-9.069922e-01
-3.291741e+00
1.517621e+00
-4.575955e-02
8.508988e-01
-3.339124e+00
-7.998578e-01
7.864182e-01
7.671510e-01
-5.528506e-01
-1.601436e+00
3.906370e+00
8.319589e-01
4.760424e-01
5.928099e-01
-1.140498e+00
-3.565617e+00
2.118173e+00
1.882855e-01
2.203431e+00
-4.132656e+00
-1.513879e+00
5.764052e+00
5.281285e+00
-2.585673e+00
2.844953e+00
-5.848180e-01
1.384279e+00
2.647684e+00
9.816800e-01
1.360226e+00
3.433406e+00
4.267206e+00
-5.161004e+00
3.324709e+00
-5.359385e-01
-2.106875e-01
-2.511899e+00
2.504222e+00
4.672120e-01
-1.223999e+00
-2.542118e-01
2.504579e+00
-3.315642e+00
2.116592e+00
-2.641368e+00
-4.036115e+00
-2.986812e+00
1.398527e+00
-1.790829e+00
2.496135e+00
-1.162130e+00
7.602161e-01
-9.250994e-01
-1.877216e+00
-2.903960e+00
-3.456044e+00
1.684550e+00
1.120942e+00
-3.333501e+00
-6.863445e-01
2.740984e+00
1.257301e+00
-4.432258e+00
-2.914871e+00
-8.300223e-01
4.645636e+00
-1.396467e+00
1.594342e+00
1.827138e+00
2.518366e+00
4.205008e+00
4.718063e-01
3.275629e-01
-1.821487e+00
-6.136405e-01
-5.334256e+00
-1.386334e+00
2.912296e+00
2.877468e+00
-7.725648e-01
2.512897e+00
1.882297e+00
-2.271793e+00
-3.492343e+00
-6.349904e-02
3.805318e+00
-2.775654e+00
-7.465875e-01
2.929442e-02
-1.747636e+00
-2.228537e+00
-8.240695e-01
-2.961446e+00
-5.163997e+00
-3.494173e+00
-1.566096e+00
1.849620e-01
-2.119934e+00
-3.280268e-01
1.497170e+00
-9.134657e-01
-2.413422e-01
-2.338736e+00
-3.569497e+00
-1.784152e+00
-1.162295e-01
-1.628341e+00
-1.817072e+00
5.997510e+00
-1.472276e+00
-1.312821e+00
2.252035e+00
9.084631e+00
-5.068180e+00
2.339596e+00
4.344570e-01
-3.184102e+00
3.359313e+00
5.196321e-01
-1.918471e+00
-3.783792e+00
5.273803e+00
-4.130983e+00
2.668083e+00
-1.429395e-01
7.000706e+00
-3.833857e-01
6.768627e+00
-1.011749e+00
2.472680e+00
3.087103e+00
2.810745e+00
-3.512866e+00
-3.161646e+00
-3.642776e+00
4.393015e+00
5.447907e+00
2.825286e+00
-1.144213e-01
-4.139889e+00
3.844283e+00
7.976810e-01
-6.353199e+00
8.625730e-01
-3.615831e-02
-1.390761e+00
4.163973e+00
-3.589533e-02
-1.631655e+00
3.574444e+00
2.124894e+00
-5.857771e+00
2.270824e+00
4.195488e+00
-2.401574e-01
-2.255223e+00
-3.048694e-01
3.613256e+00
-3.014127e+00
-6.073782e+00
-4.327026e+00
-2.721433e+00
6.067853e-01
-3.246490e+00
-2.838879e+00
-1.104933e+01
-8.105261e-01
-3.811757e+00
1.041488e+00
2.743176e+00
2.889363e+00
-1.357572e+01
3.247060e+00
-2.143484e+00
-4.815308e+00
-6.285418e+00
-6.502189e+00
-9.877722e+00
2.833953e+00
2.973184e-01
-7.172648e-01
1.121276e-01
8.587928e-01
-7.303697e+00
9.039145e+00
3.181919e-01
-4.561974e+00
-4.805617e-01
3.759669e-01
-1.453111e+00
-7.734664e+00
-1.610327e+00
1.790718e+00
-1.092229e+00
-1.793204e+00
9.658220e-01
-5.312577e+00
-3.074719e+00
2.272171e+00
5.360263e+00
-1.344154e-01
6.832974e-01
1.277387e+00
5.333408e-02
1.143104e-01
-4.680578e+00
1.833902e+00
-8.303094e-01
-2.309343e+00
-2.359953e+00
2.245496e-02
1.155372e+00
-6.567613e-01
3.472260e+00
3.742523e+00
-1.119805e+00
1.283348e+00
4.067732e+00
6.559409e+00
-5.167830e+00
-7.697116e-01
-6.790725e-01
-1.555251e+00
6.198310e+00
-1.950909e+00
1.731976e+00
-5.625395e+00
5.507168e+00
-2.345415e+00
-7.182934e+00
6.738372e+00
-7.160332e-01
-1.292582e+00
-1.282615e+00
4.056396e+00
-1.314476e+00
-2.170414e+00
-1.134166e+00
3.315292e+00
-2.590323e+00
-4.750261e-01
-2.266964e+00
8.106706e+00
-5.379404e+00
-2.491126e-01
1.989022e+00
5.034301e-01
1.849464e+00
-1.048910e+00
1.214118e+00
-1.815238e+00
2.964595e+00
1.730712e-01
2.859894e+00
-4.822525e+00
5.116185e+00
-1.624287e+00
5.379647e-01
3.711439e+00
-1.030780e+00
-2.748584e-01
-2.451292e+00
-8.903548e-01
4.306492e-01
3.069712e+00
-1.993790e+00
-1.151542e+00
1.717358e+00
-5.372080e+00
-6.468533e+00
1.791481e+00
-2.742751e+00
1.110027e+00
2.702935e+00
-4.025097e+00
-1.315208e+00
-5.023030e-01
1.269418e-02
-3.240588e+00
-6.816833e+00
3.388675e+00
1.898496e+00
-1.389718e+00
-3.772138e+00
3.527002e+00
1.001624e+00
-5.199364e+00
-3.074608e+00
4.166633e+00
-3.694273e+00
-8.659606e-01
-1.742938e+00
2.434753e-01
1.486920e+00
-4.525002e-01
5.855402e-01
2.653227e+00
3.219029e+00
1.847375e+00
-5.438539e-01
-1.790450e+00
3.425939e+00
-2.538044e+00
4.110466e+00
-3.560906e+00
-2.570014e+00
9.639040e-01
6.483355e-01
3.429228e-01
-4.607720e-01
4.045935e-01
-2.910798e+00
-1.780991e+00
-9.449814e-01
1.781060e+00
-3.693583e-01
-4.093844e+00
3.330677e+00
-5.203299e+00
2.793356e+00
9.423223e-01
5.659950e+00
-2.441780e+00
2.394259e+00
1.454857e-01
3.527139e+00
-3.440607e+00
2.339896e+00
-1.176765e+00
-3.686575e+00
3.595614e+00
5.849020e-02
-2.979045e+00
2.010372e-01
3.296959e+00
1.378594e+00
-5.823600e+00
-3.458222e+00
2.848385e-01
5.474115e-01
-1.841027e+00
-2.751473e+00
-1.235898e+00
-2.890182e+00
-1.035192e+00
-7.906942e-01
5.447687e+00
-2.006307e+00
-1.219469e+00
2.494991e+00
-2.114022e-01
4.084210e+00
1.036371e+00
-2.721107e+00
1.727730e+00
1.719060e+00
3.033657e-01
6.361593e+00
5.605174e+00
-5.754427e+00
-6.801892e+00
-2.053080e+00
2.129363e+00
-2.235377e+00
3.598903e-01
-4.440246e-02
-5.520069e+00
1.024817e+00
-4.277988e-01
-2.738271e+00
2.229962e+00
-6.689455e-01
4.203942e+00
3.047229e+00
-3.049680e+00
4.878148e+00
7.511174e-01
-2.925090e+00
1.980426e+00
-3.195126e-01
4.669492e+00
1.695979e+00
-4.296665e+00
-2.203651e+00
-5.976521e-01
-5.564455e+00
1.018015e+00
-1.231978e+00
7.466570e+00
4.715552e+00
-8.220894e+00
-1.129436e+00
4.911444e+00
-3.141819e+00
9.473421e-01
-2.275270e+00
-1.884095e-01
3.879441e+00
-4.244747e+00
-5.952683e+00
6.652338e+00
1.730500e+00
3.175970e+00
1.421522e+00
-2.122753e+00
3.003073e+00
-2.431028e-01
-5.050318e+00
7.911586e+00
3.955645e+00
6.060155e+00
3.612871e+00
-6.503916e-02
-1.976850e+00
1.947603e+00
4.319522e+00
5.249407e-01
-9.574949e-01
1.258044e+00
4.152335e+00
-2.740735e+00
9.933495e+00
-5.274704e+00
-8.466102e-02
5.724091e-01
-3.639414e+00
3.601343e+00
-6.051088e-01
9.779305e-02
6.289863e+00
-4.287664e+00
6.345941e-01
-2.541197e+00
3.381647e+00
1.185731e+00
-7.043676e-01
-5.088100e+00
-4.614099e+00
1.374568e+00
7.425317e-01
1.983061e-01
9.994375e-02
1.782313e-01
4.196080e+00
-4.166881e+00
-5.707839e+00
5.032841e+00
-3.743670e-01
-4.557307e+00
-5.271124e+00
2.190469e+00
1.981999e-01
-4.414496e-01
6.603211e-02
2.132810e+00
2.465568e-01
-4.918596e+00
-1.968518e-02
7.888911e+00
-4.541076e+00
-3.597304e-01
1.563060e+00
-2.685930e+00
-6.325751e+00
8.761202e+00
-2.296931e-01
-2.636359e+00
-1.042197e+00
-5.527834e-01
2.569660e+00
3.912271e+00
1.127837e+00
-2.398719e+00
3.483931e-01
1.739048e+00
-8.649884e+00
1.076821e+01
8.054556e-01
-2.397496e+00
-2.931200e+00
6.318970e-01
-9.356512e-02
2.977225e+00
-2.715942e+00
-3.099884e+00
-3.442175e+00
3.969283e+00
1.534788e+00
-3.314677e+00
1.238329e+00
-2.447608e+00
1.676761e+00
3.173967e+00
-5.805071e-01
7.527964e-01
-2.055617e+00
-1.158229e+00
7.101220e+00
5.047339e+00
-2.360186e+00
-1.884722e+00
4.938303e+00
7.161279e+00
2.719232e+00
1.458987e+01
5.390179e+00
-8.401668e+00
-6.418430e+00
-5.262925e-02
-9.077656e+00
-6.237619e-01
-4.785259e+00
6.996527e-01
3.458396e-01
3.972783e-01
-5.654068e+00
-3.332299e+00
-4.363010e+00
-3.032533e+00
-3.848890e-01
-5.117702e+00
6.542302e+00
6.208677e+00
-3.347736e+00
-3.826362e+00
-8.428886e+00
-5.585591e+00
1.026789e+00
-1.006206e+00
-1.794837e+00
-5.163464e+00
-7.924545e+00
-9.808235e+00
-7.732082e+00
-1.009884e+01
-5.730142e+00
-9.562688e+00
-8.099353e+00
-3.593805e+00
-9.240896e+00
-1.153495e+01
-1.354093e+01
-8.050722e+00
-6.818684e+00
-1.220626e+01
1.365825e+01
1.170042e+01
1.063521e+01
6.503368e+00
7.692953e+00
2.343203e+01
7.436779e+00
2.159109e+01
-4.718944e+00
3.959939e+00
-6.836003e+00
-3.941821e+00
-8.349589e-01
-3.990914e+00
-1.809371e-01
-6.477650e-01
-5.779517e+00
-5.610812e+00
-5.384127e+00
-5.368962e+00
-6.198840e+00
-4.230011e+00
-1.716933e+01
-1.279397e+00
-7.434374e+00
-5.444942e+00
-1.040469e+01
-2.573974e+00
-8.400165e+00
-3.203517e+00
-7.952809e+00
-8.879317e+00
-9.433490e+00
-1.139007e+01
-1.466495e+01
-5.362849e+00
-9.468360e+00
-4.129686e+00
-1.781146e+01
-4.813314e+00
-1.544376e+01
-1.284640e+01
-9.199821e+00
-1.036528e+01
-1.477001e+01
-1.549336e+01
-1.200598e+01
-9.557922e+00
1.716234e+01
1.956213e+01
1.030068e+01
1.079464e+01
4.905282e+00
3.862498e+00
3.551564e+00
3.953949e+00
-6.447427e+00
1.947551e+00
4.214260e+00
-1.938989e+00
-3.619398e+00
2.849104e+00
-2.777955e+00
3.965116e+00
-2.707337e+00
-5.030189e+00
-8.878167e+00
-8.449966e+00
-6.274689e+00
1.155611e+00
-7.789213e+00
-6.515724e+00
-6.445372e+00
-1.269092e+01
-1.305373e+00
-1.119065e+00
3.140399e+00
-5.400958e+00
-8.872610e+00
-7.320641e-01
-9.647134e+00
-2.334908e+00
9.181928e-01
-8.333288e+00
-7.799847e+00
5.004468e+00
-4.592947e+00
1.855962e+00
-1.691015e+01
-7.697646e+00
-1.692096e+01
-1.359629e+01
-6.644315e+00
-4.749218e+00
-4.575463e+00
-5.334244e+00
-6.212390e+00
1.545979e+00
1.822965e+00
-8.334015e+00
-1.227930e+01
-7.185734e+00
-1.042886e+01
-3.879901e+00
-1.620658e+00
-6.551256e+00
3.058550e-01
3.528956e+00
-1.014713e+01
-3.833048e+00
-4.169103e+00
-1.026184e+01
-1.044787e+01
-1.074736e+01
-2.082313e+00
3.982889e+00
-6.222855e+00
-1.869220e+00
1.341877e-01
5.452053e-01
-1.524280e+00
-9.275514e+00
7.190891e+00
1.434202e+01
-1.069890e+00
7.550389e+00
-4.062985e-01
7.074837e+00
-7.838888e+00
-2.207046e+00
5.456235e-01
-3.581487e-01
-4.418738e+00
4.771933e+00
-3.846988e+00
1.199416e+01
-4.914605e+00
8.853569e-01
1.584106e+00
1.420047e+01
1.496328e+01
1.057976e+01
8.386990e+00
5.844515e+00
-1.015808e+01
-1.294983e+01
-2.167464e+01
-1.952703e+01
-2.960330e+01
-1.488044e+01
-1.800820e+01
-2.829887e+01
-9.276398e+00
-1.791926e+01
-6.906047e+00
-7.288261e+00
-4.224422e-01
-1.956056e+01
-1.067509e+01
-1.350296e+01
-6.806941e+00
3.544112e+00
8.872381e+00
2.819882e+00
1.348220e+00
-4.374844e+00
-3.255682e+00
4.280764e+00
-2.772440e+00
2.058207e+00
1.207346e+01
8.472872e+00
5.732351e+00
1.269956e+01
1.412046e+01
7.421688e+00
2.276608e+00
9.500323e+00
1.329305e+01
8.828373e+00
1.173381e+01
1.709878e+01
1.370673e+01
1.639875e+01
4.209881e+00
7.368593e+00
1.867851e+01
1.592557e+01
1.193129e+01
1.194455e+01
9.599170e+00
1.453224e+01
-2.472062e+01
-3.320676e+01
-1.980300e+01
-2.302873e+01
-2.208552e+01
-2.164039e+01
-1.894390e+01
-1.797423e+01
-1.916530e+01
-1.620249e+01
-3.116667e+00
-8.317284e+00
-6.465561e+00
-7.580306e+00
-1.385484e+01
-1.465499e+01
2.187857e+00
-1.255339e+00
5.029815e+00
1.212824e+01
1.484171e+01
6.583325e+00
1.163467e+01
6.740458e+00
1.232680e+01
1.022733e+01
2.170060e+01
1.671674e+01
2.497161e+01
2.427940e+01
2.436275e+01
1.708667e+01
2.094969e+01
1.715861e+01
1.215984e+01
1.498389e+01
1.588133e+01
1.132708e+01
1.342843e+01
1.184406e+01
1.742863e+01
8.131112e+00
-1.021318e+00
7.271487e+00
2.692740e+00
1.905409e+00
2.334724e+00
7.731893e+00
-9.916999e+00
-1.512281e+01
-5.233757e+00
-1.954908e+01
-5.077687e+00
4.590934e-01
-4.652011e+00
-3.526905e+00
-9.752351e+00
-8.221513e+00
2.806206e+00
-2.011677e+00
2.551320e+00
2.267294e+00
7.810814e+00
1.593140e+00
4.444039e+00
1.001238e+01
2.178369e+01
1.045164e+01
1.334542e+01
9.151933e+00
2.338620e+01
1.760682e+01
1.479804e+01
3.308871e+01
1.959869e+01
1.633365e+01
2.179392e+01
1.598626e+01
1.795470e+01
9.534853e+00
1.339834e+01
1.754861e+01
6.234520e+00
5.854409e-01
1.112440e+00
1.140237e+01
2.337141e+00
1.240330e+01
2.323178e+00
2.722577e+00
2.503683e+00
-4.108213e+00
-9.448217e+00
-4.609975e+00
-1.077455e+00
-4.814391e+00
5.032044e+00
5.468573e+00
3.921538e+00
9.171980e+00
1.967738e+01
4.645651e+00
4.627322e+00
9.321156e+00
1.226748e+01
6.412147e+00
6.542405e+00
8.447056e+00
1.086270e+01
1.231325e+01
5.412953e+00
1.042468e+01
9.172413e+00
1.034118e+01
7.542764e+00
1.899245e+01
1.130004e+01
6.203326e+00
7.006560e+00
1.017052e+01
1.939982e+01
1.980286e+01
1.529480e+01
9.130091e+00
1.428142e+01
1.407881e+01
6.588240e+00
2.796198e+01
1.632881e+01
1.496205e+01
-2.925804e+00
-8.475977e-02
2.484107e+00
1.334381e+01
1.002503e+01
4.871854e+00
-2.569685e+00
-5.948863e+00
-3.148269e+00
-7.958863e+00
1.870229e+00
3.377873e+00
-9.983057e-01
5.308898e+00
1.466336e+01
5.917230e+00
2.495308e+00
1.509862e+01
5.296098e+00
5.906169e+00
4.415627e+00
5.715951e+00
2.415600e+00
1.058412e+01
1.234682e+01
1.393437e+01
4.184189e+00
1.054823e+01
7.082123e+00
1.185826e+00
2.626147e+00
6.381705e-01
1.357009e+01
1.272696e+01
-4.048663e+00
3.819108e+00
-1.529082e+01
1.332755e+01
4.365089e+00
3.152727e+00
1.145614e+01
1.688156e+01
1.009818e+01
2.538976e+00
6.373331e+00
3.543678e-01
1.042425e+01
1.393555e+01
1.577691e+01
8.242315e+00
2.999515e+01
1.877884e+01
2.841048e+01
2.074457e+01
1.699645e+01
1.718251e+01
8.562539e+00
1.216751e+01
3.795547e+01
3.030632e+01
3.605226e+01
2.881102e+01
1.198722e+01
2.047780e+00
5.960018e+00
1.100875e+01
4.630626e+00
9.978891e+00
5.224972e+00
5.546734e+00
4.315160e-02
-2.148796e+00
4.960148e+00
1.150863e+01
-1.452543e+01
1.297949e+01
-2.093382e+01
6.982004e+00
-3.738936e+00
-7.269856e+00
-1.229455e+01
-4.675378e+00
-1.639833e+01
-8.219575e-01
-2.264716e+01
8.361004e+00
-1.772297e+01
-2.173919e+01
-5.381688e+00
-2.901017e+00
-3.638919e+01
-1.943302e+01
-3.773759e+01
-1.932644e+01
2.425159e+01
2.594444e+01
4.098764e+01
4.118449e+01
5.253363e+01
-9.327157e-01
5.584268e+01
6.953335e+00
3.708875e+01
4.568362e+01
5.655108e+01
5.657288e+01
5.075595e+01
6.811015e+01
5.405216e+01
7.444398e+01
-4.074663e-01
5.742328e+00
1.023220e+01
1.272407e+01
-1.241348e+01
1.020116e+01
-2.016859e+01
1.141391e+01
-1.136971e+01
-4.577692e+00
2.702797e+00
9.008381e-01
-1.456616e+01
1.205192e+01
-1.468769e+01
9.985073e+00
-3.136549e+01
-2.912065e+01
1.572689e+01
7.347879e+00
-4.053709e+01
1.056235e+01
-2.876693e+01
-8.085818e-02
-3.121927e+01
-3.407257e+01
-4.404721e+01
-3.446784e+01
-2.041814e+01
1.508384e+01
-2.443127e+01
1.299251e+01
-2.443950e+01
-3.434185e+01
6.416335e+01
6.958405e+01
-4.106205e+01
-3.114628e+01
-3.090475e+01
-3.933474e+01
8.169197e+01
9.036310e+01
-8.269104e+00
-7.165339e+00
-1.881472e+02
-4.880231e+01
-1.918520e+02
-4.767442e+01
-7.014992e+00
-9.867309e+00
1.543114e+01
5.906909e+00
2.020192e+00
1.439200e+01
-3.602464e+00
1.895128e+01
-1.397580e+01
-1.859234e+01
1.432223e+01
1.308348e+01
-2.739075e+01
2.636011e+01
-1.887099e+01
2.755356e+01
-1.429754e+01
-1.441551e+01
-9.126482e+00
-1.926584e+01
-3.153505e+01
8.433675e+00
-2.543938e+01
6.559504e+00
-2.355802e+01
-2.283406e+01
1.238336e+01
1.611844e+01
-9.790819e+01
-5.000902e+01
-1.001598e+02
-5.350728e+01
-1.244116e+02
-1.232756e+02
-3.440743e+02
-3.517842e+02
-5.338088e+02
-3.097736e+02
-5.406345e+02
-3.103391e+02
-4.585911e+02
-4.456527e+02
-3.769482e+02
-3.752945e+02
-2.884915e+02
-4.827061e+02
-2.791101e+02
-4.845942e+02
3.732447e+01
2.300719e+01
3.983549e+01
3.925589e+01
5.412653e+01
5.559641e+01
5.596530e+01
5.693334e+01
1.098632e+01
1.399951e+01
1.531416e+01
5.195154e+00
-1.882326e+01
3.126556e+01
-1.373582e+01
3.713876e+01
-6.043289e+01
-5.849001e+01
9.110246e+00
1.605033e+00
-1.224994e+02
-5.403205e+00
-1.137927e+02
-5.809535e+00
-1.212103e+02
-1.044603e+02
-3.639755e+02
-3.697273e+02
-3.151977e+02
-1.677822e+02
-3.159884e+02
-1.699970e+02
-3.360712e+02
-3.440750e+02
-1.507572e+02
-1.479009e+02
-1.556162e+02
-3.160331e+02
-1.495539e+02
-3.191635e+02
-1.712779e+02
-1.805461e+02
-1.072376e+02
-1.012584e+02
-7.603003e+01
-2.669030e+01
-7.508412e+01
-2.562849e+01
6.422145e+01
6.927467e+01
5.815231e+01
5.774537e+01
4.983213e+01
9.882006e+01
6.057928e+01
9.259022e+01
1.906576e+01
2.757058e+01
1.615408e+01
1.163451e+01
2.795428e+01
3.948756e+01
3.133107e+01
3.438178e+01
-1.147125e+01
-9.560712e+00
-9.109009e+01
-8.696850e+01
-1.539791e+02
-2.501346e+01
-1.456746e+02
-3.042854e+01
-3.192049e+02
-3.159843e+02
-1.623806e+02
-1.704106e+02
-8.750237e+01
-9.310450e+01
-8.557578e+01
-9.823328e+01
-3.129573e+01
-2.561357e+01
-1.873971e+01
-1.570926e+01
6.129992e+00
5.686725e+01
-8.950087e-01
5.619545e+01
-9.702893e+01
-9.312946e+01
-4.074805e+01
-3.952978e+01
4.050930e+01
3.336873e+01
4.147902e+01
3.293659e+01
4.982948e+01
6.377854e+01
6.421417e+01
5.765965e+01
8.730867e+01
4.841301e+01
8.232689e+01
4.539342e+01
6.034974e+01
6.428493e+01
5.743315e+01
6.383083e+01
6.480092e+01
1.125796e+02
7.000510e+01
1.030930e+02
-3.413504e+01
-3.144579e+01
-7.807349e+01
-7.898784e+01
-9.168385e+01
-1.568778e-01
-9.485848e+01
5.520446e+00
-1.424605e+02
-1.439119e+02
2.771687e+00
1.605764e+00
-4.680443e+01
-1.970775e+01
-5.933659e+01
-2.340297e+01
-6.127583e+01
-7.401641e+01
-8.163993e+01
-6.942475e+01
-6.544592e+01
5.571084e+01
-7.436423e+01
6.963953e+01
-4.268771e+01
-5.326410e+01
2.224574e+01
3.347542e+01
2.653751e+02
-9.977352e+01
2.517871e+02
-1.084306e+02
6.657067e+01
7.231746e+01
1.510092e+02
1.501095e+02
1.324021e+02
1.038501e+02
1.384839e+02
1.067097e+02
1.429979e+02
1.514844e+02
1.429495e+02
1.326716e+02
1.931317e+02
2.104025e+02
2.103084e+02
2.172025e+02
6.380602e+01
6.091382e+01
4.930323e+01
4.525482e+01
4.246542e+02
2.287299e+02
4.164537e+02
2.224628e+02
2.787565e+02
2.745510e+02
2.827334e+02
2.796076e+02
8.506071e+02
4.974069e+02
8.437576e+02
4.960298e+02
-6.904214e+01
-9.238857e+01
2.313689e+02
2.440854e+02
1.361990e+03
1.194063e+03
1.219405e+03
1.111102e+03
5.917818e+02
6.694378e+02
7.752680e+02
7.842084e+02
9.168819e+02
1.599901e+03
9.892527e+02
1.710783e+03
5.438154e+01
2.860646e+01
1.515028e+02
1.567619e+02
1.375756e+02
2.087673e+02
1.393151e+02
2.020782e+02
2.603094e+02
2.664542e+02
2.112195e+02
2.077451e+02
2.526344e+02
3.444630e+01
2.389114e+02
5.229249e+01
3.461167e+02
3.366296e+02
5.206508e+02
4.974011e+02
8.713528e+02
5.145085e+02
8.399560e+02
4.975552e+02
7.937734e+02
7.766811e+02
8.673908e+02
8.689129e+02
1.009953e+03
9.258393e+02
1.011968e+03
9.107912e+02
1.149101e+03
9.101137e+02
1.446479e+03
1.228229e+03
1.864442e+03
1.540634e+03
1.603788e+03
1.425005e+03
1.036496e+03
1.115096e+03
7.189320e+02
8.576639e+02
7.977238e+02
1.535511e+03
8.579369e+02
1.692605e+03
1.708937e+02
1.585573e+02
1.667145e+02
1.592516e+02
1.642861e+02
1.434930e+02
1.736188e+02
1.519809e+02
1.946264e+02
2.060704e+02
1.691950e+02
1.750163e+02
2.818650e+02
2.326994e+02
2.866452e+02
2.391192e+02
2.940953e+02
2.773485e+02
3.800439e+02
3.719789e+02
1.421621e+02
1.219940e+02
1.244886e+02
1.259447e+02
5.475606e+02
5.345097e+02
6.003712e+02
5.764273e+02
2.584418e+02
2.371873e+02
2.541281e+02
2.232569e+02
3.264174e+02
3.084815e+02
-9.174161e+01
-1.492901e+02
1.853116e+02
2.216410e+02
1.774247e+02
2.343364e+02
4.728165e+00
2.426651e+01
7.677585e+02
7.659705e+02
3.411664e+02
1.094193e+02
3.397344e+02
1.100410e+02
1.699771e+02
1.686477e+02
1.414197e+02
1.394787e+02
1.223459e+02
1.562097e+02
1.330615e+02
1.574703e+02
1.922650e+02
1.987694e+02
2.760327e+02
2.821965e+02
1.918345e+02
9.041630e+01
1.843968e+02
9.038202e+01
2.418168e+02
2.549987e+02
3.998308e+01
4.847861e+01
1.238499e+02
2.437390e+02
1.333785e+02
2.406264e+02
3.106909e+01
2.277160e+01
1.222039e+02
1.192277e+02
2.093591e+01
-8.164500e+00
1.494157e+01
1.750605e+00
1.906895e+02
1.876500e+02
1.882417e+02
1.889804e+02
3.465529e+01
3.089411e+01
3.112036e+01
2.477144e+01
2.537964e+02
2.393465e+02
1.903142e+02
1.962968e+02
1.527434e+02
5.822551e+01
1.487483e+02
6.536306e+01
1.423075e+02
1.436991e+02
1.171476e+02
1.102090e+02
1.222750e+02
1.229911e+02
1.397216e+02
1.206778e+02
9.757126e+01
8.999856e+01
5.586215e+01
4.993027e+01
7.447058e+01
9.865767e+01
7.678540e+01
1.041328e+02
1.295361e+02
1.321718e+02
1.271435e+02
1.266407e+02
1.105129e+02
7.271797e+01
1.266215e+02
6.216530e+01
-2.694973e+00
-4.338616e+00
2.606156e+01
2.605292e+01
-2.871181e+01
7.583898e+01
-1.137891e+01
7.191816e+01
1.166267e+02
1.188908e+02
1.224076e+02
1.186379e+02
1.060569e+02
2.881457e+01
1.013062e+02
1.889348e+01
1.481278e+02
1.320823e+02
9.139704e+01
1.033817e+02
8.083865e+01
5.624550e+01
8.513870e+01
5.442202e+01
9.667980e+01
9.134240e+01
1.073213e+02
1.182937e+02
7.667432e+01
6.071382e+01
7.766501e+01
7.099029e+01
9.768984e+01
1.031801e+02
6.240935e+01
6.655832e+01
5.098552e+01
6.169428e+01
5.396271e+01
6.205773e+01
8.413787e+01
8.964531e+01
1.162015e+02
1.122605e+02
5.888191e+01
3.374109e+01
5.635355e+01
3.354252e+01
1.448885e+02
1.454050e+02
1.028107e+02
1.074598e+02
-8.530082e+01
-2.736344e+01
-8.840461e+01
-1.764975e+01
1.985361e+02
2.020568e+02
2.096323e+02
1.998149e+02
-2.045266e+02
-2.739640e+02
-2.068196e+02
-2.825133e+02
4.694470e+01
5.330284e+01
8.301928e+01
7.640286e+01
1.537863e+02
1.731293e+02
1.481374e+02
1.778039e+02
4.021205e+01
5.437817e+01
5.099780e+01
4.818325e+01
3.718679e+01
4.368663e+01
3.265851e+01
3.941475e+01
5.273283e+01
6.205879e+01
4.115635e+01
4.084530e+01
4.590931e+00
5.823615e+01
1.507832e+01
5.672275e+01
1.181217e+01
-2.910427e+00
-3.798492e+01
-2.767839e+01
-2.373827e+01
-7.830523e+01
-4.642532e+01
-7.265463e+01
-1.619913e+01
1.872888e+00
-1.861420e+02
-2.071227e+02
-2.329000e+02
-3.508493e+01
-2.355304e+02
-5.971779e+01
-3.742874e+02
-3.562199e+02
-3.684160e+02
-3.330208e+02
-4.380878e+02
-4.946946e+02
-4.116127e+02
-4.938287e+02
-5.191075e+00
6.887246e+00
-4.299790e-01
-1.089357e+01
-3.030741e+00
-6.043014e-01
2.016264e+00
-3.794176e-02
4.248073e+00
5.073110e-01
-4.334935e+00
1.762566e+00
3.627915e+00
-4.022250e+00
2.899652e+00
-1.102048e+00
3.404696e-01
1.210799e+00
-6.222438e-01
-4.272031e-01
-1.000915e+00
-2.635714e+00
-1.965373e+00
4.730325e-02
-7.487435e+00
3.506776e+00
-5.741224e-01
-3.287103e+00
5.134782e+00
-6.618987e+00
-3.445244e+00
-7.301208e+00
-2.141714e-01
-5.809471e-01
-7.412221e+00
7.139111e+00
-9.309315e-01
1.368706e+00
-9.978131e+00
5.652992e+00
3.266105e+00
-3.793120e+00
-2.237177e+00
5.170746e+00
8.058078e+00
-2.235098e+00
-3.655671e+00
9.636822e+00
3.236522e+00
-7.002993e+00
-9.216481e-01
-2.132127e+00
-7.416009e+00
1.587269e+00
3.965430e+00
-7.163950e+00
-3.477443e+00
6.068914e+00
2.139205e+00
-6.065506e+00
-7.799320e+00
3.178892e+00
9.048809e-01
1.638655e+00
-6.369682e+00
1.798942e+00
4.153266e-01
-3.835895e+00
-8.856353e+00
4.892403e-02
-8.598109e-02
-1.032624e+01
1.727365e-01
-1.360584e+00
-3.836040e+00
-5.821997e-01
-5.795106e+00
-5.800216e+00
-6.296506e+00
-2.852633e+00
3.179823e+00
-1.554122e+01
-7.274775e+00
1.812510e+00
-1.017230e+01
-5.118047e+00
-1.214569e+01
-6.639466e+00
1.103326e-01
-1.146571e+01
-1.339770e+01
-5.955513e+00
-1.692906e+01
-1.747245e+01
-1.581745e+01
-6.443325e+00
-1.263492e+01
-1.740177e+01
-3.161495e+01
-3.778651e+01
-4.012078e+01
-2.281226e+01
-2.883471e+01
-2.299179e+01
-2.019298e+01
-1.682108e+01
2.296605e+01
1.753205e+01
-3.237413e+01
-6.163754e+01
-2.304198e+01
-6.227254e+01
-1.773331e+01
-1.537623e+01
9.202807e-01
7.243225e+00
-3.803942e+01
2.651609e+01
-4.606364e+01
2.510093e+01
4.137749e+01
4.557619e+01
1.540641e+01
1.720515e+01
1.606920e+02
3.572463e+01
1.635465e+02
2.759478e+01
-6.482138e+00
-6.276865e+00
4.180979e+00
1.248535e+01
1.578074e+02
1.405853e+02
1.447201e+02
1.381136e+02
2.653189e+01
2.826851e+01
3.700141e+01
2.188856e+01
1.329940e+02
1.715603e+02
1.361507e+02
1.716011e+02
-1.062346e+00
1.347385e+01
-9.287020e-01
-7.448667e+00
-1.332159e+01
7.228110e+01
-3.138421e+00
5.414215e+01
-2.327254e+01
-3.141692e+01
4.439316e-01
-8.222322e+00
-1.322908e+01
-1.562636e+01
-2.404320e+01
-1.883032e+01
7.535584e+00
-4.249087e+00
1.752126e+01
1.323444e+01
1.704891e+01
2.130375e+01
1.615268e+01
2.501778e+01
1.577389e+00
1.469720e+01
2.442654e+01
8.256426e+00
2.522416e+01
2.634247e+01
3.385338e+01
2.491583e+01
-5.030788e-01
-1.300171e+00
4.450405e+00
-1.336794e-01
-2.219493e+00
4.453518e+00
3.640058e+00
-2.006224e+00
-1.970705e-01
-6.024221e+00
2.428801e+00
3.294559e+00
-8.569649e+00
-1.838712e+00
4.950126e+00
-1.192579e+00
-5.822102e-01
-4.745446e+00
-2.308160e+00
-3.429396e+00
-4.087902e+00
-3.693567e-01
-3.022160e+00
-4.676840e+00
-1.247966e+01
-4.331793e+00
4.483823e+00
9.139206e+00
1.241051e+01
2.263358e+00
-3.637245e-01
-3.840888e+00
1.647409e+00
-3.214307e+00
2.608138e-01
-1.134806e-01
-4.093028e+00
-3.120061e+00
4.670814e+00
1.744693e+00
-2.845472e+00
5.702808e+00
-1.992883e+00
4.205507e+00
2.681608e+00
-6.936256e+00
-8.914762e+00
7.949727e+00
-1.771430e+00
-2.352658e+00
-7.116053e-01
1.689696e-02
-5.557864e+00
-1.090696e+00
2.003275e+00
-2.186949e-01
-4.052101e+00
4.577890e-01
5.141627e-01
-4.615441e+00
-3.946328e+00
5.777353e+00
-7.299130e+00
-3.530979e+00
-1.046858e+01
-6.562061e+00
-4.551186e+00
-1.065706e+01
-1.343438e+01
-5.455788e+00
-1.184969e+01
-7.232083e+00
-1.217306e+01
-8.314239e+00
-7.619659e+00
-1.191906e+01
-1.369829e+01
-1.410736e+01
-1.539313e+01
-1.118468e+01
-1.291129e+01
-2.008811e+01
-2.602443e+01
-1.250718e+01
-2.578176e+01
-2.614743e+01
-3.341125e+01
-2.037164e+01
-1.894413e+01
-2.626354e+01
-2.872864e+01
-2.341391e+01
-2.756525e+01
-2.128979e+01
-2.871957e+01
-2.633075e+01
-4.346564e+01
-4.233771e+01
-6.132930e+01
-6.098865e+01
-7.014112e+01
-4.301912e+01
-6.876836e+01
-5.153529e+01
-7.388606e+01
-6.870263e+01
-7.258799e+01
-6.899710e+01
-2.982900e+01
-8.420070e+01
-3.867818e+01
-7.673537e+01
7.450399e+00
1.980833e+01
9.437952e+01
7.943379e+01
2.276161e+02
2.667844e+01
2.329364e+02
2.520433e+01
2.599591e+01
3.593667e+01
1.578609e+02
1.569471e+02
7.959845e+01
2.551449e+02
7.662768e+01
2.541677e+02
3.676664e+02
3.922989e+02
3.889623e+02
3.819699e+02
1.053251e+02
1.014876e+02
1.253867e+02
1.166287e+02
2.993570e+02
3.087209e+02
2.180023e+02
2.088428e+02
1.621027e+02
1.153121e+02
1.553890e+02
1.146240e+02
1.170991e+02
1.294496e+02
6.051016e+01
5.757165e+01
1.310755e+02
1.865550e+02
1.357616e+02
1.881842e+02
3.497583e-01
1.182453e+00
9.067999e+00
2.295049e+01
3.460934e+01
7.193830e+01
3.694158e+01
7.727001e+01
2.970052e+01
2.144332e+01
4.458871e+01
4.179651e+01
6.794490e+01
5.830878e+01
7.707713e+01
5.455496e+01
3.521771e+01
3.352004e+01
4.612012e+01
5.767755e+01
8.679882e+01
6.189462e+01
6.078049e+01
6.138426e+01
-1.623203e+00
-4.463140e+00
5.841109e+00
-4.295266e+00
4.320028e-01
-5.696379e+00
-3.479702e+00
-4.898597e+00
-2.828473e+00
1.345397e+00
-1.088963e-01
-8.279435e+00
-3.420814e+00
1.150939e+00
-4.104872e+00
1.312671e+00
-6.659540e+00
3.744402e+00
-5.073693e+00
6.518244e+00
5.602636e+00
1.488350e+00
-4.463832e+00
6.528570e-01
7.487508e+00
-1.453072e+00
-3.602443e+00
7.611426e+00
3.068816e+00
-2.399994e+00
-7.172099e-01
1.224382e+01
2.643486e+00
2.554378e+00
-3.530211e+00
-1.225946e+00
-6.081418e-01
7.985782e-01
8.819598e+00
-2.892257e+00
6.458169e+00
2.358645e-01
-9.645108e-01
-7.433510e+00
3.794815e+00
3.994572e+00
-6.249516e+00
-5.256437e+00
2.700868e+00
-3.130161e+00
-9.166815e-01
-7.879302e+00
-3.842730e+00
-9.573757e+00
1.361271e+00
4.147246e+00
-3.154366e+00
2.802179e+00
5.427726e+00
-4.538352e+00
-2.875935e+00
-1.273828e+00
-6.218981e+00
1.767728e-01
-1.103260e+01
-5.935331e+00
-1.380689e+01
-5.413756e+00
-3.251084e+00
-6.607444e+00
-9.957875e+00
-6.321940e+00
-8.215440e+00
-1.532564e+01
-1.302465e+01
-1.272924e+01
-1.337369e+01
-6.219996e+00
-1.574323e+01
-5.038222e+00
-2.292043e+01
-2.866146e+01
-2.164853e+01
-2.791227e+01
-2.117221e+01
-2.675063e+01
-1.765399e+01
-2.201099e+01
-2.117033e+01
-1.928056e+01
-1.860379e+01
-1.356401e+01
-3.929614e+00
-1.117805e+01
-5.626905e+00
-1.405180e+01
-1.702711e+01
-2.182345e+01
-5.126846e+01
-5.136439e+01
-1.884783e+01
-1.899822e-01
-1.905973e+01
9.277291e-01
-4.118962e+01
-4.245392e+01
1.027697e+01
2.387647e+01
2.034929e+01
-3.780148e+01
3.320766e+01
-3.880982e+01
1.545491e+02
1.574559e+02
2.566692e+02
2.484040e+02
1.637524e+02
1.305653e+02
1.651381e+02
1.201765e+02
3.686432e+02
3.760289e+02
2.472356e+02
2.280824e+02
2.818796e+02
2.034929e+02
2.765004e+02
2.183234e+02
-1.320979e+02
-1.535471e+02
-1.983618e+02
-1.944573e+02
1.069830e+02
2.096698e+02
8.615978e+01
1.902212e+02
-1.079232e+02
-9.484569e+01
8.115601e+00
8.409649e+00
-3.774043e+01
3.146913e+01
-3.061592e+01
3.456280e+01
9.352019e+01
8.502579e+01
1.212131e+02
1.189770e+02
-5.641966e+01
-4.999303e+01
-5.941619e+01
-4.191530e+01
4.972876e+01
5.511622e+01
4.580780e+01
4.864952e+01
-6.323464e+00
-1.504651e+01
3.692924e+00
-1.008322e+01
8.349907e+01
8.105647e+01
8.946637e+01
8.769477e+01
9.620166e+01
4.196237e+01
1.051260e+02
3.486721e+01
1.114391e+02
9.502819e+01
7.827874e+01
7.725909e+01
2.868250e+01
9.540335e+01
4.711970e+01
9.106003e+01
-8.520948e+00
-4.509157e+00
2.484127e+00
-1.147540e+00
-1.272314e+00
-6.552302e+00
-5.989499e+00
4.882163e-01
-2.163921e-01
-4.585317e-01
3.794414e+00
-2.242035e+00
1.761704e+00
2.368644e+00
4.052386e-01
3.928843e+00
-1.339954e+00
1.834363e-01
-4.400662e+00
3.076483e+00
7.934884e-01
-4.247925e+00
-4.010870e+00
2.505569e+00
6.367825e+00
1.926247e+00
9.633355e+00
-7.013458e+00
7.392503e+00
2.517034e+00
3.594698e+00
3.211001e+00
2.548760e+00
2.401506e+00
7.437218e+00
-2.107187e+00
-2.890615e+00
1.970342e-01
1.120351e+01
5.311543e+00
-1.885343e+00
5.141466e+00
-4.072495e+00
-5.293650e+00
-6.533972e+00
3.431184e+00
-3.983504e+00
-1.359161e+00
-8.309931e+00
3.583290e+00
4.640057e+00
-2.981467e+00
-2.362861e+00
-1.267405e+00
3.614980e+00
-4.303351e+00
-2.548314e+00
-4.214858e+00
-1.164676e+01
-2.184210e+00
2.677092e+00
-6.746180e+00
-8.849006e+00
-2.412120e+00
-2.474372e+00
-6.289314e+00
-4.669009e+00
-4.540080e+00
-5.471229e+00
-4.491067e+00
-7.663355e+00
2.130974e+00
-2.250053e+00
-1.106108e+01
-1.810072e+01
-8.811590e+00
-9.116789e+00
-4.391196e+00
-1.267772e+01
-4.735059e+00
-2.189246e+01
-2.873802e+01
-2.348076e+01
-1.455083e+01
-1.233405e+01
-2.385840e+01
-6.723373e+00
-2.236634e+01
-9.003030e+00
-1.055976e+00
1.673563e+01
1.735190e+01
8.822732e+00
3.014419e+01
8.376065e+00
2.088611e+01
-1.743841e+01
-1.028013e+01
-5.501722e+01
-6.039475e+01
-1.310101e+02
-7.593193e+01
-1.246184e+02
-7.602443e+01
-6.246616e+01
-6.620419e+01
-1.257900e+01
-2.142953e+01
-2.075579e+01
-4.671909e+01
-2.247926e+01
-4.421834e+01
-1.707143e+01
-9.911370e+00
9.613905e+00
1.149897e+01
-1.572475e+02
-1.282840e+02
-1.569252e+02
-1.274697e+02
1.075192e+02
1.096792e+02
1.666462e+02
1.719219e+02
-6.419440e+01
-1.122197e+02
-5.382439e+01
-1.023410e+02
2.558063e+02
2.475166e+02
2.816353e+02
2.894510e+02
2.414009e+01
1.254331e+01
2.435542e+01
3.482816e+01
2.554714e+02
2.431928e+02
9.173993e+01
8.562097e+01
-1.408033e+02
-9.774203e+01
-1.369846e+02
-8.514238e+01
-1.226154e+02
-1.190483e+02
-6.834789e+01
-6.259744e+01
-5.764081e+01
-1.088717e+02
-6.532542e+01
-1.032272e+02
-5.757726e+00
-8.663725e+00
-4.074338e+01
-4.132819e+01
2.356438e+01
3.680213e+01
2.668657e+01
4.613318e+01
-1.737711e+00
1.868229e+00
4.902354e+01
4.741848e+01
-2.687207e+01
-1.577003e+01
-1.518695e+01
-2.178950e+01
2.586871e+01
3.325540e+01
-4.449195e+01
-3.886639e+01
-1.124849e+02
-5.712838e+01
-1.175965e+02
-5.828505e+01
-3.551970e+00
-3.895572e+00
-9.146340e+00
3.117349e+00
-3.463693e+00
-3.334599e+00
6.858862e-01
-6.494751e+00
1.190304e+00
2.142051e+00
-2.962034e+00
4.236315e+00
-3.591988e-01
-5.000575e+00
2.624493e+00
4.942967e+00
7.111733e-01
-5.384805e+00
1.549450e+00
2.124883e+00
3.144321e+00
-6.927374e-01
4.118754e+00
-3.621052e+00
5.084608e-01
9.788358e+00
5.204837e+00
7.398854e+00
3.891928e+00
7.411668e+00
6.943110e+00
2.312569e+00
-8.139991e-01
6.058413e+00
6.440017e+00
1.972239e+00
-1.158820e+00
4.737079e+00
-3.320465e+00
-1.389155e+00
-5.714734e+00
-3.515328e+00
-4.941985e+00
-8.901072e+00
-3.393276e+00
-3.679357e+00
-3.304256e+00
-4.074490e-01
-3.088210e-01
5.323637e+00
2.996477e+00
-7.629599e+00
2.191611e+00
1.842702e+00
5.119087e+00
-6.996313e+00
-2.169921e+00
7.173648e-01
-6.682387e+00
5.145864e+00
1.075507e+01
-2.858554e+00
5.772162e+00
-3.855712e-01
2.461838e+00
-7.523382e+00
-8.448976e+00
-1.238947e+00
-2.457725e+00
-5.260459e+00
3.837788e+00
-4.792058e-01
-4.683808e+00
-2.400431e+00
-8.870236e+00
-7.660469e+00
8.407500e+00
-4.472902e+00
6.672828e+00
-5.036185e+00
-1.508237e+01
-1.087193e+01
1.778387e+01
8.881177e+00
1.167183e+01
1.618084e+01
2.239845e+01
1.743395e+01
2.167258e+01
3.210506e+01
-7.035043e+01
-7.575518e+01
-2.098785e+02
-6.202029e+01
-2.110808e+02
-6.969195e+01
-1.848513e+02
-1.845808e+02
-1.222678e+02
-1.154602e+02
-4.127479e+01
-2.075628e+02
-4.933659e+01
-2.008828e+02
-2.184567e+01
-1.193610e+01
-1.016021e+02
-9.819415e+01
-9.216910e+01
-5.898384e+01
-9.291853e+01
-6.274341e+01
-1.815008e+02
-1.734533e+02
-2.418742e+02
-2.331030e+02
-2.276283e+02
-1.170302e+02
-2.390160e+02
-1.247416e+02
-3.800104e+02
-3.720070e+02
-2.787665e+02
-2.564652e+02
-2.159828e+02
-2.379453e+02
-2.093059e+02
-2.317109e+02
-9.082357e+01
-6.013972e+01
-1.774254e+02
-1.411999e+02
-2.896953e+02
-2.449773e+02
-2.757964e+02
-2.330020e+02
-3.371273e+02
-3.271309e+02
-3.174866e+02
-3.104499e+02
-1.907575e+02
-1.859524e+02
-1.890308e+02
-1.822760e+02
-1.947927e+02
-1.846336e+02
-9.174399e+01
-8.882757e+01
2.519158e+01
-1.071781e+02
2.976687e+01
-1.127860e+02
4.260234e+00
1.607622e+00
6.894571e+01
7.117472e+01
4.178532e+01
-7.797456e+00
4.947061e+01
-1.119714e+01
8.938988e+00
1.464137e+01
-5.071762e+01
-5.761979e+01
3.204268e+01
7.584888e+01
3.169035e+01
7.543622e+01
-5.968980e+01
-5.811504e+01
-5.557310e+01
-4.271762e+01
1.471129e+02
7.167203e+01
1.154202e+02
9.807950e+01
-4.221338e+00
-3.725839e+00
-4.797869e+00
-6.465167e-01
9.896582e-01
7.592989e+00
1.203788e+00
-3.324310e+00
3.848628e+00
-2.763771e+00
-3.065023e+00
3.009722e+00
5.910957e+00
-1.883902e+00
9.638737e-01
1.676306e-01
-6.267397e+00
9.165281e+00
-2.545871e+00
-4.851046e+00
1.817803e-01
-6.164297e-01
-3.091673e+00
2.756010e+00
-6.735731e+00
-9.950758e-02
1.357076e+00
-1.906974e-01
3.977248e+00
5.338215e+00
9.255902e+00
8.286303e+00
3.585870e+00
4.090302e+00
5.551900e+00
4.207800e+00
1.732165e+01
1.758944e+01
2.438538e+01
2.507676e+01
4.058408e+01
3.351872e+01
-5.868608e+01
-5.800838e+01
-2.430221e+02
-2.411565e+02
-2.781637e+02
-2.773973e+02
-1.338747e+02
-1.372905e+02
-6.529086e+01
-6.297651e+01
-6.992891e+01
-6.395707e+01
-7.182590e+01
-7.079150e+01
-8.902205e+01
-1.002681e+02
-6.831080e+01
-6.615394e+01
1.134824e+02
1.107574e+02
3.762219e+02
3.851846e+02
4.270897e+02
4.350630e+02
3.104845e+02
3.134358e+02
2.148296e+01
2.000261e+01
4.028405e+01
4.067757e+01
1.331217e+02
1.343011e+02
5.843946e+01
6.650689e+01
6.575286e+01
5.456000e+01
5.202674e+01
4.049509e+01
7.576182e+01
8.350893e+01
1.053561e+02
1.030472e+02
0.000000e+00
0.000000e+00
0.000000e+00
0.000000e+00
0.000000e+00
0.000000e+00
3.680708e-01
-1.084309e+00
-3.895343e+00
-1.960099e-01
1.936218e+00
4.159902e+00
-1.000472e+01
-3.423854e+00
-4.129780e+00
6.454412e-01
3.277341e+00
4.413852e+00
-1.372217e+01
-3.490235e+00
-5.058317e+00
8.620907e-01
3.552270e+00
3.041555e+00
-1.113717e+01
3.557805e-01
-3.613614e+00
6.799668e-02
3.122841e+00
2.206698e+00
-4.475195e+00
8.951551e-01
-2.882179e+00
5.570693e-01
1.803279e+00
1.145645e+00
2.041907e+00
1.018101e+00
-1.085665e+00
-2.279335e-01
-6.436041e-01
9.851384e-01
1.129049e+00
1.848250e+00
-2.144810e+00
-1.079918e+00
-5.212350e-01
-1.896391e+00
5.714710e-01
-1.043271e-01
-1.538308e+00
-1.456350e+00
-1.392946e+00
-3.015939e+00
1.522490e+00
-9.284358e-01
-9.049563e-01
-2.102056e+00
-3.063687e+00
-2.441022e+00
-3.578937e-02
-1.334380e+00
-2.036307e+00
-2.237955e+00
-2.603798e+00
-3.678897e+00
0.000000e+00
0.000000e+00
0.000000e+00
0.000000e+00
0.000000e+00
0.000000e+00
-7.018727e+00
-1.647034e+00
-2.656183e+00
2.946381e-01
3.419678e+00
4.871886e+00
-1.903061e+01
-3.253287e+00
-6.306717e+00
-4.623352e-01
4.751448e+00
6.413140e+00
-1.991759e+01
-2.015533e-01
-7.636558e+00
-1.120627e+00
4.300443e+00
6.288710e+00
-1.704863e+01
1.509260e+00
-4.371897e+00
-4.979913e-01
3.257215e+00
5.201147e+00
-1.323972e+01
4.674533e+00
-4.532491e+00
-1.483390e+00
2.979776e+00
2.648742e+00
-7.556902e+00
1.023389e+00
-1.698015e+00
-7.122837e-01
2.130112e+00
3.748490e-01
1.770441e+00
-4.997909e-01
7.986051e-01
9.425817e-02
-8.502863e-01
2.803297e-01
1.969083e+00
8.695147e-01
-8.836158e-01
-8.314499e-01
-1.664458e+00
-1.434652e+00
7.850475e-01
-3.255975e-01
-1.027280e+00
-1.475416e+00
-1.936663e+00
-3.111020e+00
1.490185e+00
-4.653701e-01
-5.093160e-01
-1.683045e+00
-2.606078e+00
-2.213478e+00
0.000000e+00
0.000000e+00
0.000000e+00
0.000000e+00
0.000000e+00
0.000000e+00
-1.079532e+01
-3.750141e+00
-5.306999e+00
-1.975781e+00
2.202491e+00
5.670993e+00
-1.739134e+01
-5.419315e+00
-1.086018e+01
-5.172972e+00
3.215046e+00
9.451531e+00
-1.560779e+01
1.591528e+00
-4.836250e+00
-7.426290e+00
3.092645e+00
1.013013e+01
-9.408980e+00
5.441236e+00
-7.522181e+00
-9.496774e+00
3.910886e+00
7.335382e+00
-1.064147e+01
-4.923274e+00
-2.751640e+00
-3.306255e+00
2.985396e-01
7.371284e+00
-8.417976e+00
3.145804e+00
-3.512343e+00
2.187755e-01
-7.751154e-01
3.551187e+00
-5.046877e+00
4.186443e+00
-6.213378e-01
-2.118520e+00
1.879123e+00
-1.788569e+00
4.277621e+00
2.082375e-01
5.728481e-01
-7.108285e-01
-1.089462e+00
-1.953018e+00
3.221655e+00
1.102941e+00
-4.194811e-01
-1.552117e+00
-2.612172e+00
-1.866640e+00
1.463301e+00
7.722585e-01
-1.180428e-02
-1.047401e+00
-1.275978e+00
-1.824569e+00
0.000000e+00
0.000000e+00
0.000000e+00
0.000000e+00
0.000000e+00
0.000000e+00
-1.652737e+01
-9.696512e+00
-6.059952e+00
-3.844994e+00
5.147757e+00
1.504274e+00
6.331860e+00
2.630588e+00
-8.243171e+00
-1.218817e+01
8.475382e+00
7.501508e+00
-3.705727e+00
6.362684e+00
-5.963913e+00
-1.531216e+01
5.673790e+00
9.448312e+00
-5.645477e+00
-8.899958e-01
-8.774836e+00
-1.108701e+01
3.808735e+00
8.389593e+00
-3.052302e+00
7.022095e+00
2.388668e+00
-1.494017e+01
7.638008e+00
1.533520e+00
1.177929e+01
-8.508274e+00
-1.162550e+00
-5.551576e+00
5.015738e+00
4.828839e-01
-1.938404e+00
-9.874608e-01
-1.849026e+00
4.629172e+00
-1.382668e+00
-9.020745e-01
2.317851e+00
5.142175e+00
1.639202e+00
-1.168121e+00
-6.746123e-01
-3.551155e+00
5.823846e+00
3.126634e+00
1.174448e+00
-8.559311e-01
-1.508808e+00
-2.742591e+00
2.386232e+00
2.007174e+00
1.734532e-01
-1.518072e+00
-1.539104e+00
-1.638617e+00
0.000000e+00
0.000000e+00
0.000000e+00
0.000000e+00
0.000000e+00
0.000000e+00
-3.068101e+01
-1.246980e+01
-5.492113e+00
1.575936e-01
6.672843e+00
1.451236e+00
5.225183e+01
2.230600e+00
-9.994919e+00
-1.202877e+01
7.136617e+00
1.063734e+01
3.281518e+01
-1.823893e+00
6.676510e+00
-2.328167e+01
6.059427e+00
1.652938e+01
7.142312e+01
1.883523e+00
1.646437e+01
-2.329543e+01
3.981325e-01
1.449875e+01
3.191664e+01
-3.347590e+00
-1.070208e+01
-8.086589e+00
-1.163870e-01
7.961533e+00
-2.033857e+01
-4.299431e+00
-2.844100e-01
-1.969005e+00
2.381070e+00
3.588905e-01
-5.951641e+00
-4.578835e+00
3.385606e+00
-2.926082e+00
3.360782e+00
-3.784845e+00
6.000121e+00
3.463035e+00
6.685252e-01
2.087007e+00
-7.352431e-01
-5.202021e+00
8.960188e+00
7.526368e+00
3.183852e+00
-3.289103e-01
-1.363162e+00
-3.404126e+00
1.042363e+00
3.930452e-01
-8.390211e-01
-2.489752e+00
-1.807484e+00
-2.171015e+00
0.000000e+00
0.000000e+00
0.000000e+00
0.000000e+00
0.000000e+00
0.000000e+00
1.107671e+01
2.284852e+01
3.181353e+00
1.801586e+00
6.421597e+00
-4.296922e+00
1.432315e+01
-3.728505e+01
2.105328e+00
-3.935417e+00
1.274073e+01
7.040592e+00
2.342036e+01
-6.684549e+00
2.982130e+01
-1.472940e+01
1.376117e+01
1.620976e+01
7.720529e+01
-6.042400e+01
2.207954e+01
-1.192630e+01
1.085757e+01
1.320325e+01
4.812099e+01
-2.385521e+01
2.866040e+01
-8.756065e+00
7.026637e+00
5.162534e+00
-2.612025e+01
3.963908e+01
-2.584434e+01
5.422378e-01
6.323049e+00
-3.740149e+00
-5.861255e+00
-2.605813e+00
-3.487420e+00
7.210388e+00
-2.625998e+00
-5.195083e+00
1.004400e+01
5.237169e-01
6.162253e+00
-3.834299e+00
-3.268654e+00
-4.577529e+00
6.026001e+00
3.394518e+00
3.948969e-01
-1.557953e+00
-1.347058e+00
-4.122354e+00
-5.566523e-01
-3.910703e-01
-2.034856e+00
-2.462947e+00
-2.578349e+00
-2.532047e+00
SCALARS Vy float 1
LOOKUP_TABLE default
-6.773640e+01
-2.232351e+01
-5.155298e+01
-9.483881e+01
-5.881251e+01
-3.585442e+01
-3.477165e+01
-8.761265e+01
3.111006e+01
1.727274e+02
5.602010e+01
1.501607e+02
1.902295e+02
8.949786e+00
1.961670e+02
2.711290e+00
-8.312622e+01
-7.750899e+01
-1.079777e+01
-2.813229e+01
-1.291891e+01
-2.341496e+01
-1.001909e+01
-1.209774e+01
-2.686211e+01
-2.649395e+01
-1.189482e+01
-8.028619e+00
-6.142374e+00
-1.417851e+01
-2.043937e+01
-1.278309e+01
-1.534972e+01
-2.218371e+01
-2.596118e+01
-3.090224e+01
-1.652182e+01
-1.053255e+01
-1.641650e+01
-1.511632e+01
-1.012288e+01
-2.097850e+01
-1.074358e+01
-4.499372e+00
-8.842644e+00
3.409118e+00
1.975751e+00
-1.301524e+01
-9.428957e+00
-6.639389e+00
-1.152215e+01
-2.723039e+01
-4.301411e+00
1.815803e+01
7.229968e+00
2.657025e+00
-1.977690e+00
1.255841e+01
1.363015e+01
5.540086e+00
3.037902e+01
2.790867e+01
3.002305e+01
2.055345e+01
-2.496187e+00
3.204625e+00
-6.048981e-01
-2.537111e+00
-2.525319e+00
-5.178461e+00
1.222716e+01
8.692354e+00
1.913292e+01
2.860021e+01
1.725850e+01
8.806637e+00
1.001000e+01
1.596317e+01
2.220490e+01
3.423897e+01
5.283178e+01
5.261550e+01
-7.608976e+00
1.048480e+01
-1.310357e-01
-2.949873e+00
-1.421146e+01
1.310854e+01
-3.089900e+00
5.678270e+00
5.434622e-02
6.037083e+00
-3.653650e+00
1.413678e+00
-1.039952e+01
-1.164861e+01
7.698529e+00
-1.531934e+01
-6.269318e+00
-1.412535e+01
-8.809960e+00
5.260930e+00
-8.866372e+00
-7.143971e+00
5.708790e-01
2.873050e+00
5.263355e+00
-1.110763e+01
-1.208228e+01
2.792389e-01
6.926148e-01
4.048381e+00
1.096782e+01
7.796076e-01
3.611707e+00
1.069842e+01
-4.694949e+00
8.480743e+00
1.330892e+00
-6.977206e-01
-2.444012e+00
-6.454175e+00
5.810944e+00
-1.760601e+00
4.171619e+00
-2.126742e+00
1.605067e+01
6.482299e+00
-6.037210e-01
3.438694e+00
4.630562e+01
1.599064e+02
8.794207e+01
5.235195e+01
5.042472e+01
1.560910e+02
9.052446e+01
4.395204e+01
1.624004e+02
7.846350e+01
1.660616e+02
8.423330e+01
1.509022e+01
6.158123e+01
1.806417e+01
5.282978e+01
3.890132e+01
5.444962e+01
-8.616705e-01
-1.798857e+00
3.795039e+01
5.184027e+00
1.006208e+01
3.815642e+01
-1.601981e+01
-2.435101e+01
-1.946194e+01
-1.986988e+01
-4.358499e+00
-4.499387e+00
2.413304e+01
2.250730e+01
-3.114268e+01
-1.900477e+01
-1.837267e+01
-1.636058e+01
-2.280409e+01
-3.020778e+01
-3.439674e+01
-2.693577e+01
-2.737026e+01
-2.907141e+01
-5.368131e+01
-1.186178e+01
-2.051595e+01
-1.047959e+01
-2.311354e+01
-1.604252e+01
-5.113077e+00
-2.726485e+00
-2.214523e+01
-1.270330e+01
-1.510060e+01
-1.972759e+01
-1.328663e+01
-3.974570e+00
-3.511309e+00
2.748804e+00
1.825481e+01
2.591891e+01
1.382111e+01
-1.750840e+00
-2.243313e+01
-1.328247e+01
-1.339031e+01
-2.080831e+01
-3.805815e+00
-1.091765e+00
8.294237e+00
-3.655673e+00
4.385978e-01
-4.411535e+00
-3.895178e+01
-1.937508e+01
-3.546865e+01
-1.931266e+01
-1.634594e+01
-1.687552e+01
-1.228416e+01
-4.721695e+00
-1.865746e+01
-9.641555e+00
-1.069630e+01
-9.615928e+00
-1.919246e+01
1.607145e-01
-1.321948e+01
-1.386364e+01
-1.188904e+01
-2.004129e+01
-1.247765e+01
-6.051252e+00
-2.580080e+01
-4.681368e+00
-4.390290e+00
2.782144e+00
4.716422e+00
-4.401114e+00
1.457559e+00
-1.265865e+00
-6.336390e+00
4.165637e+00
-6.146382e+00
-7.455722e+00
-1.065412e+01
-6.989615e-01
-7.156127e-01
-5.663085e+00
-1.897375e+00
-1.326072e+00
3.311118e-01
2.498922e+00
-5.815333e+00
-8.039815e+00
-5.551125e-01
-1.114909e+01
-9.588371e-01
4.214707e+00
-5.758606e+00
-1.578018e+00
1.709308e+00
2.676447e+00
1.321044e+00
3.418707e+00
7.275514e+00
2.726043e+00
-3.795862e+00
-2.642223e+00
2.324770e+00
4.377470e+00
-1.049737e+00
-8.913495e+00
-6.260910e+00
-1.611968e+00
1.884429e+00
-9.319433e-01
-2.077913e+00
-5.084751e+00
-7.428495e+00
1.165353e+00
-1.180816e+00
1.838915e+00
-2.591520e+00
1.084613e+01
6.240428e+00
-1.714572e+00
-1.720576e+00
9.267771e-01
7.809956e+00
1.042089e+01
-6.436247e+00
6.242374e+00
1.493775e+01
7.874864e+00
5.384844e+00
-5.068495e+00
7.653085e+00
5.841554e+00
-8.288714e+00
1.934808e+01
1.368460e+01
-1.200426e+01
-7.158776e+00
2.116635e+01
1.007466e+01
-5.665053e+00
7.206476e+00
-6.042993e-01
3.704281e+00
-4.360069e+00
-1.461046e+00
-3.168708e-01
1.226897e+01
-3.245479e+00
7.323625e+00
-6.036626e+00
-3.386187e+00
3.856007e+00
1.534222e+01
9.165535e+00
1.790960e+01
7.605238e+00
-6.776076e+00
1.343045e+01
8.795323e+00
1.661469e+01
-5.072120e+00
1.815107e+00
-3.196772e+00
8.069881e-01
7.810987e+00
6.347858e-01
-1.228039e+00
-8.042126e+00
4.188348e-01
-8.036969e+00
5.087975e+00
-1.612523e+00
4.676593e+00
-2.922325e+00
1.417610e+01
-5.641459e+00
-2.505082e-01
3.393332e-01
2.362417e+00
1.424226e+00
-4.876295e+00
8.979158e+00
-6.911401e+00
9.514235e-01
-6.913783e+00
-1.496289e+01
-3.624017e+00
-1.129538e+00
1.307514e+01
4.437637e+01
4.294854e+01
2.861103e+01
1.893765e+01
3.729352e+01
4.133528e+01
1.794923e+01
6.970162e-02
9.419613e+00
-9.463236e+00
8.642316e-01
6.775605e+00
1.236237e+00
8.342095e+00
3.008515e+01
1.560620e+00
3.951953e+01
-3.880475e+01
-4.161730e+01
4.451643e+00
2.706143e+00
2.080582e+01
6.195914e+00
1.498307e+01
8.833287e+00
1.170607e+00
6.770292e+00
-9.594945e-01
2.557797e+00
-1.752962e+01
-9.225693e+00
-7.831872e+00
-1.521512e+01
-3.960250e+00
-4.800511e+00
2.282639e+00
-3.859655e+00
-5.119878e+01
-4.239161e+01
-1.052629e+01
-1.922059e+01
-4.969117e+01
-4.518571e+01
2.262552e+00
-4.134043e+01
-1.245064e+01
-4.331842e+00
-1.082421e+01
-1.396546e+01
-8.630378e+01
-5.802086e+01
-8.383513e+01
-5.980376e+01
7.195335e+01
2.459285e+02
7.151420e+01
2.348787e+02
-5.521406e+00
3.231315e+00
-3.978129e+00
-1.008741e+01
-2.288888e+00
-9.816788e+00
-2.535275e+00
-3.177248e+00
3.110136e+00
6.294264e+00
-7.916377e-02
-3.119471e+00
-4.337825e+00
-6.527348e-01
-5.627062e+00
-5.763079e+00
1.222492e+00
3.335886e+00
8.205890e-01
7.759775e+00
-2.114950e+00
2.335704e+00
-4.347622e+00
4.095175e+00
-1.883051e+00
-5.883246e+00
-1.788721e+00
-5.709796e+00
-9.093515e-01
3.867407e+00
-4.879453e+00
6.529109e-01
-5.235517e+00
-2.955447e-01
-6.390597e+00
2.197321e+00
-9.034282e-01
-3.212072e+00
1.407289e-01
-1.027103e+01
-6.039357e-01
1.765488e+00
-5.838334e+00
4.162677e+00
7.621310e-01
4.368030e+00
1.354547e+00
-5.546002e+00
9.153584e-01
-3.075145e+00
-1.252492e+00
-3.024952e+00
-2.598428e+00
9.223653e-01
3.403765e+00
9.161761e-01
-2.866749e+00
-2.912458e+00
2.092319e+00
1.877848e+00
-4.197053e+00
1.916974e-01
5.000568e+00
2.815256e+00
1.871046e+00
5.745266e+00
-1.717006e+00
2.154378e+00
-8.952271e+00
4.658553e+00
5.730203e-01
7.737673e-01
1.110212e+01
7.678229e+00
6.951938e+00
4.812125e+00
2.062404e+00
7.170264e+00
1.058919e-01
-4.092793e+00
6.693019e+00
7.077181e+00
-4.329106e-01
-9.200784e-02
2.587665e+00
1.462401e+00
2.707815e+00
2.684388e+00
6.128765e+00
-3.509209e-01
2.376197e+00
2.375865e+00
-5.836418e+00
-1.739940e+00
-4.573313e+00
-4.105076e+00
-5.229673e+00
3.827864e-01
-1.208849e-01
6.429560e+00
1.774720e+00
4.945903e+00
-5.725079e+00
-7.494692e-01
1.032432e+00
2.239142e+00
7.140086e+00
1.073877e+01
1.444054e+00
-3.454154e+00
-5.000540e+00
-1.182853e+00
-4.589262e-01
6.831542e+00
5.268197e+00
-2.536239e-02
7.946477e+00
4.931584e+00
8.892001e+00
7.332665e+00
1.399689e+01
7.563107e+00
5.327981e-01
1.177986e+01
1.254730e+01
5.757624e-01
6.165530e+00
7.293329e+00
6.773354e+00
-1.960928e+00
-3.826482e-01
-1.215178e+00
1.353296e+00
4.248636e+00
5.535728e+00
6.900986e+00
-2.713865e+00
7.883972e+00
2.903585e+00
1.188806e-01
1.712909e+00
1.103075e-01
-2.503698e+00
3.925000e-01
-4.108187e+00
-1.418950e+00
-3.557776e+00
8.823339e-02
1.092746e+00
-4.745817e+00
-6.817954e-01
-2.590900e+00
-8.512821e+00
-7.251732e+00
-1.382617e+00
3.457957e+00
1.274941e+00
1.900336e+00
5.115607e+00
1.591638e+00
-7.295994e+00
-6.207265e+00
1.243606e+00
-6.499937e+00
4.366317e+00
3.950710e+00
2.218694e+00
-3.238519e-01
2.857599e-01
2.102224e+00
4.832282e+00
-1.385691e+00
5.841429e+00
3.214816e+00
6.611800e+00
-1.275827e+00
-8.003014e-01
-1.095694e+00
2.199856e+00
-2.863665e+00
2.363443e+00
6.434625e+00
-1.761305e+00
7.950166e+00
-1.811594e+00
-5.042760e-01
-9.521065e-01
4.115421e+00
-6.500672e-01
5.442856e+00
4.954842e+00
-5.503428e-01
-1.821465e+00
-7.058481e+00
-6.530907e-01
-3.607428e+00
1.891174e+00
-1.494883e+00
-1.183379e+00
3.345547e+00
1.888352e-01
-1.838736e+00
-3.198285e+00
9.449621e-01
9.899875e-01
2.179385e+00
1.045715e+00
-9.640612e-01
4.517833e+00
-4.884227e+00
-7.157671e+00
8.593112e-01
-8.820945e-01
-5.514795e+00
1.440705e+00
-1.106651e+00
-9.357767e-01
4.293292e+00
2.210317e+00
-4.421201e-02
4.502163e+00
2.167255e+00
2.049446e+00
-4.797110e+00
-2.438173e+00
1.316450e+01
3.314030e+00
3.980594e+00
5.093258e+00
2.826295e+00
-4.092738e+00
-7.441667e+00
-5.072685e+00
2.468192e+00
-2.767125e+00
-3.399856e+00
-2.038041e+00
-4.506761e+00
-3.977840e+00
1.617776e+00
-1.444408e+00
1.215130e+00
3.167598e+00
8.797560e-02
2.550371e+00
3.670491e+00
-3.189647e-01
-5.724157e+00
1.092535e+00
-2.885358e+00
-3.575222e+00
-5.221608e+00
-1.247161e+00
-3.742318e+00
-5.590683e+00
-3.331065e+00
-1.122799e+00
-2.053353e+00
2.968163e+00
-2.517162e+00
-4.894027e-01
-3.449086e+00
-5.823618e+00
-5.045324e+00
-1.396430e-01
-3.553902e+00
3.232454e+00
7.519478e-01
-8.824475e+00
5.669000e+00
-4.004672e+00
2.608201e+00
1.631652e+00
8.471191e-01
4.162617e+00
7.616686e+00
-1.503917e+00
-1.570364e-01
-1.617590e+00
7.156861e+00
6.009491e+00
-1.630036e+00
-1.379837e+00
-1.039942e+00
7.233866e+00
2.156064e+00
4.342481e+00
7.927829e+00
3.311986e+00
-4.227481e+00
1.212037e-01
2.648588e+00
3.499038e+00
1.517183e-01
3.912485e+00
6.917500e+00
5.175049e+00
7.647688e+00
7.212825e+00
-4.759007e-01
-1.378799e-01
1.099858e-01
3.524642e+00
-4.864958e-01
6.471765e+00
2.737156e-01
-2.826869e+00
2.019005e+00
-6.197543e-01
-2.407182e+00
5.636141e+00
5.200231e+00
-3.192129e-02
4.837568e+00
4.468320e+00
4.876769e+00
2.778981e+00
8.349584e-01
8.328418e+00
3.420220e+00
4.051790e+00
3.218655e+00
1.156933e+00
3.235275e+00
-5.445695e-01
6.099849e+00
3.922018e+00
1.030914e+01
8.653068e+00
1.061334e+01
4.212387e+00
4.500973e-01
8.451344e+00
1.236554e+01
1.169651e+01
3.729975e+00
-2.569382e+00
6.363386e+00
8.973273e-01
2.984646e+00
-5.459817e+00
1.244345e+01
6.123095e+00
-2.525587e+00
1.756888e+00
6.939591e+00
3.725024e+00
-3.433590e+00
5.330274e+00
-2.257541e+00
-3.431220e+00
4.377426e+00
9.064584e+00
3.027265e+00
6.955980e-02
3.933628e+00
8.434462e-01
-1.488635e+00
6.003201e+00
-8.820976e-01
8.482043e+00
1.589432e+00
-1.563410e+00
-9.711261e-01
9.078936e+00
6.369400e+00
7.281815e+00
-5.058858e+00
3.190257e+00
3.891446e+00
-9.113731e+00
6.127991e+00
-1.013734e+00
7.551217e+00
-5.785683e-01
-4.388125e+00
-8.049161e-01
-1.078234e+01
-5.687839e+00
3.007667e+00
3.193700e+00
-2.804940e-01
-5.730600e+00
4.385617e-01
3.852613e-01
-5.845100e+00
-1.268730e+00
-1.993689e+00
-4.717458e+00
-6.285502e-01
-6.713187e+00
2.203784e-01
-4.092102e+00
-1.379637e+00
-9.405903e+00
3.111898e+00
-6.122436e+00
-3.211454e+00
-3.075814e+00
-7.402200e+00
-4.230498e+00
7.154920e-01
-1.979713e+00
-1.528856e+00
-2.345652e+00
-3.138185e+00
-6.620367e+00
-4.391436e+00
-6.657762e+00
-3.959918e+00
-5.690028e+00
-7.534910e+00
4.229670e+00
-4.976552e+00
2.115202e+00
-4.442836e-02
-4.757229e+00
-5.238728e+00
-1.360305e+00
-9.665757e+00
-1.301822e+00
3.448775e+00
-1.291788e+00
3.280146e+00
-4.896878e+00
-3.667659e+00
4.978500e-01
2.038816e+00
-8.140903e+00
1.061125e-01
-7.646249e+00
-1.974624e+00
-1.504574e+00
-2.332158e-01
-5.872086e+00
-6.034808e+00
-4.479165e+00
-1.561949e+00
8.420958e+00
-9.069253e+00
-4.014584e+00
2.164426e-01
-2.267501e+00
-5.506273e+00
-3.936535e-01
4.539941e+00
-1.692992e+00
2.357785e+00
-3.097169e+00
-5.125540e+00
1.141845e+00
2.512300e+00
6.407170e+00
8.295689e+00
1.823714e+00
3.838996e+00
-3.979342e+00
-1.597518e+00
-5.027871e+00
-2.680620e+00
-8.257519e+00
-7.014878e+00
-2.699971e+00
1.350615e+00
1.075107e+00
-1.153285e+01
-1.114003e+01
-1.520101e-01
2.124171e-01
-4.269662e+00
-1.014049e+01
-5.653588e+00
-1.426437e+00
-5.487840e+00
-1.688834e+00
-3.256177e+00
-4.883292e+00
-7.080255e+00
-1.317726e+01
-1.006322e+01
-3.021873e+00
-4.646616e+00
5.232089e-01
-5.306736e+00
4.626573e+00
-6.392046e+00
-4.800959e+00
1.342981e+00
8.460501e+00
7.626209e+00
8.961429e-01
6.138687e+00
-3.361585e-02
-7.066158e-01
1.096633e+00
1.510782e+00
1.017656e+01
-1.191935e+00
3.376135e+00
6.092898e-01
1.815219e-01
-9.297766e-02
2.210370e+00
-2.234249e+00
-3.877442e+00
4.012033e+00
-3.323722e+00
3.475054e+00
-9.201023e+00
-4.640756e+00
-5.195604e+00
-1.295220e+01
-7.344177e+00
-1.766328e+00
-9.362382e-01
-4.412321e+00
-9.871917e+00
-2.833646e+00
-7.269535e+00
-2.302381e-01
4.730768e+00
-3.564518e+00
1.317611e+00
-1.343269e+00
-3.696328e+00
2.852821e+00
2.786534e+00
-3.438712e+00
-3.026477e+00
5.382294e+00
4.687211e+00
-3.276443e+00
3.674364e+00
2.000137e+00
1.497120e+00
-6.282661e+00
5.776300e+00
3.355608e+00
-4.385811e+00
-2.552593e-02
-1.225376e+00
-3.657142e+00
1.502178e+00
-6.513161e+00
6.944601e+00
2.574918e+00
4.111065e+00
5.554582e+00
4.936021e+00
-4.247246e+00
-2.545721e-02
3.891129e+00
9.282102e-01
7.806036e+00
2.888888e+00
4.251389e+00
1.297701e+01
7.358351e+00
4.999965e+00
1.648407e+00
1.186669e+01
1.606007e-01
1.972457e+00
1.609367e+00
6.507203e+00
5.512069e+00
6.924764e+00
8.594054e+00
-3.009888e+00
2.003452e+00
1.741176e+00
-4.901223e+00
4.946756e+00
3.322616e+00
2.148448e-01
5.031277e+00
-4.080435e+00
-6.401469e+00
-2.784843e-01
8.996078e-01
-5.023763e+00
1.358173e+00
-2.379865e+00
-9.818124e+00
-1.500472e+01
-1.363571e+01
-6.014161e+00
-4.704040e+00
-6.852925e+00
-1.578146e+00
-1.712147e+00
-1.804860e+00
7.633164e+00
3.098101e+00
3.141382e+00
2.372760e-01
5.584814e+00
1.615333e+00
7.197559e+00
3.601655e+00
-7.323542e+00
-2.525728e-01
1.086179e+01
4.835087e+00
2.931147e+00
7.912032e+00
3.519056e+00
7.106301e+00
7.875704e+00
7.785717e+00
-3.174157e-01
1.616047e+00
5.058153e+00
4.376218e+00
4.902442e+00
2.434200e-01
-1.542828e+00
-3.290949e+00
-3.872018e-01
2.848320e+00
-9.648360e+00
-4.241394e+00
-2.977037e+00
-4.167275e+00
-4.100896e+00
2.132286e+00
-6.445122e+00
-7.253553e+00
-2.528999e+00
-4.424129e+00
-3.425791e+00
1.123014e+00
-1.622472e+00
5.793417e+00
-7.911621e-01
8.584122e-01
-1.942732e+00
4.825963e+00
7.256852e-01
2.792465e+00
2.462766e+00
-3.483036e+00
-2.063172e+00
-4.098789e+00
-4.920132e+00
-1.648673e+00
1.327921e+00
-2.331492e+00
1.516693e+00
-5.109048e+00
9.610164e-01
-1.488391e+00
5.476705e+00
2.386418e-01
-4.963171e+00
1.455591e+00
-4.133060e-02
5.267768e+00
1.922921e+00
-4.951120e+00
-1.805207e+00
3.147191e+00
-1.257810e+00
-5.655080e-01
-1.745056e+00
2.392190e+00
-1.912663e+00
4.193196e+00
-1.522306e+00
-2.123968e+00
-8.225130e+00
-6.202996e+00
-1.747744e-01
-8.897889e+00
-4.914606e+00
-8.244435e-01
-5.993019e+00
1.613165e+00
-3.743804e+00
-4.437263e+00
1.120828e+00
1.822856e+00
-3.787141e+00
-1.397276e-01
-1.174603e+00
-2.746555e+00
-2.555280e+00
-3.659529e+00
-1.702108e+00
-7.602945e+00
-5.190002e+00
-6.203024e+00
2.790577e+00
-1.363566e+00
9.550533e-03
-3.965755e+00
3.305040e+00
2.028776e+00
5.161544e+00
-6.412962e-01
-7.528660e-01
-7.078185e-01
4.361177e+00
1.966905e+00
-2.328489e+00
-2.600739e-01
-1.024677e+00
1.622895e+00
-1.336283e+00
-1.515430e+00
-1.146242e+00
6.615573e+00
4.888600e+00
-5.780950e-01
-1.273931e+00
-2.153528e+00
4.585495e+00
-2.985422e+00
2.574637e+00
4.424467e+00
-1.673121e+00
2.846424e+00
4.531598e+00
-3.105413e-01
5.712437e+00
9.790754e+00
-2.959469e+00
3.703309e+00
2.611211e+00
3.360521e+00
-2.027913e-01
7.445539e+00
2.586339e+00
4.528703e+00
5.594505e+00
5.333008e+00
4.779171e+00
4.056374e+00
2.976457e+00
1.610541e+00
3.486219e+00
1.842619e+00
1.771580e+00
2.689778e-01
-2.865457e-01
2.230487e+00
1.261435e+00
8.551842e+00
-5.872006e+00
4.324075e+00
-7.136322e+00
3.184036e+00
1.738622e+00
-3.066294e+00
-9.959767e-01
-3.528506e+00
1.595933e+00
3.514898e+00
-3.584804e+00
4.107464e+00
6.758159e+00
8.920215e+00
-1.402023e+00
4.954828e+00
-7.927307e-01
5.204275e+00
2.851433e+00
2.539274e+00
-2.031179e+00
8.520004e+00
3.223164e-01
-8.079111e+00
1.404050e+00
-2.531336e+00
-1.412106e+00
2.632475e-01
2.908457e+00
3.782860e+00
9.576034e+00
-1.391141e+01
-4.572497e+00
-3.362385e+00
-1.020473e+00
5.229861e+00
1.332666e+01
7.824842e+00
-6.375369e+00
-1.902561e+01
8.202691e+00
4.293748e+00
8.977820e+00
3.583420e+00
4.052783e+00
-4.445659e+00
-1.326449e+00
-2.431857e+00
6.251139e+00
9.351159e-02
3.819595e+00
5.605818e-01
-2.409450e+00
2.773671e+00
-1.549603e-01
8.095879e+00
-5.279525e-01
3.331624e+00
-3.654494e+00
1.652979e+00
-6.026682e+00
-7.111563e+00
1.430773e+00
-2.252509e+00
-5.583608e+00
-1.739441e+00
-2.145627e+00
-5.089914e+00
4.208027e-01
-2.711208e+00
1.870805e+00
-5.853252e-01
-9.211841e-01
4.083897e+00
7.874418e+00
-1.704464e+00
-4.571789e+00
-5.515812e-01
-7.384829e-01
-2.703659e+00
4.000103e+00
-3.713249e-01
-4.110931e+00
-1.789405e-01
-1.009752e+01
2.166867e+01
-1.126251e+01
4.714972e+01
-2.355571e+00
-2.327064e+00
1.798242e+01
4.099563e+01
5.241491e+00
3.326022e+01
-1.406346e+02
-1.553973e+02
6.135708e+00
1.276693e+00
1.095720e+01
-3.932720e+00
-4.671844e+00
4.713631e+00
7.077221e+00
-9.787365e+00
-8.576303e+00
1.902511e+00
-1.782278e-01
3.670252e+00
1.272012e+00
-2.730542e+00
4.553375e+00
-8.341864e+00
5.238667e+00
2.250887e-01
-2.746716e+00
-2.528820e+00
1.825187e+01
-1.589773e+00
1.201302e+01
-3.429307e+00
7.833753e-01
-5.002722e+00
-2.768660e+00
1.377971e+00
1.110949e+01
4.733956e+00
1.404230e+01
-6.405029e+00
8.103830e-01
-1.045892e+00
7.977487e-01
-9.166736e+00
3.432226e+00
-1.924300e+00
1.705792e+00
4.035605e+00
-3.919738e+00
-7.996699e-01
1.743713e+00
-1.578893e-01
1.741452e+00
6.516603e-02
-1.720737e+00
-3.242169e+00
5.639712e+00
1.536930e+00
6.401392e+00
2.880701e+00
1.078612e+01
1.004899e+01
1.696544e+01
1.507963e+01
1.925383e+01
1.115783e+01
1.746107e+01
1.016392e+01
1.525645e+01
6.609172e+00
1.073715e+01
1.356431e+01
8.338233e+00
1.095709e+00
6.296166e+00
4.265754e+00
1.071760e+00
3.357397e+00
-6.480735e-01
-1.991624e+00
-1.052430e+01
-4.937444e+00
-1.713002e+01
-8.995557e+00
-1.835404e+01
-2.587552e+01
-2.016358e+01
-2.195206e+01
-1.610642e+01
-2.134071e+01
-1.783924e+01
-1.154038e+01
-5.071273e+00
4.769970e+00
-6.174417e+00
-1.469066e+01
-1.439800e+01
2.412638e+00
-9.133628e+00
-1.170391e+01
-1.242751e+01
-3.338404e+01
-9.533116e+00
-1.441405e+01
-2.866152e+01
2.631296e+01
-2.477394e+01
1.857273e+01
-1.308257e+01
-2.646064e+01
-1.440295e+01
-1.663285e+01
1.671640e+00
9.383322e+00
1.876311e-01
2.469584e+01
6.963676e+00
1.725999e+00
9.292351e+00
3.722284e+00
-2.800703e+00
-1.518992e-01
9.295639e+00
-8.500254e+00
-5.697225e+00
-7.099262e-01
-2.061108e+00
5.628038e-01
-4.068587e+00
3.934287e+00
-2.421995e+00
1.003490e+01
-1.077924e+01
-1.751743e+00
-3.287682e+00
-1.281750e+01
4.384153e-01
4.181535e+00
-3.135658e+00
-2.588178e+00
-5.197883e-01
-3.780815e+00
-3.018611e-01
-2.347799e+00
-5.388044e-01
-3.826147e+00
-3.123622e+00
-3.967391e+00
-3.452850e+00
4.701589e+00
6.151381e-01
2.960531e+00
-4.779286e-01
8.488624e-01
-1.476423e+00
5.941292e+00
-8.091795e+00
-8.206080e+00
-2.874211e+00
-5.733343e+00
-7.159502e+00
-8.165726e+00
-5.820345e-01
-5.099139e+00
-8.566461e+00
-1.617230e+00
-6.055802e+00
-5.860087e+00
-1.679009e+00
1.373081e+00
-7.753117e+00
-5.550229e+00
-1.882116e+00
-3.195038e+00
-6.241769e+00
-9.310516e+00
-7.421929e+00
2.686688e+00
-3.468333e+00
-4.780237e-01
-6.791166e+00
-9.814865e+00
-7.885802e+00
-3.857017e+00
-1.329644e+01
2.519549e+00
2.404055e+00
-1.501401e+01
-1.124753e+01
-2.088517e+01
-1.855704e+01
-4.803915e+00
-1.906858e+01
-8.806809e+00
-1.647360e+01
-9.924605e+00
-3.721988e+00
-1.902528e+01
-7.699339e+00
-9.336688e+00
-1.364148e+01
-1.847374e+01
-1.549365e+00
-1.087620e+01
-1.012663e+01
6.596247e-01
-1.240222e+01
-7.220807e+00
3.691405e+00
-9.484874e-01
-1.095689e+01
-8.696577e-01
-1.131485e+01
-1.180860e+01
-6.666507e+00
-9.163316e+00
-6.052627e-01
1.790628e-01
-6.534953e+00
-3.177658e+00
-1.490119e+01
-7.377093e+00
-7.724952e+00
-2.640763e+01
-1.652384e+01
-6.045339e+00
-1.193796e+01
-2.321376e+01
-1.192134e+01
-6.454988e+00
-3.372449e+01
-2.927714e+01
-4.544897e+01
-4.632963e+01
3.123043e+00
-1.439698e+00
9.201688e-01
8.191975e+00
-1.093688e+00
-3.712120e-01
-2.649316e+00
-5.326539e-01
-2.523045e+00
-3.843030e+00
-5.531063e+00
1.281652e+00
6.204483e+00
-3.658156e+00
7.515301e-01
-3.198266e+00
-3.646541e+00
-3.374606e-01
-2.373258e+00
-3.691868e+00
-5.914921e+00
-3.619291e+00
2.372920e+00
7.111206e+00
1.116571e+01
-1.025134e+01
-8.052298e+00
3.526067e+00
1.038898e-01
9.202911e-01
-3.632613e-01
-4.582192e+00
2.981907e+00
-2.343428e-01
-4.242083e-01
-7.044481e-01
2.433601e+00
7.114155e-01
-1.538839e+00
-1.487341e+00
3.294601e-01
4.240822e-01
5.029020e+00
9.875221e-01
1.401710e+00
3.454139e-01
-1.583545e+00
5.823523e+00
-1.444808e+01
-9.923878e+00
-1.074011e+01
-1.199622e+01
-1.624562e+01
-2.176398e+01
2.823745e+00
-1.243248e+01
-1.562335e+01
-1.257529e+01
-2.935162e+01
-3.318463e+01
-2.565840e+01
-1.320707e+01
-2.207797e+01
-9.722822e+00
-3.951792e+01
-3.814197e+01
-2.386475e+01
-1.858982e+01
-2.844610e+01
-1.590192e+01
-9.823130e+00
4.927732e+00
9.721311e-01
-7.866538e+00
-8.086421e+00
-1.025876e+01
-1.550037e+01
2.346429e-01
1.801516e+00
-5.001347e+00
4.107129e+00
2.198042e+00
-1.255189e+01
-1.942034e+01
1.703960e-01
5.312913e+00
-5.814091e+00
-1.517167e+01
-2.890565e+00
-5.400371e-01
-5.777497e-01
3.714731e+00
-9.719867e+00
-4.923075e+00
-4.131784e+00
-1.186023e+01
-9.244901e+00
-1.695647e+01
6.797046e-01
-1.741767e+01
-1.136261e+01
-1.484674e+01
-5.537834e+00
-6.840267e+00
-8.815935e+00
1.915783e+01
-9.048079e+00
5.649994e+00
5.399810e-01
1.040458e+01
5.305636e+00
6.605147e+00
9.071344e+00
-2.917743e+00
-1.659452e+00
-3.926862e-01
6.170030e+00
-4.672986e-01
-8.414127e+00
-5.085335e+00
4.640361e+00
4.020448e+00
8.780373e+00
2.674502e+00
7.654200e+00
1.220326e+01
-2.546184e+00
-1.293886e+00
-4.553522e+00
3.348834e+00
-1.549363e+01
-5.739717e+00
-9.660574e+00
-1.289535e+01
-1.479156e+01
-1.820785e+00
-2.422476e+00
1.444990e+00
-1.579156e+01
2.246477e+00
-2.993083e+00
-5.266144e-01
1.247525e+01
-2.828829e+00
1.199750e+00
9.630274e-01
2.174882e+01
1.569848e+01
2.192799e+01
1.664502e+01
1.050187e+00
3.235474e+00
-1.162857e+01
-2.111020e-01
-5.718707e-01
-7.879938e+00
1.091556e+01
1.283255e+00
-1.418374e+01
-1.438883e+01
-2.998123e+00
-2.031086e+00
-1.642486e+01
-1.606020e+01
1.313080e+01
3.817084e+00
4.930729e+00
1.310039e+01
7.332892e+00
-2.101676e+00
7.728405e+00
1.157509e+01
-2.795502e-01
-6.162788e+00
-2.359570e+00
-3.898142e+00
-8.981990e+00
-1.302216e+01
-2.438800e+01
-2.403094e+01
-1.261212e+01
-3.249429e+00
-9.998877e+00
-7.947551e-01
-5.233622e+00
1.236759e+00
-7.013347e+00
-9.394619e+00
-2.574665e+00
-2.189887e+00
-4.226267e+00
-5.234898e+00
-4.389532e+00
-5.526331e+00
-3.063141e+00
-4.631947e+00
-1.987705e+00
-4.428754e-01
-1.456960e+00
6.095972e-01
-2.844125e+00
-1.515665e+00
-6.059427e+00
-3.903353e+00
2.799633e+00
-3.243559e+00
-1.339657e+00
-7.374812e+00
-8.228588e-01
-6.938117e+00
3.535622e+00
-5.204854e+00
-1.247200e+00
-2.686832e+00
2.248598e+00
2.786633e+00
9.194990e+00
-3.866300e-01
6.995858e+00
-8.414631e+00
-2.553012e+01
-2.274834e+01
-2.939778e+01
-2.771021e+01
2.231421e-01
-1.291628e+01
-8.835703e+00
-1.300770e+01
-1.330382e-01
2.318871e+00
2.519473e+00
2.565304e+00
7.438133e+00
-8.189314e+00
-6.076360e+00
6.324482e-02
1.230090e+01
1.553823e+00
1.672740e+01
9.336781e+00
1.907848e+01
8.928239e+00
-8.793585e+00
1.925413e+00
7.899162e-01
6.182726e+00
-7.131523e-02
-3.379448e+00
-6.506910e-01
-4.276930e+00
3.782456e+00
6.780220e+00
3.214077e+00
-3.115162e+00
1.468099e+00
2.721618e+00
6.845283e+00
-3.708041e+00
-5.296954e-01
-1.136149e+01
4.223513e+00
-6.224972e+00
4.719271e+00
4.203454e+00
-4.814308e+00
6.982240e-01
-1.663714e+00
2.103435e+00
7.682905e-01
-4.008599e+00
-3.170406e+00
3.156403e+00
-3.475454e+00
9.705163e-01
9.802215e+00
-5.885126e+00
-6.461461e-01
6.177203e-01
-7.080350e+00
1.001924e+00
1.968474e+00
-1.995240e+00
-8.028870e+00
4.795612e-01
-1.391341e+00
-4.163703e+00
-8.070903e+00
4.855219e+00
-2.115654e+00
1.618844e+00
6.364790e+00
-4.374563e+00
-1.798115e+00
9.074775e-01
6.497625e+00
-6.382826e-01
-8.602605e+00
-9.341319e-01
-1.394154e+00
-1.271067e+00
4.227013e+00
-1.247624e+00
4.180356e+00
2.583267e+00
-1.612886e+00
-2.175541e+00
-2.429941e+00
1.954835e+00
-1.625008e+00
1.673894e+00
1.548600e+00
-4.850268e+00
-1.354256e+00
6.565235e+00
-4.464608e+00
-2.343099e+00
-2.803779e+00
2.756626e+00
2.498932e+00
4.085756e+00
-3.682923e+00
-4.112666e+00
3.757760e+00
9.692088e+00
-6.050295e-01
3.354856e+00
-2.136649e+00
-4.743086e+00
3.244042e-01
3.152809e-01
-5.283504e+00
-6.177143e+00
-2.918270e+00
-1.386477e+00
9.962040e-02
-2.599899e+00
4.695636e+00
-1.005967e+00
6.236415e-01
-8.977089e-01
3.801791e+00
-7.221880e-01
-3.025518e-01
-7.400712e-01
7.458680e-01
1.551216e+00
-4.210115e+00
-3.944792e-01
-1.460549e+00
-1.178410e+00
-1.401830e+00
-2.994818e-01
2.055774e+00
-2.509659e+00
-1.467865e+00
-6.024542e-01
-3.781060e+00
-1.420230e-02
-3.829436e+00
3.809780e+00
-3.425463e+00
-4.275726e-02
-3.854820e-01
-8.668339e-01
-1.130679e+00
-3.461900e-01
1.097701e+00
4.098597e+00
-3.604227e+00
3.720116e+00
-1.685141e+00
-3.844507e+00
1.419390e+00
3.294861e+00
-7.832406e+00
1.976695e-01
-3.401163e-01
-2.206087e+00
-2.211550e+00
-1.174506e-01
5.543573e+00
-4.465230e+00
6.800228e+00
5.803488e-01
1.508495e+00
1.390936e+00
7.482667e+00
-3.732972e+00
-3.473030e+00
-1.541347e+00
1.225806e+00
-3.125376e+00
7.422658e+00
-1.400860e+00
-4.659565e+00
1.910351e+00
3.543077e+00
7.923613e-01
2.354718e+00
9.510356e+00
3.015028e+00
1.387842e+00
-1.615117e+00
4.025038e+00
3.406313e-01
1.015306e+01
5.857515e+00
2.029760e+00
7.600460e+00
-2.614138e-01
-2.531794e+00
8.885555e+00
6.160340e-01
6.771495e-01
2.077677e-01
-5.254096e-01
3.553548e+00
3.327252e-01
-2.123862e+00
6.341974e+00
-9.962147e-01
4.450547e+00
4.326804e+00
-3.481705e+00
-2.637295e+00
-1.405110e+00
3.024444e+00
-2.496995e-01
-6.912874e+00
-2.746478e+00
-3.711294e+00
2.413551e-01
-2.502106e+00
-4.630990e+00
-6.326541e+00
-1.229807e+00
3.756616e+00
-5.454703e+00
-3.543074e+00
2.327555e+00
2.584710e-01
-5.587398e+00
-2.499546e+00
4.670071e+00
-5.241976e+00
1.755112e+00
7.329008e+00
-6.256400e+00
-1.160387e+00
4.430072e+00
2.964569e+00
-4.352636e+00
-5.739469e-02
8.745952e+00
-2.983371e+00
6.736986e+00
3.995701e+00
2.277054e+00
3.666355e-01
-4.786812e+00
1.778982e+00
-5.302333e+00
3.273151e+00
1.818871e+00
-7.827696e+00
4.998528e+00
3.519315e+00
3.377851e-01
8.899256e+00
-4.378095e-02
4.927722e+00
2.997560e+00
-2.571681e+00
-2.818548e+00
-2.250232e+00
-2.625267e+00
-6.232672e+00
2.246028e+00
-7.704720e-01
-2.188721e+00
-3.384238e+00
1.516053e+00
5.925882e+00
5.379037e+00
1.482895e+00
4.858128e+00
-4.911378e-01
-7.064868e-02
6.167250e+00
2.734635e-01
6.840002e-01
-2.631256e+00
6.946759e-02
-1.411532e+00
2.579101e+00
9.640931e-01
-1.097957e+00
6.084936e+00
3.160719e+00
-2.924188e+00
6.714250e+00
-3.912509e+00
-5.972105e+00
2.185811e+00
7.047314e-01
-1.130071e+00
-1.128546e+00
2.386129e+00
7.170109e-01
1.535166e+00
7.027065e+00
-1.148054e+00
-9.574997e+00
-8.661203e+00
-7.258889e+00
-3.671544e+00
1.975505e+00
-7.266920e+00
-3.494157e+00
-1.303440e+00
-3.859725e+00
-1.486257e+00
3.441345e-01
-3.110587e+00
-2.823481e-01
-5.142625e+00
-2.279608e-01
-4.237706e+00
-8.410327e+00
-1.745497e+00
5.844373e-01
-3.479463e+00
-3.258522e+00
6.112139e+00
6.980281e+00
-3.675520e+00
1.977720e+00
-3.617445e+00
-7.247271e+00
-4.445215e+00
-6.464670e-01
-3.229971e+00
-2.258753e-01
2.007616e+00
-5.902655e+00
3.323249e+00
-1.886894e+00
-3.033163e+00
3.654206e+00
-2.095983e+00
5.851884e+00
-6.155122e-01
-7.719559e+00
-9.413087e+00
-7.058145e+00
-3.491418e+00
-2.093871e+00
1.469140e+00
-9.990084e+00
2.588005e+00
5.186735e+00
-1.633624e+00
3.108628e+00
-5.495882e+00
1.274725e+00
-9.585249e-01
7.510087e+00
-4.597336e+00
-1.160963e+00
-4.461616e+00
-6.409431e+00
4.906472e+00
-1.049255e+01
4.389940e+00
-1.326459e+00
1.362979e+00
9.024548e-02
6.808073e+00
1.398901e+00
6.644453e-01
3.256074e+00
-1.471076e+00
-4.467719e+00
1.870991e+00
9.235320e+00
-2.529009e-01
-3.461896e+00
-7.474916e-01
3.738164e+00
-6.833830e+00
3.836696e+00
-2.766389e+00
-1.793107e+00
-1.997095e+00
2.891982e-01
3.654772e+00
-2.405536e+00
6.951656e+00
6.128373e+00
-1.533413e+00
6.084923e+00
1.284325e+00
-3.334202e+00
1.744906e+00
2.757211e-01
4.338788e+00
-3.260565e-01
5.193915e+00
4.804309e+00
2.017818e+00
3.182699e+00
5.171421e+00
2.318765e+00
2.244231e+00
-5.045933e-01
-5.367294e-01
-1.752134e+00
-1.986461e+00
2.183822e+00
3.738886e+00
1.452308e-01
4.213875e+00
7.875325e-02
1.148220e+00
3.782564e-02
2.728787e+00
-3.965419e+00
-9.154618e+00
-2.339747e+00
-7.859201e+00
-5.708036e+00
-6.465465e+00
-4.962582e+00
-5.040288e+00
5.755484e-01
4.580962e+00
-3.516464e+00
-2.214093e+00
-9.036361e-01
2.071406e+00
-7.742517e+00
-2.723742e+00
-6.695610e+00
-1.094955e+01
4.221710e+00
-5.208563e+00
-4.097229e+00
2.982408e+00
3.151437e+00
-1.439031e+00
-1.717911e+00
-1.661539e+00
-3.795671e+00
-2.402031e+00
-7.774707e-01
-1.628267e+00
-1.963221e+00
2.560894e+00
2.329004e+00
-3.717696e-01
2.187568e+00
-1.448494e+00
4.817489e+00
7.507830e-02
1.825045e+00
3.676433e+00
2.866587e+00
-1.206583e-01
1.940636e+00
4.420989e+00
9.427919e-01
-4.994086e-01
9.156439e-01
-1.149791e+00
-1.183509e+00
3.081943e+00
3.730464e+00
1.653751e+00
-7.266264e-01
3.675802e+00
-1.722728e+00
-4.992451e+00
2.038821e-01
-1.864144e+00
-5.681096e+00
6.340428e-02
-3.721890e-02
3.475363e+00
-1.177685e+00
-1.579103e+00
-5.866615e+00
3.411571e+00
-2.991063e+00
1.144959e+00
-4.258436e+00
1.584952e+00
1.555177e+00
1.695518e+00
-1.036021e+00
-3.400526e+00
4.406400e+00
1.456778e-01
-4.132667e-01
6.099428e+00
-4.623992e+00
-3.507344e+00
-2.885808e+00
-2.127403e+00
-4.260088e+00
5.349759e+00
1.522198e+00
3.041451e-01
-2.593450e+00
-2.706761e+00
-4.444409e+00
-2.624257e+00
3.344521e+00
-5.535811e-01
5.099801e+00
-1.628541e+00
-3.657365e+00
2.164737e+00
5.951736e-01
-4.760542e+00
5.114070e+00
-1.718470e+00
-3.775005e+00
1.981305e+00
2.281071e+00
-4.903238e+00
4.547960e+00
1.201838e+00
-5.434230e-01
3.055064e+00
2.707345e+00
-2.713652e+00
-9.042775e-01
2.414611e+00
-2.224576e+00
-3.545890e+00
-8.290710e-02
-2.604745e+00
-5.975106e+00
5.368944e+00
4.127568e+00
1.860683e+00
-3.002385e-01
-6.176449e-01
-1.266110e+00
4.692419e+00
2.519764e+00
1.866079e+00
-4.497743e-01
3.549324e-01
5.103113e-01
4.234386e+00
-3.114695e+00
-1.367130e+00
-5.832440e+00
-5.136191e+00
5.934375e+00
3.178151e+00
5.802563e+00
3.471911e+00
6.020827e-01
1.185017e+00
2.983650e+00
8.045855e+00
1.155139e+01
6.154833e+00
-6.446496e+00
8.078370e+00
4.364209e+00
6.814867e+00
6.382831e+00
-4.563914e-01
-3.470964e+00
-3.983674e+00
3.898974e+00
4.188684e+00
-1.954056e+00
2.791424e+00
-6.518435e+00
-1.273271e+00
5.873220e-01
4.929281e+00
3.289936e+00
-6.131992e+00
7.503680e-01
-4.561218e-01
-3.397761e-01
2.858782e-01
-4.218668e+00
-3.138755e+00
-6.302870e+00
-4.879120e+00
-6.645508e-01
-5.218934e+00
1.086139e+00
-3.413621e-01
-4.543867e+00
1.653680e+00
1.926821e+00
-2.545059e+00
-6.969054e-01
2.216632e+00
-2.098403e+00
-2.688000e+00
1.405047e+00
9.378188e-01
8.265235e+00
-1.885333e+00
3.038520e+00
-3.072683e+00
5.584975e+00
-3.539537e+00
-1.687179e+00
-2.851500e+00
-2.734016e-01
7.000073e+00
-3.683149e+00
-1.661231e+00
-4.314484e+00
1.971171e+00
-6.843025e+00
4.992943e+00
4.088267e-01
-2.225217e+00
-6.216347e+00
-2.100067e+00
-5.952257e+00
-3.073361e+00
1.374576e+00
2.529737e+00
-5.688820e+00
-1.038326e+01
1.014051e+00
-2.439642e-01
8.441163e+00
-6.399515e+00
-3.907813e-01
-9.085479e+00
-2.931496e+00
2.742406e+00
4.494396e-01
9.761481e+00
4.277224e+00
4.965625e+00
1.080108e+01
-1.000670e+01
-2.393314e+00
9.312891e+00
1.644617e+00
2.859461e+00
-1.618161e+00
3.329801e+00
1.066431e+00
3.671402e+00
7.044421e+00
7.958699e+00
3.985179e+00
-3.286265e+00
2.067143e+00
2.289576e+00
-1.939841e+00
5.045584e+00
5.502520e+00
2.159596e+00
-2.888826e+00
1.129870e+00
-1.613244e+00
-2.951910e+00
3.827909e+00
5.757312e+00
-2.444604e+00
-3.093784e+00
2.280470e+00
2.449075e+01
6.398106e-02
2.277701e+01
4.835619e+00
9.919247e-01
4.246449e+00
3.897293e-01
-1.835250e+00
2.846597e-01
2.068253e+01
2.000359e+01
1.804456e+00
4.143732e+00
-3.794382e-01
1.855465e+00
-4.338130e-01
9.543854e-02
1.821464e+00
6.273487e+00
-3.578305e-01
2.401141e-01
9.598092e-01
-2.763636e+00
2.101081e-01
-2.004091e+00
4.839082e-01
-1.737896e+00
-1.433772e+00
2.105406e+00
-2.413443e+00
-1.885705e+00
-7.576114e-01
1.347373e+00
-2.003463e+00
-5.583175e-01
-4.038415e+00
-6.629505e+00
-7.018981e-01
1.403784e-01
2.632948e-01
-6.666244e+00
-2.443443e+00
-1.859692e+00
-4.537896e-01
3.482888e+00
1.043349e+00
3.879048e+00
1.371899e+00
2.994961e+00
-1.294416e+00
1.658746e+00
7.057348e+00
1.237414e+00
2.261899e+00
1.523814e+00
2.833496e+00
-1.732475e-01
1.348970e+00
1.356445e+00
-1.893400e+00
1.743428e+00
-9.849618e-01
-1.168277e+00
2.228993e+00
1.687634e+00
1.687741e+00
2.009684e+00
-7.874646e-01
1.994805e+01
-3.973834e-01
1.900144e+01
4.012812e-01
6.985667e-01
2.015259e+00
-5.655149e-01
-3.329348e+00
-2.185425e+00
1.309553e+01
1.561772e+01
5.009877e+00
9.169289e-01
1.862149e+00
6.174509e+00
7.538569e-01
-2.607953e+00
1.229317e+00
-2.384117e-01
-1.457306e+00
3.670597e+00
3.718139e-01
-3.147418e+00
1.301878e-02
3.704309e+00
1.593742e+00
1.945797e+00
-3.289628e-01
-3.307336e+00
-3.539910e+00
-1.640805e+00
-1.667024e+00
-1.347593e+00
1.161305e+00
-3.690733e+00
1.144818e+00
2.577080e+00
-2.463328e+00
-1.356624e+00
-3.238732e-01
2.510990e+00
4.192878e+00
2.806942e+00
3.230027e-01
-2.082106e+00
4.991394e+00
6.068962e+00
1.578600e-01
-3.400152e+00
-5.659982e+00
-1.400980e-01
5.401997e+00
7.487829e-01
3.576506e+00
2.640564e+00
-1.822954e+00
-2.826102e+00
-1.548050e+00
-3.035946e+00
1.434016e+00
5.117315e+00
-2.517813e-01
4.272015e+00
8.243217e-01
4.554713e+00
2.535497e+00
-1.148095e+00
-5.633933e-02
1.600032e+01
-1.429287e+00
1.883341e+01
-3.394229e+00
-6.154534e+00
-1.282949e+00
-3.365865e+00
-1.425696e+00
-6.105404e+00
1.118881e+01
1.429203e+01
-3.825640e+00
-9.659843e-01
2.152205e+00
3.183197e-01
-1.970995e+00
-7.698769e-01
-5.229212e-01
-6.659795e-01
-2.506867e+00
1.624571e+00
-3.446777e+00
-2.750616e+00
3.424556e+00
3.396683e+00
5.289343e+00
1.464233e+00
2.922536e+00
8.039214e-01
5.234010e+00
1.048799e+01
3.617422e+00
3.326697e+00
-9.765741e-01
5.434520e+00
4.051789e+00
1.662183e+00
3.390499e+00
5.656421e-01
2.084006e+00
-4.888513e-02
-1.831467e+00
1.497267e+00
1.274346e+00
1.110230e+00
-7.088336e+00
6.093318e-01
1.737924e+00
-1.792222e-01
-3.198868e+00
-1.077769e+00
4.037230e-01
-3.788205e+00
-1.005152e+00
-4.858468e+00
-4.941761e+00
-4.599944e+00
-3.313087e+00
-2.062465e+00
-6.017189e+00
-1.767305e+00
-4.055778e-01
-4.545053e+00
2.021482e+00
7.592073e-01
5.049984e+00
-1.061612e+00
-1.218267e-01
1.637487e+01
-5.072041e-01
1.829921e+01
-5.158699e+00
-1.910499e-01
2.198394e-01
-1.279369e-01
-1.561806e+00
4.201807e+00
2.691786e+01
2.084272e+01
3.226026e-01
-1.614617e-01
1.847368e+00
9.024865e-01
9.507885e-01
-4.157249e-01
7.740496e-01
-1.243777e+00
-8.699607e-01
2.957230e-01
2.155258e+00
-5.897318e-01
-1.324384e+00
6.190290e-01
-1.447587e+00
-2.131188e+00
2.161181e+00
1.412910e+00
4.113003e+00
5.591145e-01
-9.020456e-01
-2.642327e+00
-6.952275e-02
-1.642192e+00
1.049910e+00
3.182052e+00
-1.208924e+00
-7.335852e-01
1.792740e+00
3.776754e+00
3.341759e+00
7.593097e-01
-1.486885e+00
-4.150612e+00
-4.924139e+00
-3.752625e+00
-4.104210e+00
-1.957775e+00
-2.567028e+00
5.276495e-01
1.367490e+00
-7.241264e+00
-4.147099e+00
1.400944e+00
-9.441311e-01
-3.688520e+00
-6.677318e-01
-2.200940e+00
-4.543565e+00
-3.612260e+00
-2.798334e+00
-7.040186e+00
-2.175019e+00
-1.724911e+00
-2.456137e-01
2.361683e+00
6.461410e-01
2.131624e+01
-1.461682e-01
1.938410e+01
-2.139492e+00
2.903967e+00
2.940305e+00
-2.542222e-01
2.248378e+00
1.968367e+00
1.105242e+01
1.300376e+01
-1.996531e+00
-1.124381e+00
1.967819e+00
-6.072607e+00
-3.632508e+00
1.798902e+00
5.998360e-01
-1.386721e-01
-2.916091e+00
3.058199e+00
-3.248409e+00
-8.054369e-01
2.681305e+00
-2.202169e-01
3.113995e+00
-3.539458e+00
-1.404316e+00
-4.736327e-02
4.599630e+00
-1.776579e+00
-3.642378e+00
3.279251e+00
-7.946558e-01
2.642400e+00
1.874384e+00
-8.303572e-02
8.599091e-01
2.091903e-02
2.815167e+00
-2.820289e+00
-3.708815e+00
-2.418848e+00
-2.181345e-01
-8.788142e-01
-1.723414e+00
2.709510e+00
1.501298e+00
3.512178e-01
2.224622e+00
3.583693e+00
1.999971e+00
9.816740e-01
1.617558e+00
5.162913e-01
-2.693183e+00
-1.715667e-01
-1.566833e+00
7.694074e-01
2.449022e+00
-9.207629e-01
-3.135790e+00
4.459899e+00
1.482293e+00
-3.078144e+00
-2.396273e+00
-2.184352e+00
2.672900e+00
1.042668e+01
1.039938e+00
8.955510e+00
1.137628e+00
4.423183e+00
3.185231e+00
1.480335e+00
-2.896394e+00
4.325395e+00
1.022724e+00
2.559730e+00
2.455137e+00
4.346543e+00
1.942696e+00
1.463259e+00
-2.638625e+00
8.812065e-01
-2.532200e+00
9.376046e-01
2.524173e-02
2.751406e+00
-3.493571e+00
-6.078416e-02
-1.215284e+00
9.759982e-01
1.651649e-01
6.450273e-01
-6.691316e-01
-3.473366e+00
1.753002e+00
7.795775e-01
-2.941136e+00
3.642745e-01
-4.984889e+00
1.745929e-01
-9.913808e-02
-2.230196e+00
-2.457543e+00
-1.148025e+00
1.241130e+00
-1.458036e+00
-4.934770e-01
1.023815e+00
5.713235e+00
1.123519e+00
3.292256e+00
4.167560e+00
-8.529539e-01
5.544916e-01
-1.375064e+00
-1.469786e+00
3.970128e-01
-3.886179e+00
1.926627e+00
9.912923e-01
3.004761e+00
1.585689e+00
6.657398e+00
3.924954e+00
8.843263e-01
4.555555e+00
-3.137439e+00
-1.533753e+00
2.478116e+00
2.747737e+00
8.796413e+00
5.858334e-01
3.021021e+00
6.608256e-01
1.387017e+00
3.193359e-01
-1.399022e+00
1.909221e+00
-5.884767e-01
-1.065605e+00
-2.657849e-01
-3.201825e+00
2.492830e+00
2.166674e+00
-9.404677e-01
-3.210156e+00
-1.964000e+00
1.730095e+00
6.155591e+00
-9.883618e-01
2.024285e+00
-3.493269e+00
-2.167982e+00
2.989138e+00
2.024001e+00
1.107909e+00
5.607108e-01
-3.836346e+00
1.703433e+00
4.518865e+00
3.509997e+00
-3.775466e-01
-1.068776e+00
5.973874e+00
6.114651e-01
6.378043e+00
9.104215e-01
-6.031660e+00
-3.991843e+00
3.956113e-01
1.627083e+00
-4.804493e-01
1.119869e-01
7.329960e-01
3.260569e+00
7.521732e-02
1.615954e+00
4.807902e+00
4.060368e+00
1.815060e-01
-1.275024e+00
-5.498490e-01
-4.005570e+00
-5.967237e+00
2.077892e+00
2.177196e+00
-3.159145e+00
-4.067752e+00
-5.707799e+00
-3.198910e+00
-6.290483e+00
5.083803e-01
3.914316e+00
-2.877523e+00
-1.015631e+00
-2.841751e+00
7.167813e-01
7.625879e-01
1.446329e+01
8.169615e+00
1.477787e+00
1.101911e+01
-2.922614e+00
1.940384e+00
-2.340034e+00
5.825590e+00
9.879036e+00
-7.580830e+00
-1.339421e+00
-6.629040e-01
-3.062817e+00
-7.167805e-01
-1.688301e+01
-4.014912e+00
-8.302466e+00
-9.200128e-01
5.972481e+00
-2.312643e+01
-1.043637e+00
-5.618644e+00
5.130538e+00
6.904762e+00
3.478125e+00
-3.366172e+00
8.763746e-01
-3.786636e-01
3.784232e+00
3.163298e-01
8.400931e-01
-5.728225e-01
7.123031e-01
-2.774990e-01
-5.542866e+00
-3.079054e+00
1.790995e+00
-2.091291e+00
-2.136214e+00
2.450186e+00
4.525052e+00
-7.541848e-01
-1.871902e+00
3.920912e+00
-4.999345e-01
2.494500e+00
-3.673978e-01
2.577705e+00
3.987886e+00
4.700712e-01
4.967972e-01
-6.610955e+00
-5.620427e+00
5.984654e+00
-2.078963e+00
6.481616e-01
-5.420610e-02
-5.487309e+00
-3.039780e+00
-1.222017e+00
8.579177e-02
-4.007182e+00
-2.762786e+00
1.227904e+00
-4.394683e-01
-3.262049e+00
5.326653e+00
-1.053613e+00
6.351561e+00
8.573995e-01
-1.132448e+00
-3.988607e+00
-6.570742e+00
1.954279e+00
2.477623e+00
-8.684289e-01
-3.334282e+00
6.781218e+00
-2.690313e+00
-4.520972e+00
-9.952754e-02
1.420345e+00
-8.541082e+00
-1.354775e+00
1.712466e+00
-2.178920e+00
6.137183e-01
-6.833604e+00
4.580233e+00
4.485743e+00
8.955367e+00
4.136818e+00
8.824563e+00
-2.139460e+00
-1.824948e+00
-8.286376e+00
-2.156541e+00
-5.229966e-01
-1.118801e+01
-7.069994e+00
1.611238e+00
7.490987e-01
1.835924e+01
6.205810e+00
5.326549e+00
8.418125e+00
-1.024399e+00
1.056190e+01
-1.018694e+00
-8.062885e+00
1.061214e+01
5.306610e+00
1.026842e+01
7.523260e+00
8.042491e-01
-7.240880e+00
-1.475768e+00
7.196037e-02
6.971817e+00
1.425392e+01
3.087367e+00
-3.186915e-01
-7.349612e+00
2.890155e+00
6.352455e-01
-1.321814e+00
2.600715e+00
-1.061164e+00
-4.317440e+00
5.512268e+00
4.398973e-01
1.703818e+00
-2.178868e+00
4.219915e-01
1.154376e+00
2.032969e+00
4.816852e+00
-3.681212e+00
2.830500e-01
-1.956862e-01
-2.124315e-01
-2.830630e+00
4.019512e-01
-7.899503e-01
-4.965487e+00
-2.054416e+00
-1.488238e+00
2.692984e-01
1.115140e+00
-6.219228e+00
-3.241299e-01
-2.894281e+00
-2.636708e+00
-2.195158e+00
3.103654e+00
-1.707810e+00
3.568956e+00
1.412811e+00
-5.244742e+00
5.293236e+00
2.408215e+00
-2.452983e+00
8.857494e-01
1.092409e+00
3.129988e+00
3.154543e+00
-4.463312e-01
4.160878e+00
5.416617e+00
1.225701e+00
2.622490e-01
5.689165e+00
1.218668e+00
2.114089e+00
-2.427074e+00
1.648447e+00
-4.931244e+00
2.774153e+00
1.803409e+00
5.302693e+00
-4.581724e+00
-2.950862e+00
2.063973e+00
-3.194360e+00
-2.490325e+00
6.717009e-01
-9.806840e-02
-3.608122e+00
-4.478795e+00
6.644519e-01
-1.747758e+00
-2.608873e+00
-4.659755e+00
-2.350354e+00
4.590098e+00
-6.964745e+00
-2.393703e-01
1.963248e-01
-4.335401e-01
1.467753e+00
1.630321e+00
-1.669603e+00
-5.666262e+00
-3.607997e+00
2.473604e+00
-1.166486e+00
-2.115023e+00
-5.199305e+00
-7.228036e-01
-3.854034e+00
1.862484e+00
1.612190e+00
-1.022408e+00
8.166851e-01
-4.623623e+00
4.022739e+00
-7.095429e-01
-1.928540e+00
-8.151276e+00
5.425595e-01
-3.296266e+00
-2.340773e+00
1.140403e+00
2.477907e+00
6.386845e+00
-6.325195e-01
-1.953732e+00
-1.110720e-01
6.470971e+00
3.687636e+00
4.792953e+00
2.490079e+00
4.687594e+00
2.264363e+00
-4.309992e+00
1.363290e+00
2.304164e+00
-1.677746e+00
4.478590e+00
1.436294e+00
4.257006e-01
5.191219e+00
5.846005e+00
5.822113e-01
2.781751e+00
-1.406285e+00
-3.105467e+00
-2.366248e+00
-4.995784e+00
-5.060527e+00
8.755454e+00
-1.784703e+00
1.301421e+00
5.008814e+00
5.119841e+00
-8.551997e+00
1.615013e+00
2.230777e+00
-3.477353e+00
3.020932e+00
-3.220727e+00
-5.049078e-02
-4.719609e+00
4.196970e+00
-4.342470e+00
-6.269157e-01
5.560484e+00
1.159387e+00
2.017544e+00
2.573899e+00
-5.412566e+00
2.347375e+00
-4.384792e+00
1.959735e+00
-1.028055e+00
4.872293e-01
-2.752660e-01
3.588763e-02
-1.373190e+00
1.378744e+00
2.459937e-02
3.224114e+00
-1.803554e+00
-6.143943e-01
-5.391541e+00
1.433014e-01
1.312154e+00
9.384058e-01
2.771329e+00
-2.246852e+00
-1.939609e+00
-1.897379e+00
-1.200650e+00
-2.441231e+00
4.749862e+00
-3.579616e+00
6.823137e-01
-3.707035e+00
5.415143e+00
-3.796970e+00
1.358876e+00
-4.787021e+00
-3.109550e+00
-1.204660e+00
5.331916e-01
2.005302e+00
-1.465671e+00
1.639094e+00
3.422766e-01
-1.215068e+00
-3.393576e+00
7.167873e-01
-1.947514e+00
3.045998e+00
2.372509e+00
-2.488045e+00
-7.032833e-03
-2.566329e+00
-9.546066e-01
1.048386e+00
6.939980e-02
2.186826e+00
-5.634250e+00
4.031483e+00
-2.248517e+00
2.985945e+00
5.416170e+00
3.517122e+00
4.031318e+00
3.635166e+00
-1.433724e-01
3.146947e+00
-1.892599e+00
6.429700e+00
2.920915e+00
3.541499e+00
7.988863e-01
-1.503122e+00
3.658015e-01
3.140231e+00
3.240667e-01
5.235151e-01
-4.416349e-02
2.064511e+00
1.788515e+00
2.138888e-01
-1.608545e+00
3.035984e+00
3.985717e+00
8.645203e-01
-2.079660e+00
3.263994e+00
2.990187e+00
4.019711e-01
2.090388e+00
6.940036e-01
1.378836e+00
-1.405325e+00
9.830644e-01
-1.217030e+00
1.269530e+00
2.602554e+00
4.931749e-01
3.675391e-02
1.953713e+00
1.304060e-02
-3.614921e-01
1.583235e+00
-2.674087e+00
-2.708639e+00
-3.950023e+00
-2.804008e+00
-1.343129e+00
-4.910361e-01
5.298049e-01
1.114728e+00
2.034716e+00
-1.775896e+00
-7.081124e-01
-6.148867e+00
-5.516261e+00
-2.835192e+00
2.034221e+00
-1.011493e+00
-3.602231e+00
4.091028e+00
7.488259e-02
2.382765e+00
-5.975650e-01
-1.400395e+00
-8.230911e-01
-8.755281e-01
-2.891812e+00
-3.770054e+00
-1.829632e+00
-3.537663e+00
-1.450772e+00
-2.239888e+00
-4.096873e+00
-3.265493e-01
-7.076539e-01
6.184233e-02
1.310392e+00
1.093329e+00
5.482607e-01
-1.647890e+00
-1.198592e+00
-2.075884e+00
-9.398299e-01
1.499630e+00
-1.341141e-01
-1.690706e+00
1.602090e+00
9.432322e-01
-9.306190e-01
-1.221776e+00
1.350810e+00
-2.205874e+00
2.174926e+00
6.080476e-01
-4.843770e+00
-1.688951e+00
3.873629e-01
1.465208e+00
1.295706e+00
3.214733e+00
5.239426e+00
3.428327e+00
-1.245438e+00
-8.597290e-01
-1.528735e+00
-4.817883e+00
4.851951e+00
4.595754e+00
4.416933e-01
-4.011870e-01
4.021330e+00
1.695811e+00
4.214793e+00
-2.837173e-01
-8.392920e-01
-2.719520e-01
1.576360e+00
4.434161e-01
-5.265319e-01
-1.239736e-01
-2.656468e+00
1.701486e+00
-5.581799e-01
-3.019757e+00
-2.804186e+00
1.158783e+00
1.517760e-01
-4.932313e-01
-2.208411e+00
2.483338e+00
1.803540e+00
-3.529625e+00
-2.586334e+00
-2.764524e+00
-2.102386e+00
-3.056688e+00
-2.608901e-02
-3.921473e+00
6.367877e-01
1.861981e-01
-4.000591e-01
1.062393e+00
-2.144234e+00
-4.066073e-01
-5.533735e-02
3.389425e-01
3.800843e-01
-7.179686e-01
-4.345986e+00
4.061945e+00
-3.635191e-01
1.509782e+00
-6.227157e-02
-2.633400e+00
-6.212338e-01
-1.674597e+00
2.518302e+00
-2.192200e+00
1.742892e+00
1.503259e+00
-1.197374e+00
1.797100e+00
-1.638750e+00
4.763675e+00
2.026013e+00
-3.157476e+00
-1.242655e+00
-4.081771e+00
1.118067e+00
-2.591692e-01
-7.815451e-01
-1.207773e-01
-1.050913e+00
-1.820895e+00
8.943282e-02
5.528650e+00
1.572688e+00
3.804996e+00
1.542366e+00
3.141869e+00
-2.273580e-01
-1.964455e-04
1.975033e+00
2.165858e-01
2.505753e-01
7.563832e-01
2.691565e+00
-2.570560e+00
-5.159218e-01
1.624998e+00
-6.510299e-01
-6.834636e+00
-2.508707e+00
-3.572669e+00
-2.309761e+00
4.458389e-01
-3.577949e-01
-4.060548e-01
7.207614e-01
1.237225e+00
-1.350693e+00
1.426995e+00
9.538702e-01
2.234971e+00
3.008436e+00
3.871323e+00
2.137013e+00
-1.064693e-01
-8.092110e-01
-2.260104e+00
2.549658e+00
4.885387e+00
8.283619e-01
-4.533135e-01
5.678558e-01
1.659879e+00
1.901849e+00
-1.007055e+00
-1.436618e+00
-4.849037e+00
-1.928863e+00
-1.880918e+00
8.429082e-01
3.715995e-01
1.644505e+00
8.336887e-01
3.101145e-01
1.067108e+00
5.467159e-01
-1.329512e-01
-1.559035e-01
1.437626e+00
2.499071e+00
2.646069e+00
-8.766606e-01
5.943651e+00
-2.830809e+00
3.679294e+00
1.493781e+00
-1.385357e+00
-1.901167e-01
1.724321e+00
-2.305046e+00
-1.555338e+00
-5.353986e-01
-3.151704e+00
4.984242e-01
-1.013280e+00
-1.926483e+00
-4.151431e+00
2.257599e+00
1.655260e-01
4.942392e+00
6.904568e-01
2.570219e+00
2.053729e+00
3.304739e+00
2.712097e+00
-7.572152e-01
2.667751e+00
-5.546158e-01
-1.598620e+00
1.107363e+00
4.924522e+00
2.261011e+00
-1.523795e+00
5.986628e-01
1.346493e+00
-7.974857e-01
-7.248725e-01
-3.750301e+00
-2.572300e+00
6.425636e-01
2.620127e+00
1.256633e+00
-1.042286e+00
1.820370e+00
3.726749e+00
-1.116759e+00
-6.287288e+00
-5.300174e+00
2.599264e+00
1.741074e-01
2.877022e+00
-9.574941e-01
-1.511192e+00
5.596396e-01
1.318481e+00
5.345921e+00
3.820434e-01
2.318722e-02
2.044987e-02
8.047676e-01
-2.029000e+00
-5.483918e+00
-2.211315e+00
-4.022199e+00
-3.245892e+00
-1.398239e+00
-5.325124e+00
-2.710553e+00
-3.148502e+00
-5.648742e-01
-3.791706e+00
2.428818e+00
2.560723e+00
-5.222024e+00
-9.124995e-01
-9.213065e-01
-2.470338e-01
-1.305734e-01
1.789234e+00
6.127442e-01
2.440789e+00
-6.754426e-01
9.785780e-01
3.172556e+00
-2.440585e+00
1.810202e+01
1.563940e+01
2.546376e+01
2.267292e+01
1.630239e+01
1.403264e+01
1.467527e+01
1.098028e+01
2.425597e+01
2.496876e+01
2.344974e+01
2.773419e+01
2.373446e+01
2.769077e+01
2.006668e+01
1.951451e+01
2.272358e+01
2.226773e+01
2.093251e+01
2.121568e+01
1.817351e+01
1.902929e+01
1.653578e+01
1.619208e+01
1.854162e+01
2.212306e+01
1.442342e+01
7.089400e+00
1.230417e+01
1.056912e+01
8.903785e+00
1.071174e+01
1.122874e+01
6.863956e+00
1.093302e+01
9.414511e+00
-2.307298e-01
5.367065e+00
2.064854e+00
6.695336e+00
6.407433e+00
3.321568e+00
9.284035e+00
9.822332e+00
5.218299e+00
6.019576e+00
6.414307e+00
3.171000e+00
1.244676e+01
6.286390e-01
1.217046e+01
6.070385e+00
-5.722727e-01
-7.614908e+00
-1.111184e+01
-1.445409e+01
5.019679e+00
4.512692e+00
9.523060e+00
6.248647e+00
-3.150327e+00
9.724670e-01
-7.095139e+00
-1.083615e+01
1.679738e+01
1.008140e+01
1.069931e+01
8.291281e+00
2.116917e+00
-1.231035e+00
-5.998254e+00
-5.450052e+00
1.097747e+01
1.022368e+01
5.404336e+00
4.328138e+00
-1.579186e+00
-5.193742e+00
-6.060633e+00
-1.179935e+01
7.788044e+00
5.405905e+00
9.605737e+00
7.521915e+00
7.750041e-01
1.603819e+00
-2.180853e+00
-4.119918e+00
-3.877407e+00
1.057280e-01
8.971018e+00
7.533819e+00
5.450457e+00
8.920103e+00
6.654103e+00
6.557902e+00
-2.030752e+01
-2.064744e+01
-2.195246e+01
-3.279027e+01
-2.828115e+01
-1.700969e+01
-2.544381e+01
-1.762130e+01
-2.195275e+01
-2.706632e+01
-2.003011e+01
-2.475902e+01
-2.768059e+01
-3.289668e+01
-3.253219e+01
-2.820322e+01
-1.877745e+01
-2.874470e+01
-1.940967e+01
-2.601787e+01
-2.761926e+01
-3.414342e+01
-3.120548e+01
-2.840272e+01
-1.543154e+01
-1.673599e+01
-1.677525e+01
-1.776409e+01
-2.225903e+01
-2.608264e+01
-2.110096e+01
-2.878833e+01
-1.320579e+01
-1.612776e+01
-3.504377e+00
-1.104029e+01
-1.702480e+01
-1.805487e+01
-1.844697e+01
-1.619824e+01
-2.641786e+00
-8.542825e+00
1.457081e+00
1.305335e+00
-2.570798e+00
-1.472964e+01
-4.203358e+00
-1.765415e+01
-1.363618e+01
-1.030173e+01
-1.715137e+01
-1.099424e+01
-1.023822e+01
-8.353868e+00
-1.790953e+01
-9.818998e+00
-2.031208e+01
-2.285711e+01
-2.300861e+01
-2.412292e+01
-2.637393e+01
-2.265300e+01
-2.597001e+01
-1.505217e+01
-2.407871e+01
-2.403253e+01
-2.758637e+01
-2.113907e+01
-1.943472e+01
-2.393258e+01
-1.532262e+01
-2.226044e+01
-2.540147e+01
-1.667477e+01
-1.709077e+01
-1.392146e+01
-1.676664e+01
-9.239599e+00
-1.620618e+01
-1.275548e+01
-1.225635e+01
-1.866572e+01
-1.820645e+01
-1.727642e+01
-4.587230e+00
-1.757030e+01
-3.102272e+00
-1.315593e+01
-1.498674e+01
-5.290513e+00
-5.899767e+00
-3.773165e+00
5.288509e+00
-1.076097e+01
4.373137e+00
-4.387843e+00
-8.992646e+00
-1.090326e+01
-1.668558e+01
-1.397524e+01
-1.235083e+01
-1.012587e+01
-8.968907e+00
-9.514648e+00
-1.775116e+01
-1.965650e+01
-1.985865e+01
-1.189949e+01
-1.507541e+01
-1.327676e+01
-1.153220e+01
-1.069787e+01
-2.251863e+01
-1.428277e+01
-1.435257e+01
-1.650286e+01
-1.648555e+01
-6.919453e+00
-1.289560e+01
-6.077985e+00
-2.185517e+01
-2.140604e+01
-1.592717e+01
-9.537341e+00
-7.447579e+00
-8.634332e+00
-2.615018e+00
-2.605096e-01
-5.578168e+00
-7.466180e+00
-7.804129e+00
-7.608429e+00
1.036848e+01
-7.529953e+00
1.005692e+01
2.430264e+00
6.513992e+00
9.503962e+00
-6.037807e+00
1.785082e-01
1.205358e+01
-2.161198e+00
1.091155e+01
-4.590519e-01
-2.553843e+00
-3.866736e+00
-1.304650e+01
-5.252291e+00
1.019884e+01
-5.676261e-01
1.139973e+01
1.948942e+00
-1.026725e+01
-3.131427e+00
-8.294722e+00
-7.427163e-01
4.953903e+00
1.391501e+01
1.883680e+01
1.859704e+01
-1.451305e+01
-4.932612e+00
5.391912e+00
1.142853e+01
8.359534e+00
1.643627e+01
1.771368e+01
2.519554e+01
5.374830e+00
9.814915e+00
1.150015e+01
2.088754e+01
3.140819e+01
2.211287e+01
2.875421e+01
2.945046e+01
2.290561e+01
2.132639e+01
4.796697e+00
1.067272e+01
2.742330e+01
1.699848e+01
2.160073e+01
1.914486e+01
1.989831e+01
1.491118e+01
-6.600245e+00
-4.768571e+00
1.331932e+01
1.113747e+00
1.051529e+01
2.315469e+00
8.714803e+00
8.762294e+00
1.472121e+01
1.936173e+01
1.280265e+01
1.496665e+01
1.246458e+01
1.179201e+01
1.456926e+01
1.556649e+01
3.307284e+01
3.503598e+01
2.378165e+01
3.160200e+01
3.022198e+01
3.412770e+01
3.395998e+01
3.772092e+01
4.395689e+01
4.939544e+01
3.898900e+01
4.004441e+01
3.945594e+01
3.811629e+01
3.727624e+01
4.156133e+01
2.691724e+01
2.511764e+01
3.633090e+01
3.683042e+01
3.793473e+01
3.328749e+01
3.361901e+01
2.965917e+01
1.018307e+01
1.111788e+01
3.169820e+01
2.439178e+01
2.769056e+01
2.019896e+01
1.489365e+01
1.230614e+01
-6.997374e+00
-9.006606e+00
1.119575e+01
2.061900e+00
1.057639e+01
5.533056e+00
3.738236e+00
3.735120e-01
2.560078e+01
2.694198e+01
4.090225e+00
1.591349e+01
-2.739606e+00
1.923590e+01
1.977957e+01
1.738345e+01
3.733027e+01
3.259056e+01
7.459944e+00
2.175150e+01
-4.855445e-02
1.703767e+01
2.589611e+01
2.490379e+01
2.010291e+01
1.910782e+01
1.784275e+01
1.148818e+01
1.393537e+01
7.752011e+00
3.249988e+01
2.743220e+01
2.545666e+01
2.135058e+01
2.679920e+01
1.152972e+01
2.020476e+01
9.191218e+00
2.987983e+01
2.818653e+01
1.220780e+01
3.232431e+00
8.396534e+00
8.101913e+00
8.824229e+00
-4.047176e-01
1.921196e+01
1.598097e+01
-1.554593e+00
-2.422415e+00
-1.028450e+00
-8.585286e+00
-1.476425e+00
-1.273838e+01
-5.242428e+00
-1.143275e+01
1.590804e+01
1.534707e+01
-1.633990e+01
1.699774e+01
-1.034640e+01
1.996497e+01
-8.629304e+00
-6.487080e+00
9.804721e+00
8.467246e+00
-9.565128e+00
1.443197e+01
-6.238890e+00
1.155562e+01
-4.527659e+00
-7.879952e+00
-1.465457e+01
-2.038398e+01
-2.481091e+01
-3.139120e+00
-2.728494e+01
-1.056467e+00
-6.011671e+00
-1.245889e+01
-1.374758e+01
-1.857436e+01
-1.079805e+01
-4.653638e+01
-1.272257e+01
-4.739719e+01
1.148018e+01
1.063411e+01
-8.488312e+00
-3.920407e+00
1.796072e+01
-1.263465e+01
2.256532e+01
-1.055137e+01
-4.116953e+00
-2.439775e+00
-1.155961e+01
-1.346687e+01
3.064933e+00
-3.437826e+00
1.121112e+01
1.654138e+00
-2.066547e+00
-3.460047e+00
2.542524e+01
2.495279e+01
2.028648e+00
1.554957e+01
1.077645e+00
1.665295e+01
-1.007520e+01
-9.736817e+00
2.132935e+01
2.133347e+01
-9.677024e+00
2.611548e+01
-1.426727e+01
2.474335e+01
1.694945e+00
-1.303473e+00
-1.275860e+01
-7.359544e+00
-4.583779e+00
1.296734e+01
-1.794115e+00
1.743631e+01
-3.447837e+01
-3.658485e+01
-6.096383e+01
-5.896399e+01
-5.844203e+01
-2.624255e+01
-5.567591e+01
-2.586207e+01
-3.242206e+00
-1.216025e+00
7.923040e+00
9.598082e+00
8.730667e+00
-5.916700e+01
7.874513e+00
-5.323031e+01
2.132019e+01
1.810516e+01
-6.527855e+00
-5.814301e+00
2.347951e+01
-1.601029e+01
1.618990e+01
-1.615741e+01
1.148947e+00
1.127283e+00
1.541060e+01
1.624816e+01
1.972498e+01
2.192096e+01
2.372167e+01
1.807932e+01
8.904895e+00
8.657009e+00
1.965885e+01
2.339469e+01
2.792872e+01
2.577032e+01
3.397334e+01
3.100696e+01
-6.676687e+00
-8.511494e+00
2.980216e+01
3.312687e+01
9.415288e+00
2.709011e+01
9.723691e+00
3.583140e+01
5.223700e+00
1.387718e+01
-3.653970e+01
-3.308011e+01
-1.633991e+01
5.845325e+01
-1.502955e+01
6.234848e+01
-1.091549e+02
-1.096820e+02
-8.063256e+01
-7.744193e+01
-1.439013e+02
-1.181317e+02
-1.362769e+02
-1.177556e+02
4.902895e+01
5.586406e+01
4.467539e+01
4.232259e+01
2.182875e+02
1.179321e+02
2.193442e+02
1.107978e+02
1.237895e+01
1.574210e+01
3.554603e+01
3.240743e+01
3.023996e+01
2.361123e+01
3.348535e+01
2.241651e+01
3.744186e+01
3.855968e+01
4.186059e+01
4.446374e+01
5.468076e+01
4.542825e+01
5.847578e+01
4.469919e+01
7.756118e+01
8.316636e+01
2.784381e+01
2.835185e+01
9.211065e+01
7.532416e+01
9.120253e+01
7.463961e+01
4.426657e+00
1.736212e-01
5.168567e+01
5.698053e+01
9.399978e+01
-2.401629e+01
8.982384e+01
-2.008704e+01
-1.887314e+01
-1.768711e+01
7.587735e+00
1.035154e+00
1.523864e+02
2.857601e+02
1.509484e+02
2.815044e+02
7.621030e+01
7.868317e+01
3.142823e+02
3.126261e+02
1.687640e+02
-1.816759e+01
1.751413e+02
-1.248609e+01
3.354577e+01
3.383174e+01
2.818341e+01
2.735483e+01
4.297852e+01
3.354273e+01
4.140885e+01
4.251007e+01
5.307986e+01
5.311734e+01
1.014490e+02
9.933536e+01
1.213384e+02
7.087341e+01
1.175571e+02
6.629569e+01
9.018454e+01
8.928193e+01
3.939030e+01
3.272900e+01
4.913597e+01
1.123103e+02
5.524724e+01
1.077894e+02
1.566420e+02
1.535083e+02
2.252506e+02
2.244057e+02
4.827188e+02
2.860880e+02
4.791157e+02
2.808447e+02
3.356046e+02
3.364660e+02
1.323469e+02
1.319037e+02
4.076129e+01
7.028694e+01
4.043842e+01
7.134420e+01
-1.021215e+01
-1.430759e+01
-1.036785e+02
-1.020132e+02
-1.092497e+02
-3.104499e+01
-1.091735e+02
-3.666476e+01
5.783919e+01
5.541755e+01
4.752578e+01
4.457138e+01
8.512982e+01
3.247706e+01
7.665502e+01
2.705215e+01
1.020424e+02
1.071324e+02
1.245300e+02
1.267189e+02
1.578947e+02
1.250689e+02
1.563182e+02
1.250717e+02
1.106985e+02
1.061606e+02
2.282405e+02
2.219845e+02
3.764720e+02
1.478228e+02
3.800891e+02
1.488431e+02
3.973326e+02
4.010633e+02
3.491894e+02
3.466834e+02
1.603895e+02
4.310880e+02
1.591838e+02
4.291533e+02
4.492455e+01
4.093999e+01
-1.191407e+02
-1.219272e+02
1.521121e+01
-6.510735e+01
1.133812e+01
-6.754475e+01
4.553858e+01
4.453348e+01
-2.056403e+02
-2.012371e+02
-1.610509e+02
-5.268745e+01
-1.582388e+02
-5.425023e+01
1.357216e+01
1.556572e+01
1.018673e+02
1.002158e+02
7.515693e+01
2.222415e+01
7.869172e+01
2.449857e+01
9.472626e+01
9.107609e+01
1.763734e+02
1.772528e+02
2.235016e+02
8.221793e+01
2.182726e+02
8.488458e+01
2.827208e+02
2.773682e+02
4.038708e+02
4.027788e+02
4.485825e+02
3.760538e+02
4.479446e+02
3.750928e+02
4.202912e+02
4.241143e+02
6.366678e+00
2.166536e+00
-4.218993e+01
3.742170e+02
-3.924926e+01
3.724978e+02
3.326650e+00
-2.418029e+00
1.344939e+00
-7.585296e+00
1.062895e+02
-7.060470e+00
1.028389e+02
-7.774827e+00
-1.048957e+02
-1.007296e+02
-1.740832e+02
-1.738994e+02
-5.037579e+02
-2.362767e+02
-5.004660e+02
-2.357526e+02
-6.940205e+01
-7.248933e+01
5.048930e+01
5.327043e+01
-8.268408e+01
-3.116743e+01
-7.669195e+01
-2.836660e+01
1.035276e+02
1.067348e+02
2.650459e+02
2.611104e+02
2.110932e+02
1.895831e+02
2.138526e+02
2.002711e+02
4.576710e+02
4.606065e+02
4.895783e+02
4.902355e+02
2.221622e+02
5.426584e+02
2.351129e+02
5.317158e+02
4.503319e+01
5.746738e+01
3.609045e+02
3.740762e+02
5.264177e+01
7.899196e+01
8.661367e+01
9.308482e+01
-8.791219e+01
-6.538810e+01
8.052012e+01
2.482870e+02
-5.877792e+02
4.230761e+02
-4.604227e+02
4.702678e+02
-5.365089e+02
-3.378431e+02
-7.182935e+02
-6.809027e+02
-2.874783e+02
-3.436028e+02
-2.366440e+02
-2.363268e+02
3.182593e+00
1.028908e+01
-2.152195e+02
-1.986944e+02
-1.902051e+02
-4.861620e+00
-1.873271e+02
-9.432312e+00
1.436375e+02
1.477472e+02
3.370968e+02
3.106785e+02
1.368168e+02
1.314315e+02
1.379089e+02
1.356635e+02
2.604046e+02
2.853389e+02
1.574946e+02
1.540218e+02
-1.275690e+02
6.030323e+01
-1.280323e+02
4.982431e+01
-1.730647e+02
-1.652989e+02
-7.422522e+01
-5.560702e+01
-2.049941e+02
-1.841543e+02
-2.117280e+02
-1.888153e+02
1.676707e+02
1.749594e+02
-7.331784e+02
-7.103373e+02
-8.395669e+02
-3.062863e+02
-9.626081e+02
-3.399250e+02
-1.854216e+02
-1.553037e+02
3.444178e+02
3.296100e+02
5.637838e+02
5.170975e+02
4.874384e+02
3.840301e+02
-4.345332e+01
-4.792494e+01
-7.942303e+01
-7.954734e+01
-1.275750e+02
-3.472794e+01
-1.361002e+02
-3.305084e+01
6.471680e+01
6.007477e+01
3.325290e+01
3.764496e+01
8.850650e+01
6.168065e+00
9.360374e+01
1.206693e+01
-1.954010e+02
-1.938956e+02
-2.950462e+02
-3.031912e+02
-3.890271e+02
-1.875456e+02
-4.028290e+02
-1.782087e+02
-1.923163e+02
-2.173547e+02
-2.544248e+02
-2.793759e+02
-1.070432e+02
-3.344994e+02
-1.320712e+02
-3.462620e+02
-3.755578e+02
-4.101015e+02
-3.222369e+02
-5.690474e+02
-4.553384e+01
-9.536016e+01
-3.410269e+01
-1.044356e+02
3.493710e+02
1.634305e+02
8.744236e+02
8.649286e+02
1.790632e+02
2.365115e+01
1.785518e+02
2.812718e+01
-1.989143e+01
-1.886632e+01
-1.446953e+02
-1.405290e+02
-1.276972e+02
-1.278916e+01
-1.190534e+02
-1.144421e+01
-1.219082e+02
-1.308575e+02
7.562364e+01
8.220379e+01
-8.215764e+01
-1.871821e+02
-8.899983e+01
-1.823408e+02
2.829376e+01
2.373920e+01
-3.447409e+02
-3.610219e+02
-1.380219e+02
1.647335e+02
-1.356936e+02
1.665437e+02
-3.707232e+02
-3.843364e+02
-1.128753e+02
-1.127679e+02
-1.696732e+02
-3.840905e+02
-1.798043e+02
-3.913005e+02
-5.204026e+01
-6.658364e+01
-1.882705e+01
-2.288372e+01
-1.008114e+01
-3.228182e+01
-1.417112e+01
-3.269780e+01
-2.515242e+01
-2.011563e+01
2.736739e+01
2.051304e+01
5.459086e+01
-5.083986e+01
5.778762e+01
-6.663408e+01
-1.236907e+01
-1.072070e+01
-7.321447e+01
-7.522262e+01
-5.659118e+01
-1.129252e+01
-5.628220e+01
-1.212646e+01
-1.814839e+02
-1.851528e+02
-1.421093e+02
-1.352193e+02
-1.500037e+02
-1.522057e+02
-1.454071e+02
-1.424151e+02
9.392021e+01
9.191046e+01
4.530259e+01
4.680145e+01
8.993926e+01
-5.377397e+00
8.417077e+01
2.236564e+00
-2.913870e+02
-2.967712e+02
-2.865653e+02
-2.841730e+02
-3.394795e+02
-1.527922e+02
-3.428252e+02
-1.534516e+02
8.740045e+00
8.126382e+00
-4.546419e+01
-4.377650e+01
-2.708217e+01
-9.841271e+01
-3.512474e+01
-9.617132e+01
-2.011660e+01
-2.169389e+01
1.094886e+01
9.167405e+00
1.335363e+01
-4.890273e+00
1.153120e+01
-3.863355e+00
-3.739508e+01
-3.684886e+01
-6.984761e+01
-6.879755e+01
-5.274448e+01
-4.435659e+01
-5.679729e+01
-4.819965e+01
-1.225373e+02
-1.205760e+02
-1.466006e+02
-1.426765e+02
-1.280315e+02
-1.079459e+02
-1.239236e+02
-1.064643e+02
-4.792031e+01
-4.659828e+01
2.916010e+01
3.580339e+01
2.416557e+00
-1.029753e+02
3.054171e+00
-9.519356e+01
-7.705132e+01
-7.203676e+01
-2.939168e+02
-2.882380e+02
-2.659837e+02
-3.667065e+01
-2.669916e+02
-2.704400e+01
-2.909496e+02
-2.938886e+02
1.095318e+02
1.078711e+02
-4.323961e+01
-2.392197e+02
-3.749444e+01
-2.369918e+02
1.013931e+02
1.030096e+02
-1.499438e+02
-1.514401e+02
-4.998523e+01
-7.094873e+00
-4.891422e+01
-9.834416e+00
-4.184492e+01
-3.768504e+01
-7.776326e+01
-7.870125e+01
-8.664980e+01
-5.261901e+01
-8.864040e+01
-4.729779e+01
-8.628136e+01
-8.774349e+01
-1.426256e+02
-1.283059e+02
-1.107906e+02
-1.121628e+02
-1.041404e+02
-1.037542e+02
-1.256020e+02
-1.171180e+02
-1.476093e+01
-1.300868e+01
-3.721586e+01
-8.309257e+01
-4.864804e+01
-8.097016e+01
4.235731e+01
3.444176e+01
-7.134173e+01
-7.517958e+01
2.454637e+02
1.194263e+02
2.493102e+02
1.117639e+02
-1.125296e+02
-1.006426e+02
-3.014820e+02
-3.035624e+02
-5.288370e+02
-2.713683e+01
-5.209210e+02
-1.924841e+01
5.999290e+00
-3.124939e+00
6.215225e-01
6.348701e+00
2.682277e+00
-4.291749e+00
-5.876010e+00
-1.984156e+00
8.737609e-01
-1.163053e+00
2.568030e+00
8.307255e-01
2.937568e-01
2.124213e+00
1.366001e+00
3.027557e+00
6.722511e+00
6.806282e+00
3.115982e+00
6.349765e-01
2.040195e-01
8.378682e-01
8.222148e-01
-3.985860e+00
8.935777e-01
-2.493524e+00
8.752485e-01
-7.373942e-01
-8.827984e+00
-4.318280e+00
-4.195063e+00
-2.269828e+00
-1.668270e+00
1.843247e+00
1.208229e+00
-4.337679e+00
-2.132719e+00
4.138492e+00
3.016913e+00
-5.593495e+00
-5.785733e+00
-1.503681e+00
3.894719e+00
8.812216e-01
-2.835651e-01
3.504895e+00
2.716013e+00
-1.116519e+00
-8.269005e-01
1.874574e-01
-1.406043e+00
-2.096047e+00
5.495114e+00
2.784386e+00
5.605102e+00
5.522896e+00
4.105933e+00
4.895476e+00
6.141982e+00
1.635216e+00
4.068748e+00
1.611491e+00
2.849769e+00
4.326308e-02
-5.358514e+00
-1.011470e+00
-6.224879e-01
2.146533e+00
1.242695e+00
6.057035e+00
-1.089450e+00
7.070938e+00
-5.168321e+00
-6.482210e+00
-7.036584e+00
-5.178345e+00
-2.085422e+00
1.345987e+00
-3.302935e+00
4.936014e+00
-5.639979e+00
-3.837623e+00
-1.837233e+00
2.713253e-01
2.102396e+00
1.849461e+00
3.725958e+00
2.282152e+00
-1.012591e+00
5.779561e+00
-7.920126e+00
-9.103438e+00
7.463432e+00
5.527070e+00
1.024630e+01
2.732553e+00
-1.135358e+01
-1.528063e+01
-5.090486e+01
-4.749590e+01
-3.739470e+01
-1.413953e+01
-4.473535e+01
-1.282368e+01
-6.663774e+01
-6.956558e+01
8.453505e+00
1.111198e+01
-6.628052e+01
-7.920101e+01
-6.605552e+01
-8.195338e+01
-4.257869e+01
-3.573134e+01
-5.773755e+01
-6.026672e+01
-7.330308e+01
2.852859e+01
-7.051705e+01
2.278759e+01
2.356319e+01
1.990005e+01
-2.603488e+01
-1.814353e+01
-2.757734e+00
-9.582239e+01
-2.853494e+00
-9.623981e+01
-3.325868e+01
-2.741122e+01
2.378209e-01
5.331571e+00
-3.724322e+01
5.419173e+00
-3.133954e+01
8.807198e-02
1.023450e+01
7.744902e+00
3.146645e+01
3.062884e+01
6.377589e+01
2.482129e+01
6.553441e+01
1.419640e+01
2.452283e+01
3.187779e+01
2.768735e+01
2.422992e+01
6.932932e+01
8.217961e+01
6.393147e+01
8.712834e+01
1.150365e+01
1.114700e+01
-1.375636e+01
-1.398454e+01
-2.297501e+01
7.895335e+00
-3.009301e+01
9.527894e+00
-1.875333e+01
-2.243487e+01
-2.355672e+01
-2.026411e+01
-1.379199e+01
-3.358042e+01
-1.268896e+01
-3.694938e+01
-8.664240e+00
-1.148021e+01
-9.428722e+00
-5.785539e+00
-1.466385e+00
-5.028232e+00
-3.304694e+00
-1.022514e+01
-1.751162e+00
-1.020942e+00
-1.978624e+00
-6.636774e-01
-9.492343e-01
-4.840645e+00
-2.463177e+00
-2.176092e-01
-4.369422e+00
-1.405690e+00
-1.772819e+00
-3.069359e+00
-2.466494e+00
3.514500e+00
-3.710306e+00
-3.391900e+00
-1.960282e+00
-4.777125e-01
-4.038080e+00
-9.141393e+00
-3.703326e+00
-1.001950e+01
-5.449777e+00
-8.409482e+00
-4.312544e+00
-7.176422e+00
-1.797111e+00
4.518453e+00
-1.613339e+00
-4.506126e-01
5.624489e+00
2.956134e+00
-1.850656e-01
-1.266662e+00
-4.189554e+00
3.435145e+00
8.508655e+00
4.564310e+00
3.026710e+00
4.157410e+00
3.268258e+00
4.593775e+00
4.710900e+00
-1.874257e+00
-1.063066e+00
2.748819e+00
2.917304e+00
7.854807e-01
-3.548966e-01
9.670429e-01
2.191078e+00
1.633156e+00
2.588817e+00
-2.997277e-01
4.557410e-01
9.504975e-01
8.368765e+00
4.819570e+00
5.847247e-01
6.397929e+00
7.417234e+00
-1.236729e+00
2.635776e-01
1.532508e+00
5.878699e+00
7.077375e-01
7.156280e+00
1.070371e+01
5.864637e+00
4.615622e+00
2.242744e+00
7.487475e+00
2.189002e+00
3.978573e+00
6.795063e+00
4.574410e+00
4.048532e+00
8.581932e+00
1.051325e+00
7.234725e+00
-2.522981e+00
-4.753849e+00
6.547786e+00
1.476752e+00
-9.340030e-01
4.620567e+00
-1.746820e+00
7.637700e+00
1.172619e+01
1.804952e+01
2.112329e+01
1.817303e+01
3.299321e+01
1.424093e+01
3.333422e+01
1.777200e+01
8.885187e+00
1.201756e+01
-2.712902e+01
-2.694223e+01
-1.059312e+01
2.895463e+01
-1.078138e+01
2.738756e+01
-7.232219e+01
-7.361569e+01
-1.212632e+02
-1.229223e+02
-1.442577e+02
-7.502127e+01
-1.377940e+02
-7.501394e+01
-6.442405e+01
-6.605042e+01
2.496767e+01
3.376068e+01
-1.054860e+02
-2.020232e+02
-1.033934e+02
-2.082026e+02
-2.141020e+02
-2.168498e+02
-1.396512e+02
-1.430997e+02
-2.798267e+02
-2.108901e+01
-2.756346e+02
-1.090815e+01
-4.372928e+01
-4.768949e+01
-9.764977e-01
-1.303962e+00
7.506299e+01
-1.398769e+02
6.389330e+01
-1.410145e+02
7.547353e+01
9.155908e+01
1.420054e+02
1.371394e+02
1.619788e+02
9.929513e+01
1.629108e+02
1.043978e+02
1.689713e+02
1.693255e+02
1.444119e+02
1.379558e+02
2.385273e+02
2.098774e+02
2.358723e+02
2.135562e+02
2.273542e+01
1.842487e+01
-5.905439e+01
-5.375923e+01
-5.537720e+01
6.770821e+01
-6.267757e+01
6.817570e+01
-3.319784e+01
-3.804648e+01
-1.317691e+01
-1.342222e+01
-1.574147e+01
-7.069358e+01
-1.360345e+01
-6.522863e+01
-6.603306e+00
-1.802686e+00
-7.002906e-01
-7.011742e+00
-2.635303e+01
-5.203250e+00
-1.609826e+01
-1.352558e+01
6.814053e-01
5.276439e-03
-5.190905e+00
-4.504911e+00
-3.446265e+00
-3.687799e+00
-1.533998e+00
-2.718228e+00
-7.634826e+00
-4.674622e+00
-4.260954e+00
-5.490532e+00
-2.342470e+00
-7.032986e-01
2.139629e+00
-2.318809e+00
-2.489514e+00
1.787733e+00
-7.565122e-01
2.146605e+00
-4.898521e-01
1.098154e+00
1.896784e-02
-4.256100e+00
3.142108e+00
3.291675e+00
3.778559e+00
1.654246e+00
1.556944e+00
5.159455e-01
-6.089925e-01
-2.643208e+00
3.260413e+00
-3.435323e+00
-1.037621e+00
-1.799498e+00
9.349146e-01
-3.410482e+00
4.734469e+00
8.334472e-01
3.885590e+00
1.252945e+00
4.922397e+00
5.215558e+00
-4.197487e+00
2.374818e+00
-2.030483e-01
2.857869e-02
6.311536e+00
4.189004e+00
-5.706360e-01
2.501524e+00
2.462916e+00
-3.177144e+00
-8.272137e-01
-3.236746e+00
1.211975e+00
-2.043582e+00
-2.514033e+00
1.813040e+00
3.183696e+00
2.349001e+00
7.168900e-01
6.857598e+00
3.307321e+00
-5.257903e+00
4.551506e+00
4.778910e+00
-5.348645e+00
-5.911326e+00
-2.314288e+00
-3.426716e+00
7.091978e+00
5.427163e+00
8.722218e+00
7.841718e+00
4.088716e+00
8.196727e+00
2.612788e-01
7.455634e+00
-8.261778e-02
-7.900151e+00
3.204456e+00
7.379215e+00
-5.536689e+00
1.094105e+00
-3.892793e+00
3.211722e+00
1.547663e+01
1.357115e+01
3.821579e+01
3.886001e+01
2.336420e+01
1.303526e+01
2.488468e+01
1.071321e+01
4.555433e+01
4.620788e+01
1.241709e+01
1.052849e+01
4.991952e+01
5.839750e+01
5.108985e+01
5.775292e+01
-8.408805e+01
-7.878722e+01
-2.291572e+02
-2.320267e+02
-3.326984e+02
-9.926205e+01
-3.365570e+02
-9.494571e+01
-3.138968e+02
-3.128776e+02
-2.895901e+02
-2.907512e+02
-2.980486e+02
-4.503513e+02
-3.035204e+02
-4.476106e+02
5.520530e+01
5.680067e+01
-2.000086e+00
5.093808e-01
2.276417e+02
-1.075956e+02
2.201251e+02
-1.139282e+02
-6.415490e+01
-6.075570e+01
4.101430e+01
4.230429e+01
-3.849606e+00
1.460205e+02
-3.901104e+00
1.661457e+02
2.712205e+01
1.963224e+01
6.846466e+01
6.382805e+01
2.085972e+01
4.312056e+01
2.436330e+01
4.015370e+01
1.948653e+02
1.908056e+02
2.892971e+02
2.913773e+02
3.021867e+02
1.648571e+02
2.945951e+02
1.734179e+02
1.509251e+02
1.437095e+02
-7.653453e+01
-7.183213e+01
-9.703019e+01
1.813577e+02
-9.883554e+01
1.827978e+02
-1.035979e+02
-1.080239e+02
-4.173637e-02
-2.972146e+00
-1.335133e+01
-1.550146e+02
-1.855072e+01
-1.504184e+02
5.950592e+00
6.357160e+00
-1.875658e+01
-1.851957e+01
2.430772e+01
2.869462e+01
1.221645e+01
3.566145e+01
-1.211533e+00
-4.374874e+00
-4.472216e+00
-5.832361e-01
-4.693369e+00
3.076734e-01
9.225318e-01
-2.306934e+00
-1.932132e+00
-4.076729e+00
-1.183895e+00
-1.565689e+00
1.028751e+00
-2.565924e+00
-1.372619e+00
-1.791646e+00
2.307671e+00
3.854899e+00
-1.292980e+00
-8.594485e-02
-3.416361e-01
-4.797896e+00
-5.042803e+00
-4.319884e+00
-5.050535e+00
7.471304e-01
-2.591955e+00
-5.689158e+00
1.566653e+00
-4.977311e+00
4.399109e-01
-2.248632e+00
1.792361e+00
-2.601071e-01
-7.571258e-01
-8.949632e-01
2.328636e+00
-1.152868e+00
5.977716e+00
2.720636e+00
2.530717e+00
7.274965e-01
4.266628e+00
3.830280e+00
1.126757e+00
4.319984e+00
-2.789140e+00
1.474172e+00
3.361750e+00
1.896118e+00
2.012863e+00
2.168978e+00
-1.164393e+00
-2.491618e+00
-1.492102e+00
-4.910584e-01
-2.015173e+00
-4.463065e+00
-1.348758e+00
-2.023304e+00
1.036925e+00
1.965886e+00
4.786902e+00
-7.011692e-01
3.416645e+00
5.378508e+00
1.938191e+00
2.257081e+00
-3.772891e+00
8.777978e+00
-7.640241e+00
7.416693e+00
9.218382e+00
6.018877e+00
1.218001e+01
1.081439e+01
2.391221e+01
-9.029606e-01
1.984499e+01
1.139944e+00
1.144644e+00
8.595378e-01
-3.410970e+00
-7.304517e+00
-3.648611e+01
4.726079e-01
-3.622519e+01
1.253071e+00
-2.349569e+01
-2.722765e+01
2.087583e+01
2.444174e+01
3.577036e+01
-4.924707e+01
3.520239e+01
-5.082367e+01
8.389639e+01
8.525750e+01
9.744092e+01
9.916677e+01
9.115517e+01
1.938330e+02
9.480138e+01
1.907045e+02
-1.171392e+02
-1.180762e+02
-4.201104e+02
-4.108243e+02
-3.905096e+02
-1.887551e+02
-3.847309e+02
-1.876606e+02
-4.627437e+02
-4.684158e+02
-3.455794e+02
-3.450001e+02
-4.488849e+02
-3.710655e+02
-4.428872e+02
-3.746671e+02
-2.163744e+02
-2.186387e+02
1.612382e+02
1.409225e+02
8.601236e+01
-2.763393e+02
8.922945e+01
-2.858927e+02
2.014667e+02
1.919916e+02
1.409343e+01
2.811438e+01
8.457140e+01
8.717244e+01
8.973738e+01
8.486098e+01
1.220334e+02
1.200619e+02
1.933823e+02
1.998401e+02
3.322581e+02
1.603541e+02
3.385556e+02
1.790376e+02
2.200073e+02
2.228664e+02
2.027735e+02
2.050539e+02
6.601612e+01
2.581734e+02
6.579276e+01
2.487429e+02
1.747085e+02
1.784274e+02
-6.454175e+01
-6.879766e+01
3.067748e+01
1.428518e+02
2.845979e+01
1.409686e+02
-2.520063e+02
-2.511358e+02
-4.264450e+01
-3.492907e+01
-3.200665e+01
-3.061582e+02
-3.329488e+01
-3.123373e+02
5.933913e+01
5.399004e+01
1.356669e+02
1.368538e+02
2.154832e+02
1.112199e+02
2.177722e+02
1.060055e+02
-2.961023e+00
1.154878e+00
2.477108e+00
-2.057438e+00
-7.169471e-01
1.758595e+00
2.852297e+00
1.579677e+00
-8.536366e-01
1.946742e-01
-5.603483e+00
-2.484347e+00
5.419122e+00
1.855770e+00
4.355412e+00
2.599931e+00
-7.744677e-01
-2.885200e+00
-3.470502e+00
6.686805e-01
3.868308e+00
2.816739e+00
7.741344e+00
6.309946e+00
2.695452e+00
7.919302e+00
5.232470e+00
4.074488e+00
2.921642e+00
1.759525e+00
-1.575418e+00
2.602066e+00
7.189726e+00
4.266689e+00
5.986821e+00
-6.223869e-02
-9.188217e+00
-1.091547e-01
-5.425063e+00
-2.447545e+00
1.053160e+00
-4.097271e+00
-5.251548e+00
-5.125588e+00
6.276658e-01
-4.411236e+00
2.842677e+00
-7.624586e+00
-3.243419e+00
8.050516e-01
1.888818e+00
1.409308e-01
-6.383420e+00
-2.965667e+00
-6.624634e+00
-1.808652e+00
-1.268290e+00
1.025520e+00
1.865900e+00
-1.980869e+00
-3.600232e-01
2.875927e+00
2.116175e+00
-5.403901e-01
7.595054e+00
7.526889e+00
1.677751e-01
4.996146e+00
1.347320e+01
1.384593e+01
1.054954e+01
9.854410e+00
-3.724227e+00
-4.456866e+00
3.460444e+01
3.770728e+01
3.811732e+01
-9.209696e+00
4.189423e+01
-7.542568e+00
9.948956e+00
8.657642e+00
-8.061227e+01
-7.959737e+01
-1.081842e+02
1.510894e+01
-1.088247e+02
1.354711e+01
-5.895226e+01
-5.739146e+01
1.440189e+02
1.418236e+02
3.042213e+02
3.476545e+01
3.085810e+02
3.221468e+01
2.783344e+02
2.830683e+02
1.210409e+01
1.456673e+01
-1.397658e+02
2.277889e+02
-1.322507e+02
2.228597e+02
-2.675121e+02
-2.687789e+02
-2.267127e+02
-2.234174e+02
-1.849840e+02
-1.873260e+02
-1.875293e+02
-1.838425e+02
-3.461963e+02
-3.445992e+02
-3.844782e+02
-3.899253e+02
-2.834626e+02
-2.697972e+02
-2.815726e+02
-2.659181e+02
-2.416611e+02
-2.369846e+02
-1.102674e+02
-1.189703e+02
-2.759494e+02
-1.785193e+02
-2.687843e+02
-1.667703e+02
3.555814e+01
3.218949e+01
2.631610e+02
2.583044e+02
3.977879e+02
8.092965e+01
3.850620e+02
9.243660e+01
2.908209e+02
2.887243e+02
2.290271e+02
2.301291e+02
2.600638e+02
2.882159e+02
2.591535e+02
2.755554e+02
2.110652e+02
2.062626e+02
-1.472160e+01
-1.510907e+01
-1.416790e+01
8.443468e+00
-1.321416e+01
-2.572847e+00
1.974238e+01
2.130433e+01
1.126333e+02
1.107732e+02
6.174321e+01
-4.563455e+01
5.393707e+01
-4.138357e+01
-2.411628e+02
-2.441203e+02
1.086577e+01
7.900816e+00
4.003365e+01
-1.440101e+02
3.872162e+01
-1.423375e+02
1.228836e+02
1.263211e+02
2.400762e+02
2.313487e+02
2.182889e+02
1.199784e+02
2.369871e+02
9.913449e+01
7.328946e-01
5.004353e+00
4.066633e+00
3.344199e+00
5.555052e+00
6.327658e+00
5.071786e+00
6.607422e+00
8.963800e+00
6.105954e+00
5.194506e+00
4.833564e+00
3.581134e+00
2.866228e+00
-3.866106e+00
-2.505981e+00
-4.425511e+00
-6.856479e+00
-3.545946e-01
-2.130409e+00
-2.504231e+00
4.575875e-01
-2.989085e+00
-3.420959e+00
2.467114e+00
4.193504e+00
1.839877e+00
4.630224e+00
-3.733817e+00
2.572918e+00
2.419191e+00
1.400929e+00
1.203809e+00
-1.230816e+00
6.120321e+00
6.209015e+00
8.190126e-01
5.836613e+00
4.004471e+01
3.752592e+01
-4.501435e+00
2.073719e-01
-1.355556e+01
-1.742262e+01
1.843975e+02
1.842667e+02
3.470945e+02
3.419098e+02
4.391177e+01
4.744511e+01
-1.753332e+02
-1.727583e+02
-1.234413e+02
-1.268143e+02
-1.973790e+02
-1.881135e+02
-2.035133e+02
-2.072034e+02
-2.501169e+02
-2.357347e+02
-3.413438e+02
-3.314467e+02
-3.255763e+02
-3.024555e+02
1.862997e+02
1.835390e+02
5.188290e+02
5.209919e+02
4.267755e+02
4.017452e+02
1.768473e+02
1.707895e+02
-5.364943e+01
-4.662895e+01
8.273615e+00
-3.584932e-01
-7.696423e+00
-6.413587e+00
-1.269051e+01
-1.284299e+01
-1.136413e+02
-1.144121e+02
2.622504e+01
3.303131e+01
0.000000e+00
0.000000e+00
0.000000e+00
0.000000e+00
0.000000e+00
0.000000e+00
3.879940e+00
-6.560215e-01
-1.284594e+00
-1.295885e+00
-2.944495e-01
6.245286e-01
5.349719e+00
-1.001324e+00
-1.935385e+00
-4.476025e-01
9.524192e-02
5.509493e-01
4.745495e+00
3.138590e+00
-4.896201e-01
-2.881045e-01
7.938084e-04
-2.340687e-01
2.975628e+00
3.122286e+00
1.612727e+00
5.579995e-01
-1.356859e-01
2.822665e-01
6.239852e-01
3.892777e+00
3.296659e+00
5.402115e-01
-1.324980e-01
3.307292e-01
-4.161583e+00
4.027505e+00
2.253048e+00
1.041466e+00
1.056279e+00
-1.807706e-01
-3.635355e+00
1.838603e+00
3.911806e+00
9.650555e-01
1.289431e+00
1.205205e+00
-1.195390e+00
1.447515e+00
1.672982e+00
6.532876e-01
1.073746e+00
2.960939e+00
-1.998307e+00
4.392906e-01
4.034995e-04
8.491047e-01
1.994520e+00
1.947686e+00
-1.160020e+00
-2.893875e-01
1.862822e-01
4.051194e-01
1.324756e+00
2.971465e+00
0.000000e+00
0.000000e+00
0.000000e+00
0.000000e+00
0.000000e+00
0.000000e+00
3.281912e+00
2.501094e-01
-7.605716e-01
4.892666e-01
3.074309e-01
2.803740e-01
4.394600e+00
5.416364e+00
-1.150123e+00
-1.255436e+00
3.409642e-01
1.159521e+00
4.850682e+00
1.999523e+00
6.346304e-01
3.038190e-01
-2.558261e-02
8.149144e-01
-1.149986e+00
1.239279e+00
1.435229e-01
-1.308797e-02
2.761317e-02
-2.568916e-01
-4.485293e+00
-1.389330e+00
1.131230e+00
-1.449959e-01
9.817701e-01
-9.923812e-01
3.199385e-01
-2.227105e+00
3.177516e+00
1.526372e+00
-9.428832e-01
8.470683e-01
-3.308274e+00
1.823891e+00
8.559074e-01
2.771760e-01
2.528609e-01
5.182791e-01
-3.162186e+00
-7.803569e-01
7.681776e-01
5.247535e-01
1.484197e+00
8.417774e-01
-1.777770e+00
-2.999149e-01
1.118381e-01
4.110831e-01
1.266866e+00
2.763670e+00
-2.493059e+00
-6.269384e-01
-6.606972e-01
4.381076e-01
1.829259e+00
1.845619e+00
0.000000e+00
0.000000e+00
0.000000e+00
0.000000e+00
0.000000e+00
0.000000e+00
2.049950e+00
4.613213e+00
-9.355277e-02
-1.979244e+00
3.514072e-01
1.257547e+00
4.949476e-01
9.019388e+00
-7.308600e-02
-5.443638e-01
-1.369223e-01
2.768174e+00
2.275125e+00
5.111935e+00
9.696322e-01
-4.918823e+00
1.123319e+00
5.203449e-01
3.753654e+00
-5.610938e+00
-1.733202e+00
9.488056e-01
-1.856361e+00
-1.562447e+00
-6.342277e+00
-2.253967e+00
-1.071418e+00
3.335178e+00
-3.303826e+00
-3.670239e+00
5.304188e-01
-4.211909e+00
3.210055e+00
-2.900044e+00
2.386904e-01
-5.459943e+00
3.519323e+00
-4.654180e+00
1.135907e+00
1.797636e+00
-3.077900e+00
-2.040782e+00
-4.101676e+00
1.909268e-01
1.522640e-01
-9.588755e-01
-1.326382e+00
-1.044175e+00
-3.682964e+00
-1.930951e+00
-9.144645e-01
-1.013562e+00
-1.385503e-01
6.762424e-01
-3.428089e+00
-1.748607e+00
-1.347576e+00
-6.478835e-01
1.982458e-01
1.170543e+00
0.000000e+00
0.000000e+00
0.000000e+00
0.000000e+00
0.000000e+00
0.000000e+00
-7.667647e+00
8.394014e+00
1.358010e+00
-3.977551e+00
-2.287648e+00
1.835352e+00
-1.769374e+00
4.255208e+00
-5.135673e+00
-1.043883e+01
-2.060278e+00
-2.109824e-01
-2.318100e+01
2.785782e+00
-8.685127e+00
-3.329496e+00
-2.944522e+00
-1.497847e+00
1.674297e+01
-2.834614e-01
9.968342e+00
-3.634969e+00
-1.234394e+00
-4.442641e+00
3.253508e+01
-4.111797e+00
4.452645e+00
6.972012e+00
-3.184358e+00
-4.720505e+00
-1.415866e+01
8.890843e-01
1.276751e+00
1.131869e+01
-2.775050e+00
-6.421027e+00
3.315700e+00
-2.354295e+00
8.923722e+00
7.080401e-01
-1.280061e+00
-4.942096e+00
2.543154e+00
1.349864e+00
2.042179e+00
4.872584e-01
-3.213696e+00
-2.041776e+00
-3.205947e+00
1.057372e-01
-6.117945e-01
-2.112970e+00
-1.822003e+00
-1.292655e+00
-3.328559e+00
-1.491476e+00
-1.164975e+00
-1.470873e+00
-1.269661e+00
4.186819e-01
0.000000e+00
0.000000e+00
0.000000e+00
0.000000e+00
0.000000e+00
0.000000e+00
-1.662406e+01
1.296619e+01
3.220643e+00
-5.302284e+00
-4.834300e+00
-1.085987e+00
1.427441e+01
2.367396e+00
1.273175e+01
-7.514107e+00
-7.840847e+00
-4.141443e+00
2.573144e+01
1.810660e+01
-6.069986e-01
-2.910480e+00
-7.887786e+00
-2.896851e+00
-1.764799e+01
-1.013347e+00
-5.122233e+00
-4.215960e-01
1.316568e+00
-5.758207e+00
-7.626508e+00
-2.473252e+01
7.086947e+00
5.679266e+00
3.170384e+00
-3.809887e+00
-3.604810e-01
5.186288e+00
-2.220555e+00
9.883070e+00
-3.783937e-01
-1.413562e+00
-3.038252e+00
-2.233725e+00
-2.629996e-04
6.849600e+00
2.869958e-01
-3.241713e+00
1.582628e+00
-1.854218e+00
5.875724e+00
1.631716e+00
-2.734104e+00
1.565741e-01
-1.425132e+00
2.599816e+00
1.935009e+00
-1.158194e+00
-1.479462e+00
4.228184e-01
-2.282241e-01
3.722901e+00
1.560702e+00
4.368456e-01
-2.447965e-01
4.763633e-01
0.000000e+00
0.000000e+00
0.000000e+00
0.000000e+00
0.000000e+00
0.000000e+00
-6.971247e+01
-2.466344e+01
5.752559e+00
-5.121694e+00
-2.236718e+00
-2.369340e+00
-1.836548e+01
-4.592708e+01
4.647465e+00
-8.364882e+00
-9.373102e+00
-2.266796e+00
7.686317e+01
-2.954282e+01
-1.126044e+01
3.322372e+00
-5.882868e+00
-2.815653e+00
1.210289e+00
3.552306e+01
7.879189e+00
5.165157e-01
3.533646e-01
-1.750611e+00
-2.779629e+01
5.147040e+01
4.959548e+00
-2.668638e+00
4.766023e+00
-3.243511e+00
9.260666e+00
2.761025e+00
-7.957997e+00
1.018731e+01
1.732899e+00
-4.587929e+00
8.195046e+00
-6.779041e+00
5.860684e+00
4.054773e+00
-4.969416e+00
-6.670510e-02
-1.140350e+01
-5.957884e+00
5.674031e-01
-2.969914e+00
-2.642185e+00
5.314277e-02
-4.381003e+00
-3.089924e-01
1.065226e+00
2.145238e-01
-1.708811e+00
6.979020e-01
3.645100e+00
8.798340e+00
4.685934e+00
1.325808e+00
6.549073e-02
1.331784e+00
SCALARS Vz float 1
LOOKUP_TABLE default
1.400115e+04
1.404659e+04
1.420815e+04
1.409064e+04
1.400177e+04
1.404787e+04
1.421417e+04
1.408851e+04
1.412482e+04
1.434034e+04
1.411695e+04
1.435182e+04
1.457516e+04
1.436559e+04
1.456437e+04
1.435860e+04
1.409076e+04
1.409515e+04
1.401409e+04
1.400391e+04
1.399425e+04
1.399792e+04
1.399792e+04
1.400115e+04
1.400263e+04
1.400139e+04
1.400066e+04
1.401246e+04
1.401339e+04
1.400611e+04
1.401137e+04
1.400596e+04
1.401105e+04
1.398524e+04
1.399337e+04
1.400213e+04
1.398788e+04
1.400830e+04
1.400452e+04
1.399537e+04
1.399815e+04
1.401102e+04
1.400998e+04
1.399529e+04
1.399544e+04
1.401414e+04
1.401747e+04
1.402488e+04
1.401603e+04
1.401968e+04
1.402147e+04
1.402005e+04
1.400561e+04
1.400923e+04
1.401622e+04
1.400901e+04
1.400930e+04
1.400837e+04
1.402518e+04
1.400776e+04
1.402905e+04
1.402914e+04
1.403134e+04
1.401717e+04
1.402394e+04
1.402112e+04
1.402367e+04
1.402257e+04
1.401486e+04
1.400860e+04
1.402732e+04
1.402508e+04
1.402716e+04
1.403761e+04
1.402989e+04
1.402402e+04
1.402891e+04
1.403097e+04
1.403223e+04
1.402430e+04
1.404956e+04
1.405215e+04
1.401288e+04
1.400375e+04
1.400758e+04
1.400671e+04
1.400160e+04
1.400972e+04
1.400894e+04
1.400682e+04
1.400879e+04
1.400990e+04
1.399955e+04
1.401829e+04
1.400468e+04
1.401267e+04
1.400759e+04
1.401946e+04
1.401087e+04
1.400001e+04
1.401628e+04
1.401272e+04
1.400695e+04
1.400717e+04
1.400374e+04
1.401066e+04
1.401008e+04
1.401084e+04
1.401045e+04
1.401570e+04
1.401312e+04
1.401649e+04
1.400658e+04
1.400634e+04
1.400938e+04
1.399899e+04
1.400102e+04
1.400565e+04
1.400214e+04
1.401228e+04
1.400658e+04
1.401111e+04
1.400419e+04
1.400306e+04
1.400908e+04
1.400641e+04
1.400588e+04
1.400626e+04
1.400699e+04
1.400364e+04
1.402308e+04
1.407633e+04
1.405752e+04
1.404641e+04
1.401858e+04
1.408459e+04
1.404936e+04
1.404067e+04
1.414576e+04
1.409585e+04
1.414910e+04
1.409484e+04
1.399576e+04
1.399310e+04
1.398051e+04
1.399604e+04
1.401253e+04
1.400240e+04
1.399963e+04
1.401564e+04
1.401030e+04
1.400097e+04
1.401353e+04
1.402612e+04
1.401762e+04
1.401516e+04
1.401232e+04
1.401223e+04
1.402567e+04
1.402920e+04
1.402931e+04
1.402723e+04
1.401136e+04
1.401062e+04
1.400112e+04
1.401906e+04
1.395481e+04
1.393663e+04
1.396824e+04
1.396133e+04
1.395324e+04
1.394430e+04
1.396131e+04
1.394829e+04
1.403367e+04
1.402192e+04
1.401438e+04
1.402536e+04
1.401200e+04
1.404198e+04
1.402815e+04
1.401577e+04
1.402508e+04
1.403394e+04
1.399136e+04
1.400107e+04
1.399576e+04
1.398692e+04
1.403264e+04
1.404362e+04
1.397345e+04
1.397014e+04
1.401217e+04
1.400836e+04
1.401131e+04
1.400606e+04
1.405624e+04
1.402758e+04
1.405871e+04
1.403390e+04
1.406658e+04
1.406019e+04
1.406877e+04
1.406852e+04
1.407218e+04
1.406149e+04
1.404524e+04
1.404386e+04
1.401727e+04
1.400743e+04
1.402050e+04
1.401842e+04
1.402974e+04
1.402703e+04
1.401282e+04
1.401436e+04
1.402897e+04
1.403580e+04
1.402742e+04
1.403218e+04
1.401799e+04
1.404313e+04
1.403840e+04
1.403913e+04
1.401852e+04
1.401822e+04
1.401772e+04
1.402200e+04
1.402093e+04
1.400853e+04
1.400580e+04
1.400901e+04
1.401358e+04
1.401531e+04
1.400816e+04
1.399489e+04
1.400266e+04
1.401070e+04
1.399675e+04
1.400767e+04
1.400361e+04
1.399873e+04
1.399940e+04
1.400576e+04
1.400377e+04
1.399979e+04
1.400072e+04
1.400625e+04
1.400571e+04
1.400210e+04
1.399979e+04
1.400365e+04
1.399752e+04
1.399905e+04
1.400246e+04
1.399698e+04
1.399997e+04
1.399853e+04
1.399797e+04
1.399761e+04
1.400179e+04
1.399943e+04
1.399889e+04
1.399420e+04
1.399557e+04
1.399910e+04
1.399800e+04
1.399553e+04
1.400741e+04
1.399982e+04
1.400135e+04
1.400580e+04
1.400551e+04
1.399864e+04
1.400176e+04
1.400277e+04
1.400186e+04
1.400073e+04
1.400437e+04
1.400118e+04
1.399672e+04
1.400481e+04
1.399971e+04
1.401139e+04
1.399764e+04
1.400771e+04
1.399994e+04
1.400276e+04
1.400357e+04
1.400811e+04
1.400467e+04
1.400303e+04
1.400456e+04
1.400577e+04
1.401137e+04
1.400819e+04
1.401656e+04
1.400085e+04
1.401092e+04
1.400335e+04
1.401468e+04
1.401255e+04
1.401033e+04
1.401533e+04
1.400359e+04
1.401133e+04
1.401276e+04
1.400385e+04
1.400438e+04
1.400798e+04
1.400601e+04
1.400180e+04
1.403294e+04
1.403335e+04
1.403041e+04
1.403291e+04
1.402827e+04
1.401953e+04
1.401647e+04
1.400784e+04
1.400716e+04
1.401520e+04
1.400560e+04
1.400246e+04
1.401589e+04
1.401930e+04
1.401006e+04
1.400537e+04
1.400411e+04
1.401109e+04
1.402005e+04
1.399922e+04
1.399854e+04
1.399555e+04
1.400097e+04
1.399551e+04
1.399436e+04
1.399701e+04
1.399795e+04
1.400520e+04
1.399326e+04
1.400658e+04
1.400616e+04
1.400087e+04
1.403283e+04
1.401578e+04
1.403233e+04
1.403081e+04
1.402384e+04
1.402638e+04
1.404174e+04
1.403941e+04
1.401586e+04
1.401793e+04
1.401147e+04
1.400652e+04
1.401820e+04
1.400194e+04
1.398598e+04
1.401956e+04
1.397103e+04
1.403316e+04
1.398744e+04
1.399794e+04
1.401674e+04
1.401678e+04
1.404528e+04
1.403499e+04
1.404331e+04
1.403703e+04
1.399310e+04
1.399849e+04
1.400022e+04
1.398994e+04
1.399190e+04
1.399639e+04
1.399329e+04
1.399193e+04
1.400382e+04
1.399652e+04
1.399794e+04
1.400315e+04
1.403538e+04
1.406378e+04
1.405007e+04
1.403351e+04
1.403435e+04
1.406071e+04
1.405055e+04
1.403679e+04
1.400421e+04
1.399287e+04
1.399373e+04
1.399846e+04
1.399754e+04
1.403096e+04
1.399165e+04
1.402910e+04
1.419549e+04
1.432366e+04
1.419513e+04
1.432690e+04
1.399815e+04
1.401999e+04
1.400164e+04
1.401109e+04
1.400592e+04
1.400242e+04
1.399985e+04
1.400411e+04
1.400361e+04
1.400034e+04
1.400027e+04
1.400220e+04
1.400309e+04
1.400280e+04
1.400234e+04
1.400463e+04
1.399980e+04
1.400473e+04
1.400636e+04
1.399596e+04
1.399806e+04
1.400251e+04
1.400304e+04
1.400059e+04
1.399921e+04
1.400333e+04
1.399921e+04
1.400259e+04
1.400330e+04
1.400063e+04
1.399810e+04
1.400027e+04
1.400166e+04
1.399879e+04
1.399667e+04
1.400396e+04
1.400098e+04
1.399992e+04
1.399933e+04
1.400081e+04
1.400269e+04
1.399881e+04
1.399825e+04
1.400352e+04
1.399853e+04
1.399918e+04
1.400115e+04
1.400108e+04
1.400200e+04
1.400296e+04
1.400051e+04
1.400116e+04
1.400422e+04
1.399892e+04
1.399724e+04
1.400351e+04
1.400617e+04
1.399958e+04
1.400595e+04
1.399639e+04
1.399667e+04
1.400629e+04
1.400943e+04
1.399188e+04
1.400315e+04
1.399634e+04
1.399905e+04
1.400596e+04
1.400136e+04
1.400028e+04
1.399716e+04
1.400380e+04
1.400104e+04
1.399809e+04
1.399940e+04
1.400309e+04
1.400042e+04
1.399977e+04
1.399984e+04
1.400035e+04
1.400100e+04
1.400474e+04
1.399886e+04
1.399580e+04
1.399932e+04
1.400021e+04
1.399879e+04
1.400055e+04
1.399881e+04
1.399679e+04
1.400122e+04
1.400300e+04
1.399919e+04
1.400359e+04
1.400445e+04
1.400042e+04
1.400540e+04
1.399745e+04
1.400464e+04
1.400038e+04
1.399712e+04
1.400102e+04
1.400831e+04
1.399388e+04
1.399922e+04
1.400287e+04
1.399802e+04
1.400312e+04
1.399975e+04
1.400024e+04
1.400152e+04
1.400157e+04
1.400018e+04
1.400092e+04
1.399728e+04
1.400365e+04
1.399964e+04
1.400182e+04
1.400061e+04
1.399882e+04
1.399829e+04
1.400156e+04
1.400068e+04
1.399894e+04
1.399638e+04
1.400351e+04
1.400290e+04
1.399640e+04
1.400295e+04
1.399692e+04
1.400521e+04
1.399568e+04
1.399852e+04
1.400161e+04
1.400177e+04
1.399824e+04
1.400513e+04
1.399303e+04
1.399636e+04
1.400768e+04
1.399926e+04
1.400211e+04
1.400265e+04
1.399676e+04
1.399860e+04
1.400440e+04
1.400847e+04
1.399306e+04
1.399821e+04
1.400313e+04
1.400140e+04
1.399959e+04
1.399522e+04
1.400340e+04
1.400573e+04
1.399763e+04
1.400064e+04
1.399999e+04
1.400181e+04
1.399835e+04
1.400011e+04
1.400100e+04
1.400028e+04
1.399981e+04
1.399732e+04
1.400239e+04
1.399608e+04
1.400385e+04
1.400120e+04
1.400109e+04
1.399880e+04
1.399894e+04
1.399738e+04
1.400256e+04
1.399767e+04
1.400296e+04
1.400178e+04
1.400201e+04
1.399888e+04
1.399852e+04
1.400134e+04
1.399696e+04
1.399934e+04
1.400332e+04
1.399854e+04
1.400218e+04
1.400085e+04
1.399972e+04
1.399947e+04
1.400038e+04
1.399887e+04
1.400155e+04
1.399827e+04
1.400252e+04
1.400147e+04
1.399903e+04
1.400201e+04
1.400082e+04
1.399821e+04
1.399931e+04
1.400185e+04
1.399839e+04
1.399936e+04
1.400089e+04
1.400030e+04
1.400061e+04
1.399986e+04
1.399955e+04
1.400087e+04
1.399932e+04
1.400121e+04
1.399927e+04
1.399995e+04
1.400154e+04
1.400036e+04
1.399890e+04
1.399881e+04
1.400148e+04
1.400057e+04
1.399996e+04
1.399786e+04
1.399951e+04
1.400249e+04
1.400092e+04
1.399672e+04
1.399895e+04
1.400346e+04
1.400100e+04
1.399944e+04
1.400049e+04
1.399762e+04
1.400200e+04
1.400304e+04
1.399853e+04
1.400026e+04
1.400055e+04
1.400390e+04
1.399655e+04
1.399930e+04
1.400114e+04
1.399666e+04
1.399994e+04
1.400369e+04
1.400035e+04
1.400023e+04
1.399984e+04
1.400145e+04
1.399897e+04
1.399945e+04
1.400106e+04
1.400081e+04
1.399941e+04
1.399491e+04
1.400550e+04
1.400127e+04
1.399930e+04
1.400258e+04
1.400091e+04
1.399756e+04
1.399936e+04
1.400058e+04
1.399991e+04
1.400292e+04
1.399786e+04
1.400101e+04
1.400028e+04
1.399928e+04
1.400005e+04
1.400119e+04
1.399938e+04
1.399969e+04
1.400107e+04
1.399916e+04
1.400111e+04
1.400405e+04
1.399920e+04
1.399599e+04
1.400090e+04
1.400092e+04
1.399948e+04
1.400602e+04
1.399410e+04
1.400369e+04
1.399664e+04
1.399844e+04
1.399870e+04
1.400119e+04
1.400106e+04
1.400076e+04
1.399933e+04
1.400235e+04
1.399759e+04
1.399635e+04
1.399966e+04
1.400335e+04
1.400000e+04
1.400267e+04
1.399695e+04
1.399860e+04
1.400124e+04
1.399731e+04
1.399953e+04
1.400264e+04
1.400046e+04
1.399946e+04
1.400048e+04
1.399980e+04
1.400044e+04
1.400028e+04
1.400015e+04
1.399973e+04
1.399988e+04
1.400142e+04
1.400247e+04
1.399859e+04
1.399773e+04
1.399977e+04
1.400013e+04
1.400415e+04
1.400093e+04
1.399538e+04
1.399890e+04
1.399585e+04
1.400416e+04
1.399710e+04
1.400265e+04
1.400187e+04
1.399756e+04
1.400191e+04
1.399458e+04
1.399750e+04
1.400497e+04
1.399909e+04
1.400005e+04
1.400219e+04
1.399722e+04
1.399841e+04
1.400235e+04
1.400161e+04
1.399731e+04
1.400062e+04
1.399909e+04
1.399817e+04
1.400176e+04
1.400090e+04
1.399722e+04
1.399895e+04
1.400266e+04
1.400375e+04
1.399622e+04
1.399317e+04
1.400692e+04
1.399625e+04
1.399605e+04
1.400355e+04
1.400377e+04
1.399985e+04
1.400023e+04
1.399987e+04
1.399990e+04
1.400190e+04
1.399769e+04
1.399794e+04
1.399517e+04
1.400177e+04
1.400458e+04
1.400133e+04
1.399861e+04
1.399843e+04
1.400125e+04
1.399742e+04
1.400261e+04
1.399977e+04
1.400455e+04
1.400022e+04
1.399533e+04
1.399723e+04
1.400320e+04
1.399719e+04
1.400303e+04
1.399716e+04
1.400228e+04
1.400300e+04
1.399774e+04
1.400005e+04
1.400017e+04
1.399813e+04
1.400211e+04
1.400051e+04
1.399970e+04
1.400000e+04
1.400041e+04
1.400413e+04
1.399617e+04
1.399923e+04
1.400117e+04
1.399821e+04
1.400039e+04
1.400230e+04
1.400017e+04
1.400432e+04
1.399546e+04
1.399593e+04
1.400462e+04
1.400338e+04
1.399687e+04
1.400296e+04
1.399851e+04
1.399763e+04
1.400188e+04
1.399947e+04
1.400110e+04
1.399571e+04
1.400439e+04
1.400045e+04
1.399944e+04
1.400336e+04
1.399623e+04
1.399690e+04
1.400438e+04
1.400079e+04
1.399919e+04
1.400151e+04
1.399847e+04
1.399801e+04
1.399935e+04
1.400227e+04
1.400076e+04
1.399890e+04
1.400148e+04
1.400158e+04
1.399888e+04
1.399992e+04
1.400451e+04
1.400048e+04
1.399580e+04
1.399641e+04
1.400396e+04
1.400345e+04
1.399672e+04
1.400023e+04
1.400206e+04
1.400010e+04
1.399823e+04
1.400219e+04
1.399847e+04
1.399790e+04
1.400130e+04
1.399960e+04
1.400075e+04
1.400169e+04
1.400280e+04
1.399802e+04
1.399673e+04
1.399734e+04
1.400231e+04
1.400440e+04
1.399592e+04
1.399858e+04
1.400179e+04
1.400305e+04
1.399868e+04
1.399747e+04
1.400157e+04
1.400014e+04
1.400038e+04
1.400154e+04
1.399900e+04
1.399659e+04
1.399805e+04
1.400396e+04
1.400243e+04
1.399805e+04
1.400235e+04
1.399707e+04
1.400325e+04
1.400181e+04
1.400041e+04
1.399895e+04
1.400041e+04
1.400139e+04
1.399898e+04
1.399941e+04
1.400085e+04
1.399621e+04
1.400248e+04
1.400384e+04
1.399780e+04
1.399367e+04
1.400517e+04
1.400590e+04
1.399415e+04
1.400209e+04
1.399787e+04
1.399859e+04
1.400216e+04
1.400097e+04
1.399772e+04
1.399606e+04
1.400371e+04
1.400367e+04
1.399635e+04
1.399900e+04
1.400110e+04
1.400067e+04
1.400068e+04
1.399961e+04
1.399898e+04
1.400045e+04
1.400019e+04
1.400209e+04
1.399871e+04
1.400181e+04
1.400072e+04
1.399854e+04
1.399959e+04
1.400034e+04
1.400031e+04
1.400620e+04
1.399414e+04
1.400059e+04
1.400419e+04
1.399921e+04
1.399605e+04
1.399831e+04
1.400176e+04
1.400238e+04
1.399762e+04
1.400507e+04
1.399434e+04
1.399485e+04
1.400554e+04
1.399818e+04
1.399829e+04
1.400160e+04
1.400187e+04
1.399423e+04
1.400541e+04
1.399934e+04
1.399921e+04
1.400087e+04
1.400104e+04
1.400088e+04
1.399931e+04
1.400125e+04
1.399834e+04
1.399873e+04
1.400087e+04
1.399741e+04
1.399807e+04
1.400235e+04
1.400198e+04
1.400224e+04
1.399738e+04
1.399891e+04
1.400076e+04
1.399611e+04
1.399599e+04
1.400310e+04
1.400357e+04
1.400388e+04
1.399562e+04
1.400296e+04
1.399683e+04
1.399748e+04
1.399949e+04
1.400190e+04
1.399985e+04
1.399958e+04
1.400037e+04
1.400028e+04
1.399978e+04
1.400366e+04
1.400088e+04
1.399606e+04
1.399871e+04
1.399474e+04
1.399999e+04
1.400544e+04
1.400023e+04
1.399978e+04
1.400043e+04
1.400109e+04
1.400092e+04
1.399971e+04
1.400017e+04
1.400143e+04
1.399916e+04
1.400306e+04
1.399726e+04
1.399547e+04
1.400466e+04
1.400449e+04
1.400355e+04
1.399502e+04
1.399639e+04
1.400011e+04
1.399956e+04
1.399912e+04
1.400039e+04
1.400100e+04
1.400453e+04
1.399869e+04
1.399515e+04
1.400109e+04
1.399839e+04
1.399685e+04
1.400265e+04
1.400115e+04
1.399868e+04
1.399846e+04
1.400084e+04
1.400074e+04
1.399884e+04
1.400043e+04
1.399925e+04
1.399837e+04
1.399926e+04
1.400168e+04
1.400066e+04
1.400039e+04
1.399545e+04
1.399966e+04
1.399876e+04
1.399945e+04
1.400472e+04
1.400072e+04
1.400123e+04
1.400132e+04
1.399807e+04
1.399911e+04
1.400216e+04
1.400306e+04
1.400138e+04
1.399709e+04
1.399851e+04
1.399974e+04
1.400005e+04
1.400029e+04
1.400143e+04
1.400008e+04
1.399874e+04
1.399662e+04
1.400119e+04
1.400364e+04
1.399910e+04
1.400006e+04
1.400014e+04
1.399996e+04
1.400024e+04
1.400354e+04
1.399590e+04
1.399675e+04
1.400423e+04
1.399876e+04
1.400141e+04
1.399690e+04
1.400349e+04
1.400307e+04
1.399655e+04
1.399977e+04
1.400021e+04
1.399950e+04
1.400278e+04
1.400069e+04
1.399713e+04
1.399462e+04
1.400516e+04
1.400314e+04
1.399712e+04
1.399506e+04
1.400553e+04
1.400127e+04
1.399651e+04
1.399904e+04
1.400403e+04
1.399900e+04
1.400124e+04
1.400368e+04
1.399674e+04
1.400040e+04
1.399785e+04
1.399976e+04
1.400222e+04
1.400090e+04
1.399926e+04
1.400224e+04
1.400065e+04
1.399792e+04
1.399990e+04
1.400066e+04
1.399974e+04
1.399940e+04
1.400067e+04
1.400622e+04
1.399390e+04
1.399920e+04
1.399907e+04
1.400038e+04
1.400095e+04
1.399936e+04
1.400070e+04
1.399841e+04
1.400124e+04
1.400208e+04
1.399946e+04
1.399813e+04
1.400019e+04
1.400085e+04
1.399923e+04
1.399791e+04
1.399969e+04
1.400178e+04
1.400011e+04
1.399982e+04
1.400017e+04
1.400058e+04
1.399938e+04
1.400190e+04
1.399771e+04
1.399612e+04
1.400355e+04
1.400370e+04
1.399633e+04
1.400027e+04
1.399901e+04
1.400298e+04
1.399691e+04
1.400109e+04
1.400115e+04
1.399879e+04
1.399833e+04
1.400333e+04
1.399625e+04
1.399716e+04
1.399989e+04
1.400230e+04
1.399966e+04
1.399905e+04
1.400107e+04
1.399752e+04
1.400229e+04
1.400048e+04
1.399943e+04
1.399911e+04
1.400163e+04
1.400079e+04
1.399786e+04
1.399963e+04
1.400042e+04
1.399714e+04
1.400305e+04
1.400505e+04
1.399807e+04
1.399502e+04
1.400204e+04
1.399896e+04
1.400081e+04
1.400361e+04
1.399650e+04
1.399622e+04
1.400302e+04
1.400231e+04
1.399674e+04
1.399812e+04
1.400170e+04
1.399885e+04
1.400095e+04
1.400407e+04
1.399932e+04
1.399604e+04
1.400065e+04
1.400542e+04
1.399461e+04
1.399830e+04
1.400186e+04
1.401185e+04
1.400648e+04
1.399337e+04
1.400310e+04
1.399503e+04
1.400763e+04
1.400440e+04
1.399177e+04
1.399473e+04
1.400550e+04
1.400211e+04
1.399740e+04
1.400304e+04
1.400102e+04
1.399852e+04
1.400411e+04
1.400559e+04
1.399926e+04
1.399661e+04
1.400647e+04
1.400270e+04
1.399795e+04
1.399814e+04
1.400307e+04
1.400440e+04
1.399596e+04
1.399732e+04
1.400520e+04
1.399869e+04
1.400241e+04
1.399941e+04
1.400080e+04
1.400182e+04
1.400023e+04
1.399872e+04
1.400076e+04
1.399925e+04
1.400133e+04
1.400384e+04
1.399651e+04
1.399881e+04
1.399931e+04
1.400158e+04
1.400106e+04
1.400206e+04
1.399813e+04
1.399734e+04
1.400324e+04
1.399759e+04
1.399847e+04
1.400296e+04
1.400175e+04
1.400005e+04
1.400032e+04
1.400084e+04
1.399962e+04
1.402473e+04
1.403505e+04
1.401143e+04
1.402357e+04
1.399596e+04
1.400764e+04
1.400751e+04
1.399417e+04
1.399794e+04
1.401235e+04
1.377406e+04
1.379901e+04
1.399923e+04
1.400382e+04
1.400087e+04
1.400174e+04
1.399914e+04
1.400674e+04
1.400706e+04
1.400009e+04
1.400480e+04
1.399646e+04
1.399238e+04
1.400878e+04
1.400554e+04
1.400420e+04
1.399894e+04
1.399854e+04
1.400043e+04
1.400165e+04
1.399823e+04
1.400213e+04
1.400572e+04
1.399918e+04
1.399724e+04
1.400425e+04
1.400333e+04
1.399722e+04
1.399814e+04
1.400212e+04
1.400310e+04
1.400098e+04
1.399879e+04
1.400061e+04
1.399690e+04
1.400369e+04
1.400312e+04
1.399748e+04
1.399860e+04
1.400407e+04
1.400229e+04
1.399661e+04
1.399894e+04
1.400143e+04
1.400160e+04
1.399862e+04
1.400064e+04
1.399969e+04
1.400229e+04
1.399814e+04
1.400015e+04
1.400068e+04
1.400089e+04
1.399994e+04
1.400132e+04
1.400005e+04
1.400115e+04
1.399982e+04
1.399611e+04
1.400202e+04
1.400548e+04
1.399988e+04
1.399736e+04
1.400326e+04
1.399965e+04
1.400031e+04
1.399982e+04
1.400021e+04
1.400088e+04
1.400227e+04
1.399678e+04
1.400371e+04
1.400170e+04
1.399717e+04
1.399979e+04
1.399848e+04
1.399925e+04
1.400445e+04
1.399429e+04
1.400426e+04
1.399913e+04
1.399899e+04
1.400070e+04
1.400594e+04
1.399715e+04
1.399498e+04
1.400520e+04
1.400092e+04
1.400049e+04
1.400398e+04
1.399977e+04
1.400015e+04
1.399716e+04
1.400448e+04
1.402339e+04
1.404311e+04
1.399071e+04
1.399633e+04
1.398685e+04
1.415273e+04
1.398836e+04
1.414329e+04
1.399935e+04
1.399634e+04
1.400381e+04
1.400344e+04
1.400741e+04
1.400188e+04
1.399861e+04
1.400395e+04
1.400367e+04
1.400145e+04
1.400221e+04
1.400499e+04
1.399782e+04
1.399944e+04
1.400318e+04
1.400308e+04
1.400348e+04
1.400120e+04
1.399704e+04
1.399705e+04
1.399847e+04
1.400002e+04
1.400145e+04
1.399984e+04
1.399508e+04
1.399965e+04
1.400532e+04
1.399961e+04
1.400208e+04
1.399745e+04
1.399718e+04
1.400232e+04
1.400742e+04
1.400582e+04
1.400316e+04
1.399812e+04
1.399239e+04
1.399468e+04
1.399650e+04
1.399931e+04
1.400342e+04
1.399975e+04
1.399794e+04
1.399778e+04
1.400138e+04
1.400146e+04
1.399948e+04
1.400009e+04
1.399884e+04
1.399550e+04
1.399785e+04
1.400001e+04
1.400377e+04
1.400636e+04
1.400148e+04
1.399989e+04
1.400110e+04
1.400226e+04
1.400029e+04
1.399738e+04
1.399550e+04
1.400094e+04
1.400229e+04
1.399663e+04
1.399820e+04
1.400060e+04
1.400251e+04
1.400403e+04
1.399774e+04
1.399777e+04
1.399560e+04
1.400254e+04
1.400409e+04
1.400296e+04
1.399690e+04
1.399676e+04
1.400033e+04
1.400068e+04
1.399969e+04
1.399949e+04
1.400603e+04
1.399451e+04
1.400264e+04
1.400261e+04
1.400544e+04
1.399472e+04
1.399915e+04
1.399938e+04
1.399555e+04
1.400672e+04
1.399500e+04
1.400483e+04
1.400490e+04
1.399478e+04
1.399887e+04
1.399110e+04
1.399405e+04
1.400428e+04
1.398815e+04
1.398999e+04
1.399706e+04
1.399533e+04
1.399762e+04
1.399611e+04
1.398956e+04
1.399277e+04
1.399427e+04
1.400466e+04
1.400193e+04
1.399406e+04
1.400351e+04
1.399897e+04
1.401028e+04
1.400512e+04
1.400244e+04
1.400500e+04
1.400900e+04
1.400079e+04
1.399989e+04
1.400070e+04
1.400129e+04
1.399997e+04
1.399533e+04
1.400182e+04
1.399105e+04
1.399270e+04
1.400054e+04
1.399611e+04
1.399908e+04
1.400088e+04
1.399946e+04
1.400249e+04
1.400306e+04
1.399872e+04
1.399718e+04
1.400139e+04
1.400585e+04
1.399399e+04
1.399820e+04
1.399977e+04
1.399531e+04
1.399981e+04
1.400190e+04
1.399961e+04
1.400399e+04
1.400046e+04
1.400656e+04
1.399319e+04
1.399536e+04
1.399926e+04
1.400435e+04
1.400034e+04
1.400111e+04
1.399875e+04
1.400205e+04
1.399546e+04
1.400233e+04
1.400508e+04
1.399799e+04
1.400404e+04
1.399696e+04
1.399509e+04
1.399894e+04
1.400097e+04
1.400066e+04
1.399883e+04
1.400293e+04
1.399709e+04
1.399317e+04
1.400151e+04
1.400695e+04
1.399820e+04
1.399578e+04
1.400422e+04
1.400665e+04
1.400051e+04
1.400432e+04
1.400379e+04
1.400893e+04
1.400037e+04
1.399591e+04
1.400380e+04
1.399841e+04
1.400902e+04
1.398876e+04
1.399372e+04
1.399891e+04
1.400060e+04
1.399989e+04
1.399816e+04
1.399284e+04
1.399761e+04
1.400146e+04
1.400793e+04
1.400186e+04
1.399428e+04
1.400369e+04
1.399530e+04
1.400006e+04
1.399639e+04
1.400416e+04
1.400109e+04
1.399693e+04
1.400528e+04
1.400483e+04
1.399825e+04
1.400672e+04
1.399968e+04
1.400015e+04
1.399279e+04
1.400381e+04
1.400725e+04
1.400448e+04
1.401710e+04
1.400788e+04
1.399984e+04
1.399702e+04
1.400344e+04
1.400357e+04
1.399885e+04
1.400751e+04
1.399800e+04
1.400464e+04
1.401259e+04
1.401023e+04
1.401559e+04
1.401278e+04
1.401129e+04
1.400520e+04
1.399907e+04
1.401703e+04
1.402910e+04
1.401137e+04
1.399071e+04
1.400281e+04
1.400855e+04
1.400846e+04
1.400441e+04
1.399694e+04
1.401273e+04
1.399754e+04
1.400498e+04
1.400735e+04
1.400299e+04
1.400526e+04
1.400187e+04
1.400175e+04
1.399967e+04
1.400485e+04
1.400533e+04
1.400086e+04
1.400244e+04
1.400166e+04
1.400159e+04
1.399671e+04
1.400885e+04
1.400257e+04
1.400249e+04
1.400035e+04
1.400030e+04
1.401352e+04
1.400525e+04
1.403057e+04
1.404136e+04
1.400884e+04
1.399992e+04
1.402973e+04
1.404682e+04
1.399676e+04
1.400842e+04
1.399999e+04
1.401002e+04
1.399829e+04
1.405008e+04
1.399686e+04
1.404578e+04
1.407280e+04
1.406736e+04
1.400130e+04
1.399300e+04
1.400023e+04
1.400230e+04
1.400681e+04
1.399767e+04
1.401153e+04
1.399754e+04
1.400002e+04
1.401211e+04
1.400707e+04
1.400917e+04
1.400184e+04
1.400527e+04
1.401189e+04
1.400382e+04
1.400861e+04
1.400931e+04
1.400669e+04
1.400659e+04
1.399961e+04
1.400788e+04
1.401743e+04
1.399750e+04
1.401998e+04
1.400128e+04
1.401849e+04
1.401825e+04
1.400388e+04
1.400532e+04
1.400714e+04
1.399927e+04
1.400043e+04
1.400584e+04
1.400566e+04
1.399945e+04
1.400277e+04
1.399747e+04
1.400061e+04
1.400453e+04
1.399927e+04
1.400380e+04
1.400084e+04
1.399715e+04
1.400290e+04
1.400180e+04
1.399804e+04
1.399795e+04
1.399760e+04
1.400362e+04
1.400134e+04
1.399246e+04
1.399859e+04
1.400691e+04
1.400382e+04
1.399582e+04
1.400068e+04
1.399859e+04
1.400291e+04
1.399697e+04
1.400138e+04
1.399825e+04
1.399923e+04
1.400138e+04
1.400077e+04
1.400209e+04
1.399870e+04
1.399784e+04
1.399777e+04
1.400607e+04
1.400657e+04
1.400214e+04
1.399344e+04
1.400630e+04
1.399885e+04
1.400136e+04
1.400496e+04
1.399455e+04
1.399175e+04
1.400740e+04
1.400025e+04
1.400098e+04
1.399968e+04
1.399892e+04
1.400064e+04
1.398562e+04
1.399744e+04
1.400841e+04
1.399050e+04
1.399152e+04
1.399926e+04
1.399282e+04
1.399871e+04
1.398580e+04
1.398725e+04
1.399902e+04
1.399783e+04
1.399930e+04
1.400236e+04
1.400092e+04
1.400203e+04
1.399769e+04
1.399969e+04
1.400046e+04
1.400010e+04
1.399892e+04
1.399618e+04
1.400306e+04
1.400138e+04
1.399938e+04
1.399936e+04
1.400089e+04
1.399969e+04
1.399852e+04
1.400010e+04
1.400174e+04
1.399646e+04
1.399559e+04
1.400414e+04
1.400436e+04
1.400345e+04
1.400116e+04
1.399713e+04
1.399903e+04
1.400271e+04
1.400069e+04
1.399716e+04
1.399920e+04
1.399798e+04
1.400339e+04
1.400168e+04
1.399678e+04
1.399737e+04
1.400228e+04
1.400241e+04
1.399777e+04
1.400317e+04
1.399679e+04
1.399708e+04
1.400332e+04
1.400274e+04
1.399859e+04
1.399736e+04
1.400152e+04
1.399965e+04
1.400127e+04
1.399985e+04
1.399840e+04
1.399691e+04
1.399965e+04
1.400320e+04
1.400019e+04
1.400352e+04
1.399687e+04
1.399618e+04
1.400302e+04
1.399985e+04
1.400156e+04
1.400021e+04
1.399879e+04
1.400198e+04
1.400094e+04
1.399820e+04
1.399903e+04
1.399824e+04
1.399824e+04
1.400177e+04
1.400199e+04
1.400185e+04
1.399782e+04
1.399820e+04
1.400228e+04
1.400223e+04
1.399779e+04
1.399778e+04
1.400224e+04
1.399957e+04
1.400388e+04
1.400061e+04
1.399624e+04
1.400187e+04
1.399570e+04
1.399799e+04
1.400436e+04
1.399715e+04
1.400526e+04
1.400321e+04
1.399485e+04
1.400333e+04
1.400046e+04
1.399666e+04
1.399945e+04
1.399418e+04
1.399621e+04
1.400572e+04
1.400378e+04
1.400546e+04
1.399505e+04
1.399479e+04
1.400516e+04
1.400094e+04
1.399954e+04
1.399904e+04
1.400060e+04
1.400317e+04
1.400255e+04
1.399694e+04
1.399760e+04
1.399314e+04
1.400441e+04
1.400658e+04
1.399549e+04
1.399975e+04
1.399945e+04
1.400049e+04
1.400065e+04
1.400141e+04
1.399734e+04
1.399873e+04
1.400260e+04
1.399998e+04
1.400093e+04
1.399988e+04
1.399862e+04
1.399400e+04
1.400204e+04
1.400572e+04
1.399756e+04
1.399753e+04
1.400397e+04
1.400222e+04
1.399586e+04
1.400204e+04
1.399863e+04
1.399802e+04
1.400150e+04
1.400271e+04
1.399854e+04
1.399716e+04
1.400143e+04
1.400235e+04
1.399730e+04
1.399766e+04
1.400253e+04
1.400046e+04
1.399993e+04
1.399959e+04
1.399988e+04
1.400135e+04
1.399937e+04
1.399837e+04
1.400036e+04
1.399869e+04
1.399468e+04
1.400113e+04
1.400530e+04
1.399880e+04
1.400070e+04
1.400133e+04
1.399952e+04
1.400177e+04
1.399920e+04
1.399845e+04
1.400087e+04
1.399899e+04
1.400201e+04
1.400107e+04
1.399816e+04
1.399401e+04
1.399328e+04
1.400616e+04
1.400713e+04
1.400075e+04
1.400334e+04
1.399979e+04
1.399699e+04
1.400325e+04
1.399670e+04
1.400348e+04
1.399675e+04
1.400031e+04
1.399990e+04
1.399973e+04
1.400023e+04
1.400022e+04
1.400007e+04
1.399461e+04
1.400512e+04
1.400526e+04
1.400199e+04
1.399486e+04
1.399813e+04
1.399887e+04
1.400102e+04
1.399890e+04
1.400103e+04
1.399808e+04
1.399984e+04
1.400181e+04
1.399989e+04
1.399958e+04
1.400045e+04
1.400080e+04
1.399916e+04
1.399803e+04
1.400202e+04
1.400190e+04
1.399787e+04
1.399832e+04
1.400151e+04
1.399687e+04
1.400340e+04
1.400270e+04
1.400411e+04
1.399736e+04
1.399593e+04
1.400193e+04
1.399803e+04
1.399991e+04
1.400050e+04
1.400053e+04
1.399394e+04
1.399979e+04
1.400603e+04
1.400224e+04
1.399769e+04
1.399614e+04
1.400358e+04
1.399728e+04
1.399947e+04
1.400247e+04
1.400055e+04
1.399991e+04
1.400040e+04
1.399795e+04
1.400195e+04
1.400073e+04
1.400696e+04
1.399930e+04
1.399313e+04
1.399769e+04
1.400238e+04
1.399943e+04
1.400078e+04
1.400173e+04
1.400327e+04
1.399838e+04
1.399685e+04
1.399982e+04
1.399999e+04
1.400199e+04
1.399790e+04
1.399838e+04
1.399613e+04
1.400165e+04
1.400388e+04
1.400168e+04
1.399800e+04
1.399822e+04
1.400167e+04
1.399943e+04
1.400188e+04
1.400035e+04
1.399799e+04
1.400157e+04
1.399821e+04
1.399973e+04
1.400000e+04
1.399824e+04
1.400123e+04
1.400138e+04
1.399860e+04
1.399726e+04
1.400285e+04
1.400070e+04
1.399945e+04
1.400412e+04
1.400085e+04
1.399588e+04
1.399941e+04
1.399361e+04
1.400661e+04
1.400055e+04
1.400014e+04
1.399608e+04
1.399944e+04
1.400448e+04
1.400065e+04
1.399951e+04
1.400060e+04
1.400150e+04
1.399858e+04
1.399827e+04
1.400063e+04
1.400190e+04
1.399946e+04
1.399965e+04
1.400040e+04
1.400154e+04
1.399845e+04
1.399733e+04
1.399561e+04
1.400263e+04
1.400431e+04
1.400136e+04
1.399840e+04
1.400078e+04
1.399918e+04
1.400444e+04
1.400297e+04
1.399528e+04
1.399663e+04
1.400008e+04
1.399957e+04
1.399927e+04
1.400065e+04
1.399696e+04
1.399818e+04
1.400287e+04
1.400173e+04
1.399512e+04
1.400525e+04
1.399803e+04
1.400187e+04
1.400305e+04
1.400419e+04
1.399693e+04
1.399605e+04
1.400371e+04
1.399644e+04
1.400444e+04
1.399580e+04
1.400208e+04
1.399861e+04
1.399811e+04
1.400149e+04
1.399892e+04
1.400081e+04
1.400032e+04
1.399968e+04
1.400043e+04
1.399869e+04
1.399943e+04
1.400113e+04
1.399726e+04
1.400252e+04
1.399700e+04
1.400297e+04
1.400164e+04
1.400229e+04
1.399841e+04
1.399740e+04
1.400277e+04
1.399748e+04
1.399998e+04
1.399996e+04
1.400123e+04
1.399998e+04
1.399896e+04
1.400003e+04
1.399731e+04
1.400296e+04
1.400174e+04
1.399838e+04
1.400254e+04
1.400022e+04
1.399784e+04
1.400010e+04
1.399976e+04
1.400027e+04
1.399970e+04
1.400023e+04
1.399928e+04
1.399670e+04
1.400084e+04
1.400319e+04
1.400074e+04
1.399899e+04
1.399618e+04
1.400364e+04
1.399964e+04
1.400122e+04
1.400033e+04
1.399859e+04
1.400263e+04
1.399733e+04
1.399679e+04
1.400333e+04
1.400312e+04
1.400107e+04
1.399682e+04
1.399880e+04
1.400308e+04
1.399687e+04
1.399753e+04
1.400276e+04
1.399635e+04
1.400010e+04
1.400377e+04
1.399969e+04
1.399744e+04
1.400258e+04
1.400265e+04
1.399752e+04
1.400129e+04
1.399673e+04
1.399874e+04
1.400334e+04
1.400230e+04
1.399768e+04
1.400099e+04
1.399882e+04
1.399830e+04
1.400264e+04
1.400150e+04
1.399715e+04
1.399983e+04
1.399967e+04
1.399644e+04
1.400308e+04
1.399949e+04
1.399785e+04
1.400030e+04
1.400165e+04
1.399637e+04
1.400381e+04
1.399918e+04
1.400072e+04
1.399795e+04
1.400135e+04
1.400204e+04
1.399864e+04
1.399878e+04
1.400113e+04
1.400228e+04
1.399791e+04
1.399777e+04
1.400102e+04
1.400229e+04
1.399898e+04
1.399681e+04
1.400330e+04
1.400381e+04
1.399613e+04
1.399974e+04
1.400075e+04
1.400002e+04
1.399947e+04
1.400282e+04
1.399716e+04
1.399803e+04
1.400170e+04
1.399650e+04
1.400176e+04
1.400316e+04
1.399832e+04
1.399584e+04
1.400390e+04
1.399893e+04
1.400098e+04
1.399494e+04
1.400091e+04
1.400481e+04
1.399902e+04
1.400217e+04
1.399770e+04
1.399838e+04
1.400182e+04
1.399778e+04
1.400166e+04
1.400247e+04
1.399818e+04
1.399996e+04
1.400056e+04
1.399916e+04
1.400130e+04
1.400206e+04
1.400165e+04
1.399817e+04
1.399886e+04
1.400235e+04
1.399761e+04
1.400134e+04
1.399877e+04
1.400060e+04
1.399952e+04
1.399934e+04
1.400076e+04
1.400215e+04
1.399772e+04
1.400060e+04
1.399942e+04
1.399781e+04
1.400436e+04
1.400198e+04
1.399559e+04
1.400199e+04
1.399804e+04
1.400043e+04
1.399933e+04
1.399969e+04
1.399497e+04
1.400011e+04
1.400514e+04
1.399603e+04
1.400380e+04
1.400401e+04
1.399580e+04
1.400267e+04
1.400056e+04
1.399713e+04
1.399933e+04
1.400092e+04
1.399903e+04
1.399889e+04
1.400089e+04
1.400106e+04
1.400693e+04
1.399846e+04
1.399301e+04
1.399916e+04
1.400074e+04
1.400094e+04
1.399885e+04
1.400217e+04
1.399522e+04
1.399750e+04
1.400483e+04
1.400204e+04
1.399781e+04
1.399495e+04
1.400490e+04
1.399757e+04
1.399948e+04
1.400235e+04
1.400053e+04
1.399918e+04
1.400065e+04
1.400046e+04
1.399951e+04
1.399865e+04
1.400390e+04
1.400162e+04
1.399554e+04
1.400067e+04
1.399943e+04
1.399840e+04
1.400161e+04
1.400240e+04
1.399667e+04
1.399750e+04
1.400330e+04
1.400286e+04
1.399719e+04
1.399906e+04
1.400100e+04
1.400181e+04
1.400331e+04
1.399842e+04
1.399677e+04
1.400055e+04
1.399926e+04
1.399897e+04
1.400095e+04
1.400101e+04
1.399648e+04
1.399915e+04
1.400300e+04
1.400298e+04
1.399689e+04
1.400062e+04
1.399915e+04
1.399893e+04
1.399728e+04
1.400073e+04
1.400256e+04
1.400020e+04
1.399967e+04
1.399808e+04
1.400213e+04
1.400020e+04
1.399822e+04
1.399979e+04
1.400190e+04
1.400107e+04
1.399903e+04
1.399717e+04
1.400300e+04
1.399928e+04
1.400150e+04
1.400086e+04
1.399854e+04
1.399800e+04
1.400231e+04
1.400205e+04
1.399798e+04
1.400483e+04
1.400171e+04
1.399552e+04
1.399838e+04
1.399900e+04
1.400092e+04
1.400212e+04
1.399768e+04
1.399921e+04
1.400099e+04
1.400084e+04
1.399874e+04
1.400191e+04
1.399818e+04
1.399891e+04
1.400096e+04
1.400020e+04
1.400294e+04
1.399976e+04
1.399690e+04
1.400158e+04
1.399825e+04
1.399557e+04
1.400447e+04
1.399694e+04
1.399991e+04
1.400302e+04
1.399999e+04
1.399695e+04
1.400422e+04
1.400328e+04
1.399647e+04
1.399955e+04
1.400114e+04
1.399580e+04
1.400228e+04
1.400459e+04
1.399752e+04
1.399522e+04
1.400602e+04
1.400133e+04
1.399943e+04
1.400386e+04
1.399609e+04
1.400186e+04
1.400028e+04
1.399836e+04
1.400047e+04
1.399849e+04
1.400119e+04
1.400093e+04
1.399883e+04
1.399745e+04
1.399642e+04
1.400235e+04
1.400307e+04
1.400183e+04
1.399836e+04
1.399842e+04
1.400164e+04
1.399873e+04
1.399817e+04
1.400174e+04
1.400190e+04
1.400101e+04
1.399892e+04
1.400263e+04
1.399729e+04
1.399860e+04
1.400434e+04
1.400073e+04
1.399559e+04
1.399653e+04
1.400330e+04
1.399691e+04
1.400292e+04
1.400775e+04
1.399858e+04
1.399193e+04
1.400138e+04
1.400039e+04
1.399940e+04
1.400049e+04
1.399989e+04
1.399928e+04
1.399804e+04
1.400127e+04
1.400176e+04
1.400042e+04
1.399987e+04
1.399880e+04
1.400059e+04
1.400675e+04
1.400430e+04
1.399286e+04
1.399596e+04
1.400052e+04
1.399985e+04
1.399916e+04
1.400065e+04
1.399977e+04
1.400048e+04
1.400432e+04
1.399755e+04
1.399566e+04
1.400214e+04
1.400035e+04
1.400022e+04
1.399628e+04
1.400426e+04
1.400193e+04
1.399846e+04
1.399429e+04
1.400005e+04
1.400593e+04
1.400037e+04
1.399985e+04
1.399982e+04
1.400203e+04
1.399763e+04
1.399526e+04
1.400141e+04
1.400447e+04
1.399854e+04
1.400328e+04
1.399697e+04
1.400239e+04
1.399812e+04
1.400137e+04
1.399950e+04
1.399875e+04
1.400096e+04
1.399831e+04
1.400142e+04
1.400250e+04
1.399692e+04
1.399832e+04
1.399865e+04
1.400157e+04
1.400090e+04
1.399770e+04
1.400181e+04
1.399816e+04
1.400168e+04
1.400320e+04
1.399699e+04
1.399659e+04
1.400228e+04
1.400160e+04
1.399819e+04
1.399682e+04
1.400365e+04
1.400040e+04
1.399904e+04
1.399980e+04
1.400096e+04
1.400018e+04
1.400013e+04
1.399454e+04
1.400542e+04
1.399874e+04
1.400013e+04
1.400147e+04
1.400023e+04
1.399879e+04
1.399780e+04
1.400083e+04
1.400306e+04
1.400154e+04
1.399862e+04
1.399767e+04
1.399981e+04
1.400228e+04
1.400012e+04
1.400034e+04
1.400039e+04
1.400095e+04
1.399914e+04
1.399937e+04
1.400066e+04
1.400109e+04
1.400221e+04
1.399874e+04
1.399773e+04
1.399842e+04
1.400163e+04
1.400304e+04
1.399693e+04
1.399683e+04
1.399977e+04
1.400314e+04
1.400027e+04
1.400206e+04
1.399800e+04
1.399958e+04
1.400031e+04
1.399884e+04
1.399856e+04
1.400121e+04
1.400114e+04
1.400284e+04
1.399708e+04
1.400557e+04
1.399413e+04
1.399732e+04
1.400038e+04
1.400230e+04
1.399979e+04
1.399560e+04
1.400420e+04
1.399642e+04
1.400322e+04
1.400255e+04
1.400444e+04
1.399721e+04
1.399564e+04
1.399738e+04
1.400272e+04
1.400177e+04
1.399829e+04
1.400083e+04
1.399978e+04
1.399937e+04
1.400032e+04
1.400117e+04
1.399908e+04
1.400196e+04
1.399826e+04
1.399857e+04
1.399694e+04
1.400163e+04
1.400296e+04
1.400221e+04
1.400346e+04
1.399774e+04
1.399787e+04
1.400109e+04
1.399858e+04
1.400144e+04
1.399444e+04
1.399842e+04
1.400585e+04
1.399922e+04
1.400207e+04
1.399872e+04
1.400116e+04
1.399742e+04
1.400232e+04
1.400225e+04
1.399910e+04
1.399765e+04
1.400034e+04
1.400191e+04
1.399806e+04
1.400164e+04
1.399820e+04
1.400096e+04
1.400038e+04
1.399878e+04
1.399961e+04
1.400205e+04
1.399765e+04
1.400244e+04
1.399773e+04
1.399826e+04
1.399464e+04
1.400169e+04
1.400511e+04
1.399895e+04
1.400116e+04
1.400466e+04
1.399531e+04
1.399602e+04
1.400543e+04
1.400412e+04
1.399475e+04
1.399966e+04
1.400037e+04
1.400034e+04
1.399964e+04
1.400305e+04
1.399712e+04
1.399696e+04
1.400316e+04
1.399924e+04
1.400076e+04
1.399992e+04
1.400031e+04
1.399677e+04
1.400241e+04
1.400341e+04
1.399741e+04
1.400198e+04
1.399779e+04
1.399816e+04
1.400187e+04
1.400111e+04
1.399940e+04
1.399856e+04
1.400046e+04
1.400296e+04
1.399757e+04
1.399719e+04
1.400380e+04
1.399844e+04
1.400137e+04
1.399864e+04
1.399752e+04
1.400135e+04
1.400255e+04
1.400156e+04
1.399912e+04
1.399980e+04
1.399977e+04
1.400090e+04
1.399882e+04
1.400633e+04
1.400330e+04
1.399339e+04
1.399638e+04
1.399867e+04
1.400139e+04
1.399843e+04
1.400139e+04
1.400093e+04
1.399404e+04
1.399877e+04
1.400596e+04
1.400422e+04
1.399542e+04
1.400068e+04
1.399916e+04
1.399819e+04
1.399932e+04
1.400184e+04
1.400030e+04
1.400069e+04
1.399943e+04
1.400294e+04
1.399726e+04
1.399955e+04
1.400183e+04
1.400066e+04
1.399816e+04
1.399880e+04
1.400178e+04
1.399641e+04
1.400347e+04
1.400137e+04
1.400516e+04
1.399861e+04
1.399527e+04
1.400131e+04
1.399852e+04
1.400117e+04
1.399886e+04
1.399936e+04
1.399404e+04
1.400085e+04
1.400580e+04
1.399933e+04
1.400063e+04
1.399844e+04
1.400108e+04
1.400351e+04
1.400139e+04
1.399604e+04
1.399845e+04
1.400118e+04
1.399709e+04
1.399860e+04
1.400337e+04
1.399981e+04
1.399995e+04
1.399899e+04
1.399964e+04
1.400071e+04
1.399999e+04
1.400044e+04
1.399952e+04
1.399660e+04
1.400333e+04
1.399936e+04
1.400049e+04
1.399808e+04
1.399957e+04
1.400204e+04
1.400022e+04
1.399807e+04
1.400182e+04
1.399980e+04
1.399991e+04
1.400063e+04
1.399980e+04
1.399934e+04
1.400012e+04
1.399831e+04
1.400135e+04
1.399672e+04
1.400345e+04
1.400198e+04
1.399990e+04
1.399809e+04
1.399967e+04
1.400038e+04
1.399967e+04
1.400079e+04
1.399922e+04
1.400473e+04
1.400182e+04
1.399515e+04
1.399828e+04
1.400022e+04
1.399986e+04
1.400059e+04
1.399965e+04
1.399704e+04
1.399885e+04
1.400327e+04
1.400100e+04
1.400605e+04
1.399397e+04
1.400136e+04
1.399865e+04
1.399784e+04
1.399930e+04
1.400187e+04
1.400092e+04
1.399852e+04
1.400148e+04
1.400164e+04
1.399779e+04
1.400159e+04
1.400005e+04
1.399794e+04
1.400010e+04
1.400185e+04
1.399686e+04
1.399994e+04
1.399941e+04
1.399823e+04
1.400316e+04
1.400018e+04
1.400077e+04
1.400167e+04
1.400037e+04
1.399850e+04
1.399969e+04
1.400000e+04
1.400017e+04
1.400003e+04
1.399991e+04
1.400011e+04
1.399994e+04
1.400139e+04
1.399895e+04
1.399878e+04
1.400096e+04
1.400089e+04
1.399937e+04
1.400390e+04
1.400142e+04
1.399651e+04
1.399877e+04
1.400028e+04
1.400040e+04
1.399890e+04
1.400219e+04
1.400127e+04
1.399787e+04
1.399584e+04
1.400426e+04
1.399735e+04
1.400223e+04
1.400267e+04
1.399797e+04
1.399763e+04
1.400268e+04
1.399580e+04
1.400497e+04
1.400447e+04
1.399504e+04
1.400474e+04
1.399560e+04
1.400297e+04
1.399945e+04
1.399676e+04
1.400025e+04
1.400052e+04
1.399931e+04
1.400378e+04
1.400167e+04
1.399595e+04
1.399817e+04
1.399952e+04
1.399992e+04
1.400578e+04
1.399941e+04
1.399441e+04
1.400035e+04
1.399536e+04
1.400521e+04
1.400739e+04
1.400380e+04
1.399371e+04
1.399683e+04
1.400375e+04
1.399671e+04
1.400878e+04
1.399470e+04
1.399203e+04
1.400585e+04
1.399827e+04
1.400137e+04
1.399319e+04
1.399669e+04
1.400039e+04
1.400448e+04
1.401046e+04
1.398915e+04
1.400778e+04
1.399357e+04
1.403202e+04
1.397880e+04
1.399891e+04
1.400448e+04
1.399962e+04
1.399843e+04
1.400057e+04
1.400153e+04
1.399987e+04
1.400111e+04
1.400019e+04
1.399893e+04
1.400097e+04
1.400283e+04
1.399897e+04
1.399718e+04
1.400088e+04
1.400121e+04
1.399921e+04
1.399884e+04
1.399845e+04
1.400174e+04
1.400013e+04
1.400009e+04
1.400035e+04
1.399982e+04
1.400320e+04
1.399927e+04
1.399712e+04
1.400105e+04
1.400070e+04
1.399924e+04
1.400051e+04
1.399961e+04
1.399945e+04
1.400070e+04
1.399442e+04
1.400556e+04
1.400172e+04
1.400273e+04
1.399826e+04
1.399723e+04
1.400258e+04
1.399750e+04
1.399575e+04
1.400423e+04
1.399532e+04
1.400489e+04
1.400160e+04
1.399875e+04
1.399453e+04
1.399485e+04
1.400514e+04
1.400499e+04
1.400246e+04
1.399766e+04
1.400150e+04
1.399853e+04
1.400478e+04
1.399481e+04
1.399986e+04
1.399999e+04
1.399727e+04
1.399696e+04
1.400229e+04
1.400295e+04
1.399836e+04
1.400126e+04
1.400228e+04
1.399794e+04
1.399110e+04
1.400968e+04
1.400206e+04
1.399827e+04
1.399890e+04
1.400394e+04
1.400117e+04
1.399578e+04
1.399999e+04
1.399916e+04
1.400417e+04
1.399583e+04
1.398553e+04
1.401331e+04
1.400604e+04
1.399535e+04
1.399773e+04
1.399873e+04
1.400366e+04
1.399622e+04
1.399041e+04
1.401014e+04
1.400907e+04
1.399119e+04
1.400559e+04
1.399398e+04
1.399784e+04
1.400244e+04
1.399808e+04
1.399715e+04
1.400175e+04
1.400272e+04
1.399651e+04
1.400250e+04
1.399790e+04
1.400258e+04
1.400186e+04
1.399811e+04
1.399668e+04
1.400332e+04
1.399684e+04
1.400267e+04
1.400323e+04
1.399726e+04
1.400262e+04
1.399730e+04
1.399804e+04
1.400198e+04
1.400003e+04
1.400125e+04
1.400002e+04
1.399885e+04
1.399938e+04
1.400071e+04
1.400066e+04
1.399962e+04
1.400013e+04
1.400275e+04
1.399990e+04
1.399750e+04
1.399991e+04
1.400021e+04
1.400061e+04
1.399957e+04
1.400190e+04
1.400131e+04
1.399786e+04
1.399868e+04
1.400009e+04
1.399993e+04
1.400115e+04
1.399884e+04
1.399710e+04
1.399879e+04
1.400270e+04
1.400102e+04
1.399934e+04
1.400052e+04
1.400056e+04
1.399921e+04
1.400013e+04
1.399951e+04
1.399983e+04
1.400018e+04
1.400040e+04
1.399960e+04
1.399849e+04
1.400160e+04
1.400166e+04
1.399698e+04
1.399848e+04
1.400295e+04
1.399966e+04
1.400040e+04
1.400368e+04
1.399641e+04
1.399922e+04
1.399946e+04
1.400106e+04
1.400069e+04
1.399893e+04
1.400123e+04
1.399911e+04
1.400122e+04
1.400310e+04
1.399826e+04
1.399676e+04
1.400204e+04
1.399961e+04
1.400039e+04
1.399728e+04
1.400274e+04
1.400067e+04
1.400238e+04
1.399944e+04
1.399779e+04
1.400414e+04
1.399621e+04
1.399903e+04
1.400120e+04
1.400184e+04
1.399742e+04
1.399807e+04
1.400249e+04
1.400125e+04
1.399881e+04
1.399174e+04
1.400843e+04
1.399901e+04
1.400165e+04
1.400136e+04
1.399847e+04
1.399814e+04
1.400170e+04
1.400247e+04
1.399728e+04
1.399382e+04
1.400203e+04
1.400604e+04
1.399784e+04
1.399516e+04
1.400451e+04
1.400198e+04
1.399771e+04
1.400081e+04
1.400132e+04
1.399925e+04
1.399870e+04
1.400619e+04
1.399363e+04
1.400032e+04
1.399938e+04
1.400185e+04
1.399726e+04
1.399776e+04
1.400277e+04
1.400288e+04
1.399732e+04
1.400071e+04
1.399961e+04
1.400560e+04
1.400298e+04
1.399413e+04
1.399689e+04
1.399591e+04
1.400418e+04
1.399990e+04
1.399997e+04
1.400027e+04
1.400474e+04
1.399989e+04
1.399515e+04
1.400068e+04
1.399936e+04
1.399900e+04
1.400117e+04
1.400330e+04
1.400366e+04
1.399628e+04
1.399631e+04
1.399935e+04
1.400004e+04
1.400134e+04
1.400003e+04
1.400559e+04
1.400437e+04
1.399497e+04
1.399569e+04
1.399875e+04
1.400093e+04
1.400136e+04
1.399897e+04
1.399815e+04
1.399951e+04
1.400189e+04
1.400071e+04
1.400031e+04
1.400110e+04
1.399973e+04
1.399885e+04
1.399671e+04
1.399993e+04
1.400344e+04
1.400028e+04
1.399804e+04
1.400099e+04
1.400144e+04
1.399929e+04
1.399773e+04
1.399845e+04
1.400213e+04
1.400164e+04
1.400162e+04
1.400143e+04
1.399840e+04
1.399853e+04
1.400229e+04
1.400172e+04
1.399691e+04
1.399815e+04
1.400254e+04
1.399366e+04
1.399706e+04
1.400593e+04
1.400103e+04
1.399747e+04
1.399874e+04
1.400258e+04
1.399935e+04
1.400162e+04
1.399973e+04
1.399798e+04
1.400148e+04
1.400232e+04
1.399823e+04
1.399713e+04
1.399532e+04
1.399744e+04
1.400411e+04
1.400213e+04
1.399783e+04
1.399934e+04
1.400162e+04
1.400017e+04
1.400063e+04
1.399894e+04
1.400231e+04
1.399773e+04
1.399906e+04
1.400088e+04
1.400040e+04
1.399801e+04
1.399964e+04
1.400194e+04
1.399862e+04
1.400137e+04
1.400169e+04
1.399829e+04
1.399978e+04
1.400202e+04
1.400018e+04
1.399786e+04
1.400097e+04
1.399887e+04
1.399670e+04
1.400313e+04
1.400186e+04
1.399871e+04
1.399803e+04
1.400136e+04
1.400006e+04
1.399974e+04
1.400002e+04
1.399984e+04
1.399954e+04
1.400302e+04
1.400031e+04
1.399687e+04
1.400196e+04
1.399809e+04
1.400046e+04
1.399959e+04
1.400176e+04
1.399931e+04
1.399821e+04
1.400056e+04
1.400012e+04
1.399972e+04
1.400139e+04
1.399872e+04
1.399523e+04
1.400513e+04
1.400022e+04
1.399980e+04
1.400067e+04
1.399989e+04
1.399947e+04
1.399994e+04
1.399942e+04
1.400071e+04
1.399947e+04
1.400064e+04
1.399819e+04
1.400100e+04
1.400201e+04
1.399929e+04
1.400015e+04
1.400002e+04
1.400008e+04
1.400007e+04
1.400092e+04
1.400020e+04
1.399907e+04
1.399980e+04
1.399619e+04
1.400384e+04
1.400062e+04
1.399942e+04
1.399885e+04
1.400118e+04
1.400117e+04
1.399884e+04
1.399707e+04
1.400279e+04
1.399857e+04
1.400143e+04
1.399770e+04
1.400014e+04
1.400212e+04
1.399988e+04
1.400337e+04
1.399678e+04
1.400317e+04
1.399668e+04
1.400030e+04
1.399951e+04
1.399919e+04
1.400048e+04
1.400193e+04
1.399839e+04
1.399816e+04
1.400182e+04
1.400552e+04
1.399414e+04
1.399751e+04
1.400247e+04
1.400380e+04
1.399524e+04
1.399588e+04
1.400468e+04
1.400324e+04
1.399679e+04
1.399533e+04
1.400463e+04
1.400375e+04
1.399965e+04
1.399635e+04
1.400028e+04
1.400404e+04
1.399608e+04
1.400046e+04
1.399961e+04
1.399962e+04
1.399787e+04
1.400049e+04
1.400208e+04
1.399982e+04
1.400025e+04
1.399851e+04
1.400164e+04
1.400218e+04
1.400227e+04
1.399789e+04
1.399797e+04
1.399854e+04
1.400136e+04
1.399986e+04
1.400010e+04
1.400003e+04
1.400005e+04
1.399939e+04
1.400064e+04
1.400067e+04
1.400194e+04
1.399946e+04
1.399796e+04
1.399993e+04
1.400002e+04
1.399946e+04
1.400060e+04
1.399914e+04
1.400166e+04
1.400080e+04
1.399851e+04
1.399876e+04
1.400113e+04
1.399865e+04
1.400132e+04
1.400149e+04
1.400261e+04
1.399849e+04
1.399732e+04
1.399949e+04
1.400071e+04
1.400197e+04
1.399800e+04
1.400147e+04
1.400250e+04
1.399857e+04
1.399754e+04
1.399490e+04
1.400489e+04
1.400064e+04
1.399914e+04
1.399939e+04
1.400219e+04
1.400053e+04
1.399770e+04
1.399957e+04
1.400033e+04
1.399549e+04
1.400446e+04
1.400293e+04
1.399710e+04
1.400205e+04
1.399794e+04
1.400006e+04
1.399677e+04
1.400007e+04
1.400365e+04
1.399385e+04
1.400622e+04
1.400101e+04
1.399902e+04
1.400258e+04
1.400377e+04
1.399743e+04
1.399614e+04
1.400222e+04
1.399764e+04
1.399694e+04
1.400280e+04
1.400076e+04
1.399636e+04
1.399917e+04
1.400372e+04
1.400048e+04
1.399925e+04
1.400144e+04
1.399854e+04
1.399872e+04
1.400039e+04
1.400119e+04
1.399955e+04
1.400130e+04
1.399892e+04
1.400395e+04
1.399619e+04
1.399667e+04
1.400372e+04
1.400328e+04
1.399619e+04
1.399839e+04
1.400155e+04
1.400331e+04
1.399670e+04
1.400144e+04
1.399850e+04
1.400145e+04
1.399838e+04
1.399860e+04
1.400024e+04
1.400150e+04
1.399941e+04
1.399650e+04
1.400348e+04
1.400169e+04
1.399828e+04
1.399617e+04
1.400548e+04
1.400395e+04
1.399465e+04
1.400029e+04
1.399974e+04
1.400464e+04
1.399553e+04
1.400115e+04
1.399913e+04
1.399862e+04
1.400085e+04
1.400263e+04
1.399722e+04
1.399870e+04
1.400106e+04
1.399765e+04
1.400153e+04
1.400239e+04
1.399846e+04
1.400077e+04
1.399902e+04
1.399992e+04
1.400004e+04
1.400292e+04
1.399722e+04
1.399710e+04
1.400278e+04
1.399911e+04
1.400113e+04
1.399755e+04
1.400233e+04
1.400064e+04
1.399934e+04
1.400017e+04
1.399963e+04
1.399940e+04
1.399063e+04
1.400083e+04
1.400948e+04
1.400159e+04
1.399836e+04
1.399748e+04
1.400257e+04
1.400389e+04
1.399578e+04
1.399596e+04
1.400414e+04
1.400102e+04
1.399897e+04
1.399930e+04
1.400079e+04
1.399440e+04
1.399808e+04
1.400593e+04
1.400212e+04
1.399804e+04
1.400217e+04
1.400166e+04
1.399859e+04
1.399913e+04
1.400740e+04
1.400084e+04
1.399276e+04
1.400138e+04
1.399883e+04
1.399946e+04
1.400059e+04
1.400159e+04
1.399229e+04
1.399838e+04
1.400758e+04
1.400070e+04
1.399930e+04
1.400198e+04
1.399794e+04
1.400023e+04
1.400096e+04
1.400031e+04
1.400115e+04
1.400548e+04
1.399774e+04
1.399705e+04
1.400297e+04
1.400181e+04
1.399976e+04
1.400100e+04
1.400038e+04
1.400013e+04
1.399830e+04
1.400163e+04
1.400392e+04
1.400000e+04
1.400108e+04
1.399980e+04
1.400148e+04
1.400158e+04
1.399777e+04
1.399950e+04
1.400347e+04
1.400365e+04
1.399742e+04
1.399746e+04
1.400314e+04
1.400333e+04
1.399892e+04
1.399710e+04
1.400180e+04
1.400200e+04
1.399839e+04
1.400045e+04
1.399989e+04
1.400104e+04
1.400109e+04
1.399896e+04
1.399911e+04
1.399846e+04
1.400166e+04
1.400416e+04
1.399545e+04
1.399940e+04
1.400023e+04
1.400028e+04
1.399964e+04
1.399362e+04
1.400722e+04
1.400160e+04
1.399882e+04
1.400073e+04
1.399855e+04
1.400129e+04
1.400052e+04
1.400610e+04
1.399539e+04
1.400246e+04
1.399820e+04
1.399755e+04
1.399776e+04
1.400397e+04
1.400205e+04
1.399852e+04
1.400259e+04
1.400251e+04
1.399799e+04
1.400152e+04
1.400014e+04
1.399868e+04
1.399962e+04
1.400076e+04
1.399957e+04
1.400070e+04
1.399936e+04
1.400180e+04
1.399785e+04
1.399744e+04
1.400166e+04
1.400097e+04
1.399901e+04
1.399877e+04
1.400143e+04
1.399785e+04
1.399718e+04
1.400152e+04
1.400269e+04
1.399980e+04
1.399954e+04
1.400118e+04
1.399879e+04
1.399867e+04
1.400306e+04
1.400052e+04
1.399750e+04
1.400028e+04
1.399967e+04
1.399271e+04
1.400480e+04
1.400283e+04
1.400073e+04
1.399802e+04
1.399889e+04
1.399939e+04
1.400108e+04
1.399917e+04
1.399839e+04
1.399644e+04
1.400012e+04
1.400457e+04
1.399675e+04
1.400020e+04
1.399933e+04
1.399800e+04
1.399988e+04
1.399684e+04
1.400330e+04
1.400175e+04
1.399327e+04
1.399738e+04
1.400100e+04
1.400033e+04
1.399852e+04
1.399634e+04
1.399974e+04
1.400134e+04
1.399824e+04
1.399869e+04
1.399927e+04
1.400005e+04
1.399948e+04
1.399589e+04
1.400386e+04
1.400192e+04
1.399549e+04
1.399326e+04
1.400520e+04
1.400392e+04
1.399616e+04
1.399898e+04
1.399934e+04
1.399991e+04
1.399939e+04
1.400129e+04
1.399941e+04
1.400385e+04
1.399677e+04
1.399533e+04
1.399933e+04
1.400568e+04
1.400275e+04
1.399976e+04
1.400306e+04
1.399701e+04
1.399975e+04
1.400202e+04
1.399900e+04
1.400082e+04
1.399915e+04
1.400137e+04
1.399984e+04
1.399705e+04
1.400048e+04
1.400086e+04
1.399492e+04
1.399997e+04
1.400256e+04
1.400349e+04
1.399514e+04
1.399995e+04
1.399968e+04
1.399888e+04
1.399932e+04
1.399968e+04
1.400036e+04
1.399480e+04
1.400310e+04
1.399778e+04
1.400136e+04
1.400076e+04
1.400268e+04
1.399853e+04
1.399725e+04
1.400399e+04
1.399494e+04
1.399541e+04
1.400332e+04
1.399748e+04
1.399865e+04
1.400301e+04
1.400005e+04
1.400205e+04
1.400332e+04
1.400197e+04
1.400055e+04
1.400099e+04
1.400043e+04
1.400274e+04
1.399832e+04
1.400202e+04
1.400097e+04
1.400374e+04
1.399552e+04
1.400572e+04
1.399735e+04
1.399785e+04
1.400581e+04
1.400321e+04
1.399957e+04
1.399933e+04
1.399985e+04
1.399980e+04
1.400175e+04
1.400210e+04
1.399994e+04
1.399797e+04
1.400188e+04
1.400029e+04
1.399979e+04
1.400318e+04
1.399644e+04
1.399785e+04
1.400439e+04
1.399540e+04
1.400390e+04
1.399903e+04
1.400041e+04
1.400121e+04
1.400381e+04
1.400043e+04
1.399615e+04
1.399908e+04
1.400205e+04
1.400343e+04
1.399436e+04
1.399766e+04
1.399920e+04
1.400431e+04
1.399873e+04
1.400268e+04
1.400194e+04
1.399980e+04
1.400313e+04
1.400233e+04
1.399863e+04
1.400277e+04
1.400595e+04
1.400404e+04
1.399838e+04
1.400529e+04
1.399930e+04
1.401027e+04
1.400302e+04
1.399529e+04
1.400359e+04
1.400248e+04
1.400057e+04
1.399815e+04
1.400475e+04
1.401051e+04
1.400634e+04
1.399719e+04
1.400000e+04
1.400092e+04
1.400356e+04
1.400067e+04
1.400012e+04
1.400190e+04
1.400204e+04
1.400670e+04
1.399989e+04
1.400640e+04
1.399811e+04
1.399993e+04
1.399938e+04
1.400256e+04
1.399753e+04
1.400103e+04
1.400166e+04
1.400313e+04
1.399953e+04
1.400193e+04
1.399421e+04
1.400143e+04
1.399405e+04
1.399990e+04
1.400325e+04
1.400736e+04
1.400285e+04
1.400352e+04
1.400077e+04
1.400245e+04
1.400027e+04
1.400672e+04
1.400292e+04
1.400576e+04
1.400145e+04
1.399969e+04
1.400538e+04
1.401152e+04
1.400346e+04
1.399963e+04
1.400056e+04
1.400290e+04
1.400831e+04
1.400828e+04
1.399420e+04
1.400157e+04
1.400408e+04
1.401270e+04
1.399813e+04
1.400609e+04
1.400602e+04
1.400148e+04
1.399581e+04
1.400528e+04
1.400032e+04
1.400606e+04
1.399752e+04
1.400814e+04
1.399860e+04
1.399786e+04
1.400074e+04
1.400402e+04
1.399449e+04
1.399898e+04
1.400074e+04
1.400153e+04
1.399922e+04
1.399682e+04
1.399909e+04
1.399757e+04
1.400288e+04
1.400164e+04
1.399393e+04
1.400472e+04
1.399969e+04
1.400642e+04
1.399892e+04
1.400338e+04
1.400763e+04
1.400285e+04
1.399998e+04
1.399991e+04
1.400821e+04
1.399645e+04
1.400450e+04
1.400000e+04
1.400249e+04
1.400777e+04
1.400057e+04
1.400625e+04
1.400549e+04
1.399865e+04
1.399866e+04
1.400889e+04
1.399445e+04
1.400214e+04
1.400206e+04
1.400289e+04
1.401027e+04
1.399507e+04
1.399940e+04
1.400334e+04
1.399704e+04
1.400652e+04
1.399966e+04
1.400831e+04
1.399948e+04
1.398829e+04
1.400602e+04
1.400034e+04
1.399438e+04
1.399764e+04
1.399947e+04
1.399855e+04
1.399966e+04
1.399779e+04
1.399707e+04
1.399497e+04
1.399227e+04
1.399934e+04
1.400112e+04
1.400196e+04
1.400431e+04
1.400019e+04
1.400570e+04
1.399828e+04
1.400383e+04
1.400513e+04
1.400184e+04
1.400495e+04
1.400163e+04
1.400299e+04
1.399876e+04
1.400219e+04
1.400268e+04
1.400304e+04
1.400279e+04
1.400126e+04
1.400313e+04
1.399191e+04
1.400233e+04
1.400046e+04
1.399788e+04
1.399826e+04
1.400032e+04
1.400021e+04
1.400919e+04
1.399772e+04
1.400192e+04
1.400775e+04
1.399298e+04
1.400361e+04
1.399858e+04
1.400395e+04
1.400172e+04
1.399347e+04
1.400300e+04
1.400008e+04
1.400232e+04
1.400115e+04
1.400286e+04
1.399671e+04
1.399374e+04
1.399193e+04
1.399414e+04
1.398594e+04
1.399661e+04
1.398138e+04
1.398971e+04
1.400581e+04
1.400332e+04
1.400107e+04
1.400401e+04
1.400072e+04
1.400251e+04
1.400174e+04
1.400725e+04
1.400038e+04
1.399555e+04
1.400688e+04
1.399832e+04
1.399478e+04
1.400189e+04
1.399557e+04
1.399883e+04
1.399915e+04
1.400375e+04
1.399534e+04
1.399773e+04
1.400374e+04
1.400418e+04
1.399955e+04
1.400487e+04
1.399693e+04
1.399199e+04
1.399444e+04
1.399239e+04
1.398186e+04
1.398879e+04
1.397820e+04
1.399170e+04
1.400514e+04
1.400545e+04
1.400130e+04
1.400260e+04
1.400619e+04
1.399180e+04
1.400151e+04
1.399117e+04
1.398485e+04
1.398734e+04
1.397102e+04
1.396172e+04
1.399161e+04
1.399422e+04
1.400298e+04
1.399651e+04
1.400770e+04
1.399728e+04
1.400277e+04
1.399974e+04
1.401071e+04
1.400057e+04
1.400230e+04
1.401206e+04
1.399937e+04
1.400363e+04
1.399978e+04
1.400693e+04
1.402025e+04
1.401177e+04
1.401764e+04
1.400960e+04
1.399988e+04
1.400235e+04
1.401346e+04
1.400975e+04
1.398998e+04
1.401633e+04
1.399878e+04
1.399809e+04
1.399663e+04
1.399725e+04
1.397540e+04
1.397352e+04
1.394373e+04
1.399427e+04
1.395874e+04
1.398501e+04
1.396223e+04
1.395708e+04
1.402357e+04
1.401896e+04
1.397969e+04
1.395181e+04
1.397896e+04
1.394837e+04
1.408612e+04
1.407933e+04
1.411965e+04
1.411527e+04
1.425552e+04
1.415547e+04
1.426027e+04
1.415951e+04
1.402188e+04
1.400980e+04
1.401314e+04
1.401605e+04
1.403396e+04
1.401768e+04
1.403622e+04
1.401826e+04
1.402629e+04
1.402278e+04
1.402710e+04
1.403200e+04
1.401537e+04
1.403126e+04
1.401204e+04
1.403713e+04
1.401385e+04
1.401649e+04
1.394616e+04
1.393293e+04
1.391514e+04
1.397093e+04
1.392281e+04
1.396983e+04
1.392855e+04
1.392635e+04
1.396296e+04
1.396536e+04
1.394302e+04
1.386516e+04
1.395312e+04
1.385162e+04
1.391028e+04
1.390997e+04
1.390929e+04
1.390971e+04
1.378269e+04
1.402994e+04
1.378620e+04
1.402845e+04
1.392754e+04
1.392616e+04
1.405856e+04
1.406268e+04
1.364967e+04
1.360728e+04
1.363733e+04
1.359861e+04
1.404727e+04
1.404583e+04
1.402276e+04
1.403342e+04
1.405260e+04
1.404239e+04
1.405311e+04
1.403251e+04
1.404131e+04
1.403649e+04
1.396951e+04
1.397503e+04
1.391065e+04
1.396991e+04
1.392419e+04
1.396994e+04
1.388685e+04
1.388447e+04
1.386228e+04
1.386455e+04
1.385448e+04
1.381666e+04
1.384458e+04
1.381663e+04
1.391358e+04
1.391617e+04
1.388353e+04
1.388900e+04
1.385359e+04
1.393569e+04
1.385933e+04
1.394422e+04
1.380793e+04
1.380811e+04
1.379090e+04
1.378750e+04
1.361206e+04
1.362244e+04
1.361091e+04
1.362579e+04
1.370286e+04
1.370388e+04
1.367796e+04
1.367856e+04
1.362056e+04
1.376743e+04
1.361798e+04
1.377537e+04
1.404759e+04
1.405500e+04
1.401388e+04
1.401951e+04
1.396753e+04
1.403505e+04
1.397851e+04
1.403016e+04
1.394784e+04
1.394230e+04
1.380887e+04
1.380906e+04
1.383594e+04
1.387386e+04
1.383988e+04
1.386950e+04
1.387359e+04
1.387586e+04
1.388832e+04
1.390472e+04
1.405338e+04
1.392686e+04
1.406178e+04
1.391891e+04
1.398904e+04
1.398167e+04
1.389160e+04
1.388731e+04
1.357106e+04
1.386642e+04
1.356775e+04
1.386859e+04
1.367340e+04
1.368083e+04
1.364679e+04
1.364269e+04
1.362591e+04
1.355148e+04
1.362607e+04
1.355710e+04
1.360312e+04
1.360406e+04
1.359873e+04
1.360049e+04
1.347652e+04
1.351105e+04
1.347457e+04
1.350411e+04
1.400369e+04
1.400399e+04
1.395183e+04
1.394732e+04
1.390874e+04
1.398208e+04
1.390278e+04
1.398211e+04
1.381233e+04
1.381833e+04
1.392093e+04
1.392086e+04
1.400156e+04
1.383504e+04
1.401178e+04
1.382585e+04
1.400110e+04
1.400962e+04
1.400221e+04
1.400138e+04
1.387069e+04
1.407642e+04
1.387724e+04
1.407527e+04
1.381822e+04
1.381668e+04
1.348894e+04
1.349088e+04
1.323085e+04
1.358126e+04
1.322183e+04
1.358331e+04
1.337936e+04
1.336796e+04
1.335070e+04
1.336542e+04
1.407256e+04
1.327883e+04
1.406369e+04
1.329690e+04
1.324641e+04
1.324659e+04
1.315674e+04
1.316224e+04
1.314183e+04
1.393215e+04
1.313891e+04
1.390424e+04
1.388647e+04
1.389066e+04
1.386893e+04
1.386363e+04
1.373841e+04
1.381358e+04
1.374381e+04
1.381373e+04
1.392624e+04
1.393654e+04
1.404907e+04
1.404712e+04
1.417541e+04
1.411844e+04
1.418137e+04
1.411266e+04
1.414657e+04
1.414687e+04
1.375100e+04
1.375004e+04
1.347570e+04
1.433274e+04
1.346713e+04
1.433431e+04
1.325820e+04
1.325651e+04
1.304764e+04
1.305295e+04
1.244771e+04
1.244419e+04
1.244032e+04
1.244217e+04
1.181778e+04
1.180286e+04
9.603383e+03
9.510834e+03
-2.656799e+03
1.013079e+04
-2.691685e+03
1.010437e+04
8.674409e+03
8.629883e+03
1.099657e+04
1.097926e+04
8.035884e+03
-3.454236e+03
8.023897e+03
-3.409317e+03
1.386233e+04
1.386025e+04
1.333949e+04
1.333846e+04
1.306364e+04
1.389052e+04
1.306418e+04
1.389145e+04
1.435271e+04
1.435387e+04
1.470798e+04
1.471460e+04
1.514844e+04
1.452558e+04
1.514404e+04
1.452961e+04
1.433152e+04
1.432239e+04
1.327768e+04
1.327664e+04
1.315000e+04
1.450069e+04
1.315044e+04
1.450359e+04
1.126143e+04
1.125801e+04
1.115342e+04
1.114979e+04
1.065154e+04
1.095367e+04
1.066167e+04
1.095141e+04
7.986110e+03
7.975645e+03
-9.446749e+03
-9.468641e+03
-6.988809e+03
8.949398e+03
-7.005703e+03
8.941947e+03
-5.590206e+03
-5.569748e+03
5.758882e+03
5.771634e+03
9.379341e+03
-5.642160e+03
9.354916e+03
-5.598870e+03
1.394008e+04
1.393255e+04
1.347143e+04
1.347402e+04
1.408005e+04
1.385620e+04
1.407256e+04
1.385477e+04
1.412857e+04
1.412747e+04
1.472347e+04
1.473037e+04
1.398563e+04
1.401170e+04
1.399372e+04
1.401865e+04
1.473496e+04
1.473430e+04
1.347440e+04
1.346893e+04
1.400687e+04
1.432784e+04
1.400338e+04
1.433449e+04
1.213201e+04
1.213731e+04
1.168613e+04
1.167811e+04
1.318540e+04
1.354355e+04
1.318397e+04
1.352612e+04
1.102679e+04
1.102597e+04
1.022693e+04
1.015108e+04
1.375111e+04
1.339062e+04
1.374827e+04
1.339892e+04
1.014918e+04
1.005924e+04
1.197088e+04
1.196624e+04
1.328076e+04
1.382253e+04
1.326617e+04
1.381180e+04
1.389801e+04
1.389647e+04
1.411351e+04
1.411496e+04
1.401452e+04
1.396824e+04
1.402174e+04
1.396933e+04
1.409672e+04
1.408758e+04
1.387465e+04
1.387442e+04
1.399280e+04
1.404152e+04
1.398346e+04
1.404165e+04
1.395631e+04
1.395890e+04
1.404259e+04
1.404559e+04
1.384656e+04
1.383352e+04
1.385195e+04
1.383731e+04
1.383262e+04
1.383226e+04
1.350323e+04
1.350859e+04
1.372245e+04
1.386084e+04
1.371334e+04
1.386899e+04
1.337494e+04
1.337153e+04
1.339688e+04
1.339765e+04
1.344631e+04
1.351019e+04
1.344720e+04
1.350915e+04
1.332019e+04
1.332067e+04
1.330265e+04
1.330705e+04
1.346081e+04
1.346807e+04
1.346539e+04
1.345150e+04
1.403176e+04
1.403190e+04
1.400990e+04
1.400600e+04
1.403823e+04
1.406619e+04
1.404516e+04
1.406266e+04
1.398949e+04
1.398036e+04
1.394715e+04
1.395507e+04
1.393206e+04
1.397984e+04
1.392975e+04
1.399080e+04
1.386941e+04
1.385711e+04
1.378217e+04
1.378431e+04
1.380439e+04
1.389127e+04
1.380024e+04
1.390730e+04
1.383395e+04
1.383880e+04
1.381316e+04
1.381697e+04
1.375621e+04
1.369481e+04
1.375091e+04
1.369524e+04
1.381699e+04
1.381497e+04
1.384409e+04
1.384614e+04
1.373965e+04
1.374373e+04
1.373275e+04
1.375934e+04
1.382271e+04
1.382987e+04
1.365548e+04
1.366268e+04
1.378804e+04
1.370567e+04
1.378482e+04
1.370158e+04
1.407255e+04
1.406977e+04
1.407329e+04
1.406111e+04
1.405823e+04
1.404438e+04
1.406057e+04
1.403987e+04
1.402304e+04
1.402515e+04
1.396406e+04
1.396559e+04
1.400483e+04
1.404816e+04
1.399284e+04
1.405300e+04
1.394088e+04
1.394556e+04
1.392018e+04
1.391280e+04
1.387326e+04
1.394454e+04
1.388287e+04
1.395226e+04
1.386299e+04
1.386695e+04
1.385248e+04
1.384750e+04
1.375047e+04
1.382105e+04
1.375937e+04
1.381022e+04
1.389780e+04
1.390069e+04
1.385043e+04
1.383916e+04
1.331996e+04
1.359208e+04
1.331850e+04
1.359730e+04
1.382796e+04
1.383408e+04
1.385859e+04
1.384984e+04
1.349444e+04
1.326121e+04
1.350357e+04
1.324902e+04
1.403949e+04
1.402725e+04
1.404350e+04
1.405542e+04
1.403961e+04
1.403114e+04
1.404884e+04
1.404703e+04
1.406735e+04
1.406146e+04
1.402365e+04
1.403776e+04
1.405054e+04
1.407247e+04
1.405126e+04
1.408025e+04
1.392496e+04
1.394120e+04
1.386666e+04
1.385973e+04
1.387850e+04
1.393151e+04
1.385904e+04
1.392203e+04
1.380202e+04
1.380487e+04
1.373312e+04
1.375651e+04
1.376878e+04
1.381622e+04
1.376515e+04
1.382618e+04
1.355322e+04
1.355809e+04
1.327553e+04
1.325480e+04
1.326401e+04
1.355795e+04
1.323885e+04
1.356794e+04
1.399501e+04
1.400527e+04
1.400102e+04
1.399854e+04
1.399729e+04
1.400374e+04
1.400308e+04
1.399635e+04
1.400038e+04
1.400026e+04
1.399708e+04
1.400253e+04
1.400278e+04
1.400008e+04
1.399815e+04
1.399936e+04
1.399821e+04
1.400231e+04
1.400079e+04
1.399886e+04
1.399944e+04
1.399875e+04
1.400112e+04
1.400062e+04
1.400090e+04
1.399927e+04
1.399857e+04
1.400103e+04
1.399772e+04
1.400350e+04
1.400290e+04
1.399527e+04
1.400440e+04
1.399556e+04
1.400298e+04
1.399696e+04
1.400176e+04
1.399639e+04
1.399789e+04
1.400351e+04
1.399983e+04
1.399998e+04
1.399968e+04
1.400033e+04
1.400473e+04
1.400216e+04
1.399517e+04
1.399799e+04
1.400353e+04
1.399589e+04
1.399743e+04
1.400237e+04
1.400121e+04
1.400029e+04
1.399808e+04
1.399932e+04
1.400225e+04
1.399746e+04
1.399747e+04
1.400230e+04
1.400088e+04
1.400091e+04
1.399904e+04
1.399912e+04
1.400172e+04
1.399849e+04
1.399949e+04
1.400025e+04
1.400099e+04
1.400162e+04
1.399916e+04
1.399737e+04
1.400005e+04
1.400128e+04
1.399957e+04
1.400091e+04
1.400407e+04
1.400066e+04
1.399687e+04
1.399869e+04
1.399497e+04
1.400752e+04
1.400637e+04
1.399813e+04
1.400319e+04
1.400022e+04
1.399974e+04
1.400046e+04
1.400201e+04
1.400690e+04
1.400565e+04
1.400138e+04
1.400369e+04
1.400376e+04
1.400278e+04
1.400240e+04
1.400028e+04
1.400045e+04
1.399113e+04
1.398995e+04
1.398887e+04
1.400129e+04
1.399524e+04
1.399880e+04
1.398949e+04
1.399121e+04
1.402080e+04
1.401745e+04
1.399203e+04
1.398381e+04
1.399816e+04
1.398636e+04
1.399779e+04
1.400069e+04
1.399807e+04
1.399701e+04
1.400800e+04
1.404137e+04
1.400353e+04
1.404286e+04
1.401541e+04
1.401624e+04
1.392785e+04
1.391797e+04
1.410128e+04
1.403049e+04
1.411019e+04
1.402955e+04
1.382794e+04
1.383244e+04
1.385294e+04
1.385250e+04
1.384156e+04
1.402008e+04
1.384614e+04
1.401927e+04
1.389991e+04
1.390148e+04
1.394534e+04
1.394285e+04
1.401308e+04
1.393683e+04
1.401510e+04
1.393888e+04
1.399163e+04
1.399418e+04
1.401160e+04
1.401371e+04
1.402322e+04
1.400397e+04
1.401944e+04
1.400938e+04
1.401781e+04
1.401845e+04
1.401411e+04
1.402378e+04
1.404357e+04
1.404129e+04
1.404831e+04
1.403838e+04
1.401960e+04
1.401087e+04
1.400951e+04
1.401577e+04
1.401732e+04
1.403476e+04
1.402409e+04
1.402977e+04
1.401183e+04
1.401349e+04
1.401834e+04
1.401422e+04
1.403307e+04
1.402275e+04
1.401807e+04
1.401617e+04
1.399861e+04
1.400159e+04
1.399967e+04
1.400008e+04
1.399995e+04
1.400187e+04
1.400053e+04
1.399786e+04
1.400610e+04
1.399429e+04
1.399685e+04
1.400265e+04
1.399917e+04
1.399644e+04
1.400128e+04
1.400276e+04
1.400242e+04
1.399821e+04
1.399798e+04
1.400096e+04
1.399755e+04
1.400049e+04
1.400290e+04
1.399827e+04
1.399870e+04
1.400151e+04
1.400021e+04
1.399954e+04
1.400687e+04
1.400016e+04
1.399433e+04
1.399866e+04
1.399838e+04
1.400214e+04
1.400322e+04
1.399597e+04
1.399906e+04
1.400386e+04
1.400119e+04
1.399505e+04
1.399798e+04
1.400224e+04
1.399242e+04
1.400708e+04
1.399983e+04
1.399945e+04
1.399970e+04
1.399966e+04
1.399737e+04
1.400209e+04
1.400078e+04
1.399881e+04
1.399873e+04
1.399726e+04
1.400080e+04
1.400220e+04
1.399918e+04
1.400083e+04
1.399622e+04
1.400326e+04
1.399950e+04
1.400364e+04
1.400014e+04
1.399631e+04
1.400155e+04
1.399820e+04
1.399600e+04
1.400320e+04
1.399609e+04
1.399991e+04
1.400362e+04
1.399957e+04
1.400348e+04
1.399691e+04
1.399899e+04
1.400086e+04
1.399887e+04
1.400370e+04
1.400129e+04
1.399603e+04
1.400296e+04
1.399797e+04
1.399711e+04
1.400374e+04
1.399280e+04
1.400260e+04
1.400185e+04
1.399505e+04
1.400069e+04
1.400305e+04
1.400046e+04
1.400547e+04
1.399995e+04
1.400489e+04
1.399676e+04
1.398898e+04
1.399879e+04
1.399662e+04
1.399849e+04
1.399525e+04
1.401547e+04
1.400491e+04
1.401096e+04
1.400554e+04
1.399176e+04
1.398854e+04
1.400370e+04
1.400299e+04
1.404435e+04
1.402976e+04
1.403842e+04
1.403128e+04
1.404204e+04
1.404640e+04
1.410389e+04
1.410150e+04
1.405048e+04
1.404920e+04
1.405584e+04
1.405097e+04
1.394085e+04
1.394247e+04
1.406803e+04
1.407732e+04
1.334613e+04
1.393205e+04
1.334674e+04
1.392223e+04
1.440453e+04
1.440401e+04
1.438777e+04
1.438890e+04
1.365981e+04
1.327712e+04
1.365380e+04
1.327329e+04
1.408124e+04
1.408315e+04
1.386206e+04
1.386412e+04
1.372297e+04
1.371063e+04
1.372340e+04
1.371078e+04
1.389571e+04
1.389642e+04
1.400188e+04
1.399990e+04
1.393367e+04
1.379926e+04
1.393088e+04
1.379937e+04
1.407151e+04
1.407420e+04
1.409584e+04
1.410213e+04
1.415661e+04
1.407508e+04
1.415257e+04
1.407198e+04
1.407119e+04
1.406946e+04
1.404307e+04
1.403887e+04
1.408111e+04
1.412984e+04
1.408752e+04
1.413434e+04
1.403419e+04
1.403898e+04
1.404269e+04
1.404122e+04
1.407797e+04
1.407267e+04
1.407156e+04
1.406695e+04
1.399968e+04
1.400034e+04
1.400241e+04
1.399702e+04
1.399767e+04
1.400041e+04
1.400254e+04
1.399862e+04
1.399992e+04
1.400047e+04
1.400104e+04
1.399773e+04
1.400258e+04
1.400199e+04
1.399761e+04
1.399728e+04
1.399921e+04
1.400123e+04
1.400139e+04
1.399743e+04
1.399930e+04
1.400049e+04
1.400127e+04
1.399854e+04
1.399893e+04
1.400186e+04
1.399888e+04
1.399988e+04
1.399690e+04
1.399552e+04
1.400362e+04
1.400354e+04
1.399482e+04
1.400563e+04
1.399956e+04
1.399884e+04
1.400210e+04
1.400131e+04
1.399833e+04
1.399713e+04
1.400100e+04
1.399899e+04
1.400264e+04
1.399597e+04
1.400380e+04
1.399974e+04
1.399576e+04
1.399908e+04
1.399878e+04
1.400085e+04
1.399911e+04
1.399977e+04
1.400069e+04
1.399712e+04
1.399849e+04
1.400194e+04
1.399975e+04
1.399967e+04
1.399691e+04
1.400261e+04
1.400031e+04
1.400086e+04
1.399795e+04
1.399821e+04
1.399818e+04
1.400017e+04
1.400149e+04
1.399715e+04
1.400407e+04
1.399226e+04
1.399250e+04
1.400603e+04
1.399845e+04
1.400013e+04
1.399641e+04
1.400071e+04
1.399710e+04
1.399536e+04
1.399403e+04
1.400279e+04
1.399454e+04
1.399469e+04
1.398769e+04
1.399065e+04
1.398332e+04
1.398520e+04
1.397512e+04
1.399107e+04
1.398173e+04
1.399357e+04
1.400244e+04
1.400104e+04
1.403731e+04
1.399309e+04
1.404540e+04
1.398847e+04
1.403337e+04
1.404122e+04
1.408383e+04
1.408291e+04
1.421294e+04
1.413042e+04
1.420640e+04
1.413542e+04
1.410976e+04
1.410383e+04
1.408383e+04
1.408518e+04
1.399865e+04
1.417193e+04
1.399509e+04
1.417500e+04
1.398480e+04
1.399173e+04
1.390821e+04
1.390605e+04
1.380522e+04
1.382436e+04
1.381493e+04
1.382204e+04
1.403905e+04
1.404314e+04
1.383497e+04
1.383231e+04
1.438824e+04
1.395170e+04
1.438514e+04
1.395774e+04
1.308506e+04
1.308452e+04
1.307347e+04
1.307665e+04
1.398815e+04
1.452330e+04
1.399268e+04
1.452560e+04
1.365601e+04
1.364968e+04
1.386211e+04
1.385995e+04
1.386203e+04
1.378352e+04
1.386659e+04
1.378703e+04
1.380023e+04
1.380108e+04
1.382192e+04
1.382427e+04
1.365904e+04
1.373713e+04
1.365555e+04
1.374450e+04
1.399731e+04
1.399118e+04
1.416028e+04
1.415419e+04
1.404427e+04
1.379646e+04
1.403287e+04
1.379876e+04
1.420923e+04
1.421010e+04
1.414865e+04
1.414703e+04
1.423529e+04
1.422867e+04
1.423473e+04
1.423045e+04
1.413704e+04
1.412219e+04
1.411072e+04
1.413332e+04
1.419975e+04
1.421497e+04
1.419714e+04
1.421968e+04
1.400002e+04
1.399977e+04
1.399889e+04
1.400044e+04
1.400051e+04
1.399941e+04
1.399944e+04
1.399971e+04
1.399552e+04
1.400486e+04
1.400208e+04
1.399716e+04
1.399771e+04
1.400130e+04
1.400263e+04
1.399826e+04
1.400108e+04
1.399934e+04
1.399991e+04
1.399904e+04
1.399375e+04
1.400240e+04
1.400655e+04
1.399682e+04
1.400485e+04
1.399600e+04
1.399789e+04
1.400115e+04
1.399904e+04
1.399924e+04
1.400175e+04
1.400007e+04
1.400122e+04
1.399927e+04
1.399850e+04
1.400072e+04
1.400492e+04
1.399823e+04
1.399562e+04
1.400097e+04
1.400105e+04
1.399916e+04
1.399919e+04
1.399965e+04
1.399773e+04
1.400022e+04
1.400133e+04
1.399892e+04
1.400081e+04
1.399847e+04
1.399860e+04
1.400078e+04
1.399351e+04
1.400038e+04
1.400512e+04
1.399854e+04
1.399741e+04
1.400083e+04
1.399519e+04
1.400327e+04
1.399890e+04
1.400457e+04
1.399757e+04
1.399391e+04
1.400169e+04
1.399570e+04
1.399537e+04
1.400170e+04
1.399617e+04
1.400301e+04
1.399726e+04
1.399574e+04
1.400068e+04
1.399347e+04
1.399485e+04
1.399013e+04
1.398283e+04
1.398892e+04
1.398559e+04
1.399926e+04
1.397250e+04
1.398437e+04
1.397766e+04
1.398296e+04
1.400217e+04
1.397906e+04
1.400202e+04
1.396669e+04
1.402589e+04
1.402795e+04
1.414369e+04
1.413795e+04
1.424180e+04
1.411195e+04
1.424959e+04
1.411102e+04
1.425331e+04
1.426049e+04
1.425915e+04
1.425599e+04
1.404961e+04
1.426914e+04
1.403534e+04
1.427424e+04
1.403161e+04
1.402793e+04
1.371835e+04
1.371332e+04
1.351433e+04
1.369620e+04
1.350945e+04
1.369675e+04
1.359706e+04
1.360535e+04
1.368456e+04
1.368138e+04
1.347609e+04
1.350285e+04
1.347506e+04
1.350722e+04
1.392760e+04
1.392879e+04
1.442273e+04
1.442843e+04
1.428940e+04
1.374494e+04
1.428697e+04
1.374676e+04
1.506174e+04
1.506112e+04
1.477083e+04
1.477030e+04
1.466078e+04
1.464263e+04
1.466030e+04
1.463960e+04
1.419821e+04
1.419741e+04
1.385205e+04
1.385556e+04
1.356091e+04
1.419361e+04
1.356833e+04
1.418910e+04
1.372262e+04
1.372715e+04
1.361996e+04
1.362561e+04
1.375226e+04
1.365364e+04
1.375234e+04
1.363141e+04
1.362493e+04
1.362302e+04
1.379583e+04
1.378980e+04
1.361668e+04
1.360453e+04
1.361929e+04
1.360080e+04
1.414323e+04
1.415001e+04
1.430190e+04
1.429840e+04
1.432207e+04
1.396475e+04
1.433233e+04
1.395319e+04
1.430915e+04
1.431509e+04
1.429784e+04
1.429887e+04
1.439020e+04
1.437072e+04
1.439632e+04
1.438353e+04
1.400290e+04
1.399697e+04
1.400059e+04
1.399855e+04
1.400295e+04
1.399976e+04
1.399688e+04
1.399943e+04
1.400027e+04
1.400001e+04
1.399920e+04
1.400023e+04
1.400259e+04
1.399818e+04
1.399742e+04
1.400143e+04
1.399672e+04
1.400334e+04
1.400269e+04
1.399672e+04
1.400227e+04
1.399852e+04
1.399782e+04
1.400106e+04
1.400427e+04
1.399653e+04
1.399636e+04
1.400342e+04
1.400195e+04
1.400090e+04
1.399820e+04
1.399941e+04
1.400072e+04
1.399978e+04
1.399764e+04
1.400173e+04
1.400219e+04
1.399741e+04
1.399692e+04
1.400233e+04
1.399713e+04
1.400216e+04
1.400277e+04
1.399565e+04
1.399978e+04
1.399950e+04
1.399857e+04
1.399993e+04
1.400294e+04
1.399595e+04
1.399875e+04
1.399964e+04
1.399801e+04
1.399530e+04
1.399964e+04
1.400312e+04
1.399758e+04
1.399966e+04
1.399904e+04
1.399835e+04
1.399947e+04
1.400163e+04
1.399601e+04
1.399650e+04
1.399585e+04
1.399959e+04
1.399945e+04
1.399360e+04
1.399247e+04
1.399813e+04
1.399284e+04
1.399722e+04
1.398521e+04
1.398634e+04
1.397878e+04
1.397281e+04
1.396611e+04
1.397682e+04
1.396858e+04
1.397632e+04
1.397700e+04
1.398099e+04
1.405746e+04
1.405362e+04
1.413642e+04
1.401675e+04
1.413568e+04
1.400632e+04
1.420976e+04
1.420822e+04
1.426459e+04
1.426981e+04
1.414861e+04
1.427328e+04
1.414838e+04
1.427141e+04
1.407984e+04
1.407368e+04
1.374775e+04
1.374276e+04
1.363950e+04
1.378371e+04
1.362179e+04
1.379388e+04
1.356724e+04
1.357198e+04
1.357512e+04
1.357424e+04
1.347095e+04
1.364190e+04
1.347727e+04
1.363485e+04
1.344960e+04
1.345371e+04
1.328762e+04
1.328791e+04
1.302619e+04
1.325188e+04
1.303070e+04
1.323772e+04
1.320169e+04
1.319860e+04
1.312801e+04
1.312402e+04
1.154757e+04
1.263754e+04
1.154957e+04
1.263382e+04
1.303973e+04
1.303703e+04
1.318745e+04
1.318297e+04
1.121466e+04
1.076260e+04
1.121770e+04
1.077368e+04
1.315291e+04
1.315323e+04
1.325757e+04
1.325438e+04
1.299317e+04
1.223748e+04
1.298623e+04
1.223670e+04
1.336475e+04
1.336938e+04
1.358131e+04
1.357879e+04
1.336448e+04
1.322231e+04
1.336087e+04
1.321752e+04
1.364575e+04
1.364912e+04
1.364869e+04
1.364425e+04
1.377099e+04
1.352122e+04
1.376132e+04
1.353971e+04
1.382486e+04
1.382912e+04
1.431447e+04
1.431635e+04
1.414123e+04
1.383117e+04
1.414264e+04
1.383000e+04
1.437009e+04
1.438969e+04
1.442969e+04
1.441122e+04
1.424361e+04
1.420981e+04
1.425001e+04
1.420257e+04
1.400131e+04
1.399840e+04
1.399778e+04
1.400150e+04
1.399950e+04
1.400066e+04
1.400228e+04
1.399725e+04
1.399646e+04
1.400342e+04
1.399859e+04
1.400107e+04
1.400145e+04
1.399845e+04
1.399767e+04
1.400219e+04
1.400058e+04
1.399876e+04
1.400045e+04
1.399909e+04
1.399854e+04
1.400001e+04
1.400067e+04
1.399823e+04
1.399709e+04
1.400056e+04
1.400235e+04
1.399582e+04
1.399539e+04
1.400030e+04
1.399464e+04
1.400099e+04
1.399586e+04
1.399397e+04
1.398870e+04
1.398744e+04
1.396586e+04
1.396674e+04
1.397542e+04
1.397952e+04
1.405701e+04
1.406062e+04
1.422966e+04
1.422431e+04
1.425545e+04
1.426020e+04
1.390105e+04
1.389913e+04
1.360677e+04
1.360618e+04
1.369935e+04
1.370393e+04
1.346723e+04
1.347069e+04
1.337099e+04
1.336916e+04
1.325909e+04
1.326400e+04
1.287222e+04
1.286786e+04
1.201730e+04
1.201850e+04
1.127156e+04
1.127525e+04
1.106740e+04
1.106652e+04
1.094125e+04
1.094720e+04
1.177164e+04
1.176833e+04
1.288801e+04
1.288945e+04
1.323367e+04
1.323773e+04
1.337811e+04
1.337564e+04
1.350146e+04
1.349167e+04
1.378991e+04
1.379474e+04
1.388234e+04
1.387939e+04
1.377310e+04
1.377456e+04
0.000000e+00
0.000000e+00
0.000000e+00
0.000000e+00
0.000000e+00
0.000000e+00
5.550555e+00
5.407981e+00
7.577628e+00
4.809137e+00
3.277916e+00
6.624439e-01
8.588238e+00
1.006330e+01
8.600740e+00
6.122886e+00
3.660899e+00
9.185067e-01
5.689140e+00
9.415560e+00
8.126545e+00
5.697979e+00
2.854298e+00
1.065508e+00
3.886745e+00
8.123561e+00
6.205205e+00
5.590325e+00
2.291579e+00
2.726688e-01
3.814983e+00
5.455028e+00
7.347791e+00
3.002315e+00
2.327867e+00
-2.426389e-01
3.183183e+00
4.231325e+00
4.912195e+00
2.919567e+00
2.050752e+00
-2.085235e+00
2.871329e+00
1.634085e+00
4.058961e+00
2.766857e+00
4.561122e-01
-1.063909e+00
-5.157845e-01
1.223121e+00
1.324510e+00
1.153727e+00
-6.631290e-01
-6.328794e-01
-1.001300e+00
-9.749999e-01
-1.212189e+00
-1.409578e+00
-1.671489e+00
-2.898294e+00
-1.700200e+00
-2.030794e+00
-2.286303e+00
-3.366204e+00
-3.798083e+00
-3.603225e+00
0.000000e+00
0.000000e+00
0.000000e+00
0.000000e+00
0.000000e+00
0.000000e+00
-3.731393e+00
-2.193762e+00
-2.579743e+00
1.184444e+00
1.781575e+00
1.149652e+00
-8.464940e+00
-2.025952e+00
-4.931835e+00
9.795065e-02
1.600782e+00
1.195592e+00
-7.371568e+00
-8.088929e+00
-4.934605e+00
-2.102591e+00
1.236036e+00
4.844531e-01
-1.310839e+01
-4.179225e+00
-6.427314e+00
-2.852973e+00
1.205659e+00
1.533685e-02
-5.831135e+00
-3.161607e+00
-4.132288e+00
-4.370007e-02
4.168654e-01
1.233964e-01
-7.972947e+00
2.157160e+00
-1.606969e+00
2.183569e+00
2.811200e-01
2.078870e+00
-6.296487e-01
2.317912e+00
1.873464e+00
3.355633e-01
2.327871e+00
-1.921523e-01
4.135116e+00
2.068062e-01
1.163348e+00
8.374937e-01
1.081210e+00
-1.365140e+00
-5.108040e-01
-5.908724e-01
-8.682637e-01
-1.576236e-01
-1.365080e+00
-1.247208e+00
-2.295561e-01
-1.147030e+00
-1.870243e+00
-2.687327e+00
-2.428168e+00
-3.441747e+00
0.000000e+00
0.000000e+00
0.000000e+00
0.000000e+00
0.000000e+00
0.000000e+00
-3.229549e+00
-8.927237e+00
-7.496663e+00
-4.175309e+00
-3.919008e-01
-1.290706e+00
-8.781289e+00
-1.354315e+01
-9.368680e+00
-6.602183e+00
-1.825266e+00
-2.932099e+00
-1.200743e+01
-1.336708e+01
-1.134970e+01
-9.033927e+00
-2.982346e+00
-3.229010e+00
-7.413008e+00
-1.598712e+01
-9.428997e+00
-4.764238e+00
-4.942856e+00
-2.058688e+00
-9.853701e+00
-4.667080e+00
-3.302584e+00
-7.372385e+00
-6.210918e-01
-3.454954e+00
1.370588e+01
-7.175658e+00
4.786449e-01
-4.025722e+00
2.766771e-01
-2.495234e+00
-4.025874e+00
1.785233e+00
-4.165493e+00
3.582212e+00
-6.272177e-01
1.116482e+00
1.065391e-01
1.186821e+00
1.277879e+00
1.048703e+00
1.503318e+00
-3.373744e-02
2.813568e+00
1.913670e-01
1.873073e-01
1.611528e-01
-1.709792e-01
-1.692221e+00
1.372493e+00
7.930978e-01
-6.344619e-01
-1.428087e+00
-2.177864e+00
-2.383668e+00
0.000000e+00
0.000000e+00
0.000000e+00
0.000000e+00
0.000000e+00
0.000000e+00
-8.512936e+00
1.512518e+00
-7.429889e+00
-3.309087e+00
-4.585296e-01
3.798134e-01
1.341385e+01
-1.081003e+01
-4.945915e+00
3.398997e+00
-2.029990e+00
-2.101976e+00
1.155638e+01
1.831401e+01
-2.620722e-01
-3.965389e-01
-1.662024e+00
-2.230316e+00
4.196425e+01
3.439972e+00
1.539384e+01
-1.116797e+00
-2.930378e+00
-1.937845e+00
-5.968258e+00
1.348708e+01
-1.089615e+01
6.264087e+00
-2.134860e+00
3.601626e-01
-8.823392e+00
-3.867705e+00
-3.170088e-01
1.662344e+00
1.361587e+00
-2.858339e-01
9.941771e+00
-3.335970e+00
5.062332e+00
-1.841283e+00
2.629103e+00
1.880648e+00
-2.904608e+00
2.183505e+00
-8.491271e-01
3.173581e+00
2.191740e+00
2.259282e+00
3.629292e+00
1.093761e+00
1.599601e+00
1.097493e+00
6.221085e-01
-9.255691e-01
2.256160e+00
2.300785e+00
4.930828e-01
-1.529664e-01
-1.634142e+00
-1.405631e+00
0.000000e+00
0.000000e+00
0.000000e+00
0.000000e+00
0.000000e+00
0.000000e+00
2.245284e+00
1.174270e+01
-3.381748e+00
-7.320812e+00
9.911113e-01
5.058187e+00
1.693045e+01
-2.896921e+01
5.383374e+00
-1.821712e-01
1.224341e+00
8.662257e-01
3.589287e+01
2.099737e+01
-3.278143e-01
-9.758729e-01
2.105680e+00
-5.034378e+00
4.191588e+01
6.074453e+00
9.793581e+00
-6.770805e+00
3.506935e+00
-5.412133e+00
3.552097e+01
-1.205091e+01
1.300815e+01
-1.610891e+00
-1.722375e+00
8.557352e-01
-2.533701e+01
5.433640e+00
-3.045432e+00
-1.740321e+00
1.914105e+00
4.678363e+00
-4.988105e+00
4.045134e+00
-5.241841e+00
-1.521843e-01
5.650630e+00
4.454579e+00
1.221845e+00
-1.721724e+00
-9.772923e-02
3.960702e+00
4.566402e+00
4.890758e+00
6.174399e+00
2.249307e+00
2.957206e+00
2.634674e+00
2.595574e+00
2.113848e+00
3.299620e+00
4.621587e+00
2.944307e+00
2.455468e+00
9.821234e-01
2.879377e-01
0.000000e+00
0.000000e+00
0.000000e+00
0.000000e+00
0.000000e+00
0.000000e+00
4.164820e+00
1.572049e+01
-1.076745e+01
-1.567432e+01
-7.738653e+00
4.915214e+00
3.659515e+01
1.137661e+01
2.554309e+01
6.521104e+00
-1.039399e+01
-9.761674e+00
1.858994e+01
5.758268e+01
3.654203e+01
2.266985e+01
-1.452056e+01
-2.144675e+01
-1.233649e+02
3.230877e+01
4.883198e+01
1.692164e+01
-1.253362e+01
-1.977380e+01
8.775053e+00
2.425908e+01
1.549441e+01
1.042758e+01
-7.709341e+00
-1.416924e+01
5.959949e+01
1.116452e+00
-3.133557e+00
4.768144e+00
-3.797378e+00
-1.111323e+00
-8.761529e+00
-9.365123e+00
1.859967e-01
-1.339070e+00
2.476785e+00
9.470414e+00
-4.622299e+00
4.678756e-01
-6.287438e-01
3.401657e-01
7.551164e+00
7.689491e+00
1.175377e+01
5.617027e+00
1.766621e+00
4.471340e+00
3.904740e+00
3.484171e+00
7.768301e+00
6.436718e+00
6.765631e+00
3.915362e+00
2.506578e+00
2.266110e+00
SCALARS E11 float 1
LOOKUP_TABLE default
4.295689e-05
4.345961e-05
8.446603e-05
3.473968e-05
4.295689e-05
4.345961e-05
8.446603e-05
3.473968e-05
2.360918e-06
1.099086e-04
2.360918e-06
1.099086e-04
6.780762e-05
2.897919e-05
6.780762e-05
2.897919e-05
-1.918142e-05
-1.918142e-05
2.619121e-06
-1.165309e-06
-5.593422e-06
9.619682e-08
2.619121e-06
-1.165309e-06
-5.593422e-06
9.619682e-08
-3.802787e-06
-6.843897e-06
-3.802787e-06
-6.843897e-06
-8.460844e-06
-9.115313e-06
-8.460844e-06
-9.115313e-06
9.108838e-07
9.108838e-07
5.211816e-06
2.379440e-06
-3.137143e-06
5.211816e-06
2.379440e-06
-3.137143e-06
3.182946e-06
6.832329e-06
3.182946e-06
6.832329e-06
8.557195e-06
3.928020e-06
8.557195e-06
3.928020e-06
-8.521868e-07
-8.521868e-07
-3.810665e-06
-1.261205e-05
-4.748485e-07
4.984486e-07
-3.810665e-06
-1.261205e-05
-4.748485e-07
4.984486e-07
-2.384394e-05
-2.087607e-06
-2.384394e-05
-2.087607e-06
-2.501679e-06
-2.123430e-06
-2.501679e-06
-2.123430e-06
8.381278e-07
8.381278e-07
-1.410416e-06
-3.551336e-06
-2.485671e-06
-6.450185e-06
-1.410416e-06
-3.551336e-06
-2.485671e-06
-6.450185e-06
-2.869012e-05
-2.869012e-05
-2.888426e-05
-2.888426e-05
-4.234667e-06
-2.127166e-07
3.733086e-07
1.342267e-07
-4.234667e-06
-2.127166e-07
3.733086e-07
1.342267e-07
-1.209425e-06
-1.209425e-06
-2.344612e-06
-2.344612e-06
-3.115648e-06
-1.730622e-06
-2.168880e-06
-4.051071e-06
-3.115648e-06
-1.730622e-06
-2.168880e-06
-4.051071e-06
6.217699e-07
5.129882e-07
6.217699e-07
5.129882e-07
2.726487e-07
-1.654481e-06
2.726487e-07
-1.654481e-06
-2.435895e-06
-2.435895e-06
5.584879e-07
1.931291e-06
-1.193979e-06
-1.323352e-06
5.584879e-07
1.931291e-06
-1.193979e-06
-1.323352e-06
-2.548676e-07
-1.424957e-06
-2.548676e-07
-1.424957e-06
-7.090219e-07
-1.680958e-06
-7.090219e-07
-1.680958e-06
-2.272566e-06
-2.272566e-06
-3.393392e-05
-2.723305e-05
5.396689e-05
1.824112e-05
-3.393392e-05
-2.723305e-05
5.396689e-05
1.824112e-05
7.168401e-06
8.852850e-05
7.168401e-06
8.852850e-05
9.655630e-06
3.056830e-05
9.655630e-06
3.056830e-05
2.143754e-05
2.143754e-05
1.162403e-06
4.157272e-06
1.044541e-05
1.162403e-06
4.157272e-06
1.044541e-05
-5.189765e-06
-4.959753e-06
-5.189765e-06
-4.959753e-06
9.566909e-06
9.566909e-06
4.198644e-06
4.198644e-06
-4.973822e-06
-2.351897e-06
-4.973822e-06
-2.351897e-06
-4.523703e-06
8.498377e-06
1.990956e-05
1.286416e-05
-4.523703e-06
8.498377e-06
1.990956e-05
1.286416e-05
-1.322801e-05
-1.322801e-05
-3.233015e-06
-5.971911e-06
-7.996536e-06
-6.568095e-06
-3.233015e-06
-5.971911e-06
-7.996536e-06
-6.568095e-06
-2.004444e-06
-2.004444e-06
-5.530421e-06
-5.530421e-06
-5.448801e-06
-5.448801e-06
5.243564e-06
5.243564e-06
-1.465030e-06
-1.465030e-06
-5.208102e-07
-5.208102e-07
-2.258776e-06
1.580742e-06
-2.258776e-06
1.580742e-06
-6.285687e-06
-6.285687e-06
-1.178995e-05
-1.747815e-05
-1.178995e-05
-1.747815e-05
-1.183770e-05
-1.183770e-05
-9.275651e-07
6.201870e-06
-9.275651e-07
6.201870e-06
6.080091e-06
4.752758e-06
6.080091e-06
4.752758e-06
1.815009e-06
2.569230e-06
1.815009e-06
2.569230e-06
6.086014e-06
6.086014e-06
4.825807e-06
4.825807e-06
2.140716e-07
-3.501025e-07
2.140716e-07
-3.501025e-07
6.436665e-07
6.436665e-07
1.322100e-06
2.284569e-06
1.322100e-06
2.284569e-06
-3.741367e-08
1.151627e-06
-3.289732e-06
-2.582497e-06
-3.741367e-08
1.151627e-06
-3.289732e-06
-2.582497e-06
5.529370e-07
-2.912542e-06
5.529370e-07
-2.912542e-06
-4.956236e-06
-4.592120e-06
-4.956236e-06
-4.592120e-06
-3.849460e-07
6.977737e-07
2.760256e-06
2.228295e-06
-3.849460e-07
6.977737e-07
2.760256e-06
2.228295e-06
1.426998e-06
2.889576e-06
1.426998e-06
2.889576e-06
3.221979e-06
3.017765e-06
3.221979e-06
3.017765e-06
2.673921e-06
2.673921e-06
-1.633102e-06
-1.695971e-06
-1.633102e-06
-1.695971e-06
-3.229688e-06
-3.229688e-06
-3.385348e-06
-3.385348e-06
-2.306824e-06
2.648573e-06
-8.299292e-07
-4.580140e-06
-2.306824e-06
2.648573e-06
-8.299292e-07
-4.580140e-06
-3.802805e-06
-3.802805e-06
-2.464302e-06
-2.464302e-06
-5.770532e-06
-8.382508e-06
2.698015e-07
1.935419e-06
-5.770532e-06
-8.382508e-06
2.698015e-07
1.935419e-06
-2.003224e-06
-2.003224e-06
-1.658838e-06
6.111620e-07
1.369404e-06
-1.389003e-06
-1.658838e-06
6.111620e-07
1.369404e-06
-1.389003e-06
-9.304196e-07
-9.304196e-07
-2.391592e-06
3.176899e-06
-2.391592e-06
3.176899e-06
1.029369e-05
1.397412e-06
1.029369e-05
1.397412e-06
7.198191e-06
7.198191e-06
-1.654000e-06
-1.654000e-06
-1.884866e-06
-1.884866e-06
-4.092440e-06
-1.890164e-06
-4.092440e-06
-1.890164e-06
2.898431e-07
-8.817837e-07
2.898431e-07
-8.817837e-07
-2.996594e-06
-2.996594e-06
1.166213e-06
1.809313e-06
1.723251e-06
1.157494e-06
1.166213e-06
1.809313e-06
1.723251e-06
1.157494e-06
2.895488e-06
2.895488e-06
2.924617e-07
2.924617e-07
-1.301992e-05
-1.982696e-05
3.102147e-06
-2.274518e-06
-1.301992e-05
-1.982696e-05
3.102147e-06
-2.274518e-06
3.020043e-06
3.020043e-06
-2.351073e-06
-2.351073e-06
-4.471350e-06
-4.471350e-06
1.268377e-05
4.643927e-07
1.268377e-05
4.643927e-07
2.254435e-05
2.254435e-05
5.112117e-06
5.112117e-06
-2.355567e-05
-8.452175e-06
-2.355567e-05
-8.452175e-06
3.262232e-06
3.262232e-06
4.632945e-06
4.632945e-06
7.214254e-06
4.283201e-06
7.214254e-06
4.283201e-06
5.349304e-07
2.146458e-06
5.349304e-07
2.146458e-06
-1.273142e-05
-1.028076e-05
-1.392434e-05
-1.320153e-05
-1.273142e-05
-1.028076e-05
-1.392434e-05
-1.320153e-05
2.957478e-06
2.957478e-06
4.495148e-06
4.495148e-06
-2.210239e-05
-1.180339e-06
-2.210239e-05
-1.180339e-06
1.085532e-04
5.279887e-05
1.085532e-04
5.279887e-05
-3.932906e-06
-3.932906e-06
-4.292387e-07
-4.292387e-07
-4.303542e-06
-2.430111e-07
-4.303542e-06
-2.430111e-07
-4.496247e-06
-4.496247e-06
-3.184925e-06
-3.652320e-06
-3.184925e-06
-3.652320e-06
-1.299658e-06
-1.299658e-06
-4.164362e-06
-4.164362e-06
-3.290143e-06
-3.290143e-06
-2.840822e-06
-2.824436e-06
-2.840822e-06
-2.824436e-06
-1.946674e-06
-1.946674e-06
-1.461783e-06
-1.461783e-06
-1.562536e-06
-2.186623e-06
-1.562536e-06
-2.186623e-06
-9.235249e-07
-9.235249e-07
2.685328e-07
2.685328e-07
-8.790029e-07
-7.969190e-07
-8.790029e-07
-7.969190e-07
-8.203155e-07
-8.203155e-07
-1.903504e-06
-1.903504e-06
-2.027354e-06
-1.928499e-06
-2.027354e-06
-1.928499e-06
-1.727269e-06
-1.432574e-06
-1.727269e-06
-1.432574e-06
-2.058546e-06
-2.058546e-06
-2.109709e-06
-4.682048e-07
-2.109709e-06
-4.682048e-07
2.792021e-07
2.792021e-07
-2.075650e-06
-2.075650e-06
-2.159707e-06
-2.159707e-06
-7.333651e-07
-1.499673e-06
-7.333651e-07
-1.499673e-06
-2.440552e-06
-2.440552e-06
-1.097690e-06
-1.097690e-06
-1.685569e-06
-1.611761e-06
-1.685569e-06
-1.611761e-06
-8.682363e-08
-8.682363e-08
-1.167709e-06
-1.167709e-06
-2.951223e-06
-2.451806e-06
-2.951223e-06
-2.451806e-06
-2.484547e-06
-2.484547e-06
-2.760249e-06
-2.760249e-06
-3.745924e-06
-3.365675e-06
-3.745924e-06
-3.365675e-06
-4.800617e-07
-3.648170e-07
-4.800617e-07
-3.648170e-07
-6.831669e-07
-6.831669e-07
1.247981e-06
6.841360e-08
1.247981e-06
6.841360e-08
-1.176963e-06
-1.176963e-06
-2.925232e-07
-2.925232e-07
8.624962e-08
8.624962e-08
1.704483e-06
1.840672e-06
1.704483e-06
1.840672e-06
-2.104761e-08
-2.104761e-08
-9.676799e-07
-9.676799e-07
8.455326e-07
1.432391e-06
8.455326e-07
1.432391e-06
-2.702553e-06
-2.702553e-06
-4.255744e-06
-4.255744e-06
-2.064507e-06
-4.996432e-07
-2.064507e-06
-4.996432e-07
-4.200940e-06
-4.200940e-06
-3.768922e-06
-3.768922e-06
-1.734187e-06
-2.232388e-06
-1.734187e-06
-2.232388e-06
8.307689e-08
3.656982e-07
8.307689e-08
3.656982e-07
-1.595334e-07
-1.595334e-07
-2.117388e-06
-1.135833e-06
-2.117388e-06
-1.135833e-06
-6.692638e-07
-6.692638e-07
1.167813e-06
1.167813e-06
1.868296e-06
1.868296e-06
1.940834e-08
-1.660711e-06
1.940834e-08
-1.660711e-06
1.717549e-06
1.717549e-06
1.592995e-06
1.592995e-06
1.039074e-06
1.155701e-06
1.039074e-06
1.155701e-06
8.218781e-07
8.218781e-07
8.634679e-07
8.634679e-07
2.322967e-06
1.548692e-06
2.322967e-06
1.548692e-06
1.227809e-06
1.227809e-06
1.500775e-06
1.500775e-06
4.223304e-06
3.005121e-06
4.223304e-06
3.005121e-06
-3.376509e-06
-3.613265e-06
-3.376509e-06
-3.613265e-06
-3.528284e-06
-3.528284e-06
-4.868506e-06
-5.527941e-06
-4.868506e-06
-5.527941e-06
-3.671975e-06
-3.671975e-06
-3.178612e-06
-3.178612e-06
-1.037822e-06
-1.037822e-06
-1.622912e-06
-3.732872e-06
-1.622912e-06
-3.732872e-06
-5.198059e-08
-5.198059e-08
8.320344e-07
8.320344e-07
1.364095e-06
3.141944e-07
1.364095e-06
3.141944e-07
1.482331e-06
1.482331e-06
1.974495e-06
1.974495e-06
2.477227e-06
2.593469e-06
2.477227e-06
2.593469e-06
2.738206e-06
2.738206e-06
3.184417e-06
3.184417e-06
1.056328e-06
1.597615e-06
1.056328e-06
1.597615e-06
-5.765915e-06
-3.761407e-06
-5.765915e-06
-3.761407e-06
-5.465961e-06
-5.465961e-06
-4.923436e-06
-3.852342e-06
-4.923436e-06
-3.852342e-06
-2.139596e-06
-2.139596e-06
-3.671741e-06
-3.671741e-06
-1.800596e-06
-1.800596e-06
-2.955847e-06
-3.985676e-06
-2.955847e-06
-3.985676e-06
2.881977e-07
2.881977e-07
2.727425e-06
2.727425e-06
1.686810e-06
-1.128552e-06
1.686810e-06
-1.128552e-06
3.679237e-06
3.679237e-06
2.871331e-06
2.871331e-06
2.188567e-06
2.376588e-06
2.188567e-06
2.376588e-06
1.645119e-06
1.645119e-06
1.366442e-06
1.366442e-06
3.143686e-07
1.365348e-06
3.143686e-07
1.365348e-06
-1.745413e-06
-7.236967e-07
-1.745413e-06
-7.236967e-07
-3.150449e-06
-3.150449e-06
-2.449915e-06
-1.657201e-06
-2.449915e-06
-1.657201e-06
-1.164456e-06
-1.164456e-06
-3.883940e-06
-3.883940e-06
-4.108683e-06
-4.108683e-06
-3.905842e-06
-3.811957e-06
-3.905842e-06
-3.811957e-06
-2.352274e-06
-2.352274e-06
-6.925286e-07
-6.925286e-07
-1.016146e-06
-3.214777e-06
-1.016146e-06
-3.214777e-06
2.625118e-07
2.625118e-07
1.227397e-06
1.227397e-06
1.199447e-06
9.124449e-07
1.199447e-06
9.124449e-07
3.743385e-07
3.743385e-07
-9.068183e-07
-9.068183e-07
-6.905808e-07
2.848486e-07
-6.905808e-07
2.848486e-07
-2.827203e-06
-1.275961e-06
-2.827203e-06
-1.275961e-06
-3.392868e-06
-3.392868e-06
-4.613967e-06
-4.295017e-06
-4.613967e-06
-4.295017e-06
-2.004378e-06
-2.004378e-06
-3.867035e-06
-3.867035e-06
-2.846776e-06
-2.846776e-06
-1.485970e-06
-3.809018e-06
-1.485970e-06
-3.809018e-06
-1.639679e-06
-1.639679e-06
1.077568e-06
1.077568e-06
3.865347e-06
1.300822e-06
3.865347e-06
1.300822e-06
2.959945e-06
2.959945e-06
1.909005e-06
1.909005e-06
3.269391e-06
4.402557e-06
3.269391e-06
4.402557e-06
8.591303e-07
8.591303e-07
-1.108285e-07
-1.108285e-07
3.111488e-07
1.610994e-06
3.111488e-07
1.610994e-06
-4.175128e-06
-2.890558e-06
-4.175128e-06
-2.890558e-06
-3.801834e-06
-3.801834e-06
-8.528273e-08
-1.615029e-06
-8.528273e-08
-1.615029e-06
-1.348812e-06
-1.348812e-06
-2.209256e-06
-2.209256e-06
4.423471e-07
4.423471e-07
3.341658e-06
1.827590e-06
3.341658e-06
1.827590e-06
3.254865e-06
3.254865e-06
4.480065e-06
4.480065e-06
3.682893e-06
3.760518e-06
3.682893e-06
3.760518e-06
4.954472e-06
4.954472e-06
3.576321e-06
3.576321e-06
1.887647e-06
3.327905e-06
1.887647e-06
3.327905e-06
1.175859e-06
1.175859e-06
5.880529e-07
5.880529e-07
8.070626e-07
8.795269e-07
8.070626e-07
8.795269e-07
3.128989e-06
1.321019e-06
3.128989e-06
1.321019e-06
4.549046e-06
4.549046e-06
8.472702e-06
8.143783e-06
8.472702e-06
8.143783e-06
3.677905e-06
3.677905e-06
4.972840e-06
4.972840e-06
4.257015e-06
4.257015e-06
3.069612e-06
5.740100e-06
3.069612e-06
5.740100e-06
3.035800e-06
3.035800e-06
1.262791e-06
1.262791e-06
-1.899144e-06
6.323220e-07
-1.899144e-06
6.323220e-07
4.443844e-07
4.443844e-07
-3.314731e-07
-3.314731e-07
-2.981732e-06
-2.691639e-06
-2.981732e-06
-2.691639e-06
-6.842383e-07
-6.842383e-07
-4.564219e-07
-4.564219e-07
-1.914238e-06
-2.449664e-06
-1.914238e-06
-2.449664e-06
1.133442e-05
5.820593e-06
1.133442e-05
5.820593e-06
1.077060e-05
1.077060e-05
1.021508e-05
1.146071e-05
1.021508e-05
1.146071e-05
6.477061e-06
6.477061e-06
5.886801e-06
5.886801e-06
1.905728e-06
1.905728e-06
1.357623e-06
5.964415e-06
1.357623e-06
5.964415e-06
-1.157114e-06
-1.157114e-06
-3.959985e-06
-3.959985e-06
-6.220915e-06
-2.895098e-06
-6.220915e-06
-2.895098e-06
-4.981637e-06
-4.981637e-06
-4.536903e-06
-4.536903e-06
-6.106610e-06
-7.029813e-06
-6.106610e-06
-7.029813e-06
-3.614540e-06
-3.614540e-06
-3.301052e-06
-3.301052e-06
-3.756478e-06
-4.824396e-06
-3.756478e-06
-4.824396e-06
8.805208e-06
6.422280e-06
8.805208e-06
6.422280e-06
7.283644e-06
7.283644e-06
3.324088e-06
5.269538e-06
3.324088e-06
5.269538e-06
5.457948e-06
5.457948e-06
4.002348e-06
4.002348e-06
-3.364726e-07
-3.364726e-07
-2.835402e-06
7.442835e-07
-2.835402e-06
7.442835e-07
-5.477226e-06
-5.477226e-06
-9.002776e-06
-9.002776e-06
-1.010685e-05
-6.254578e-06
-1.010685e-05
-6.254578e-06
-9.586193e-06
-9.586193e-06
-7.570503e-06
-7.570503e-06
-9.156455e-06
-1.151237e-05
-9.156455e-06
-1.151237e-05
-5.183214e-06
-5.183214e-06
-4.382127e-06
-4.382127e-06
-5.054997e-06
-5.906708e-06
-5.054997e-06
-5.906708e-06
2.192977e-06
3.403246e-06
2.192977e-06
3.403246e-06
6.213569e-08
6.213569e-08
-1.085120e-06
-5.182524e-08
-1.085120e-06
-5.182524e-08
9.913827e-07
9.913827e-07
-1.857334e-06
-1.857334e-06
-3.516501e-06
-3.516501e-06
-2.747879e-06
-1.852586e-06
-2.747879e-06
-1.852586e-06
-5.755212e-06
-5.755212e-06
-8.177159e-06
-8.177159e-06
-3.966104e-06
-4.003150e-06
-3.966104e-06
-4.003150e-06
-8.941734e-06
-8.941734e-06
-7.730111e-06
-7.730111e-06
-4.073907e-06
-4.242737e-06
-4.073907e-06
-4.242737e-06
-5.260265e-06
-5.260265e-06
-3.983399e-06
-3.983399e-06
-2.137824e-06
-2.788602e-06
-2.137824e-06
-2.788602e-06
-1.352352e-06
-5.433976e-07
-1.352352e-06
-5.433976e-07
-8.129876e-07
-8.129876e-07
-3.034668e-07
-1.453637e-06
-3.034668e-07
-1.453637e-06
-6.515585e-07
-6.515585e-07
-7.291717e-07
-7.291717e-07
-1.844147e-06
-1.844147e-06
-1.577932e-06
-5.564259e-07
-1.577932e-06
-5.564259e-07
-2.256670e-06
-2.256670e-06
-1.186000e-06
-1.186000e-06
-9.304287e-07
-1.967380e-06
-9.304287e-07
-1.967380e-06
-1.438600e-06
-1.438600e-06
-2.189269e-06
-2.189269e-06
-1.256631e-06
-2.675577e-09
-1.256631e-06
-2.675577e-09
-1.425789e-06
-1.425789e-06
-1.018415e-06
-1.018415e-06
-1.084417e-06
-1.562795e-06
-1.084417e-06
-1.562795e-06
-6.553727e-07
-1.483593e-06
-2.213510e-06
8.289708e-07
-6.553727e-07
-1.483593e-06
-2.213510e-06
8.289708e-07
-2.147582e-06
-2.196770e-06
-2.147582e-06
-2.196770e-06
-3.404157e-06
-2.519860e-06
-3.404157e-06
-2.519860e-06
1.558767e-07
1.558767e-07
-2.139258e-06
-2.382697e-06
-2.139258e-06
-2.382697e-06
-1.793080e-06
-2.441814e-06
-1.793080e-06
-2.441814e-06
-2.965262e-06
-3.733154e-06
-2.965262e-06
-3.733154e-06
-1.207960e-06
-1.969373e-06
-1.207960e-06
-1.969373e-06
-1.614376e-06
-1.614376e-06
-2.647789e-06
-2.482716e-06
-2.647789e-06
-2.482716e-06
-4.506626e-06
-4.506626e-06
-5.300795e-06
-3.396469e-06
-5.300795e-06
-3.396469e-06
-2.578603e-06
-2.578603e-06
-5.959895e-06
-5.959895e-06
-4.149773e-06
-4.149773e-06
-5.548986e-06
-7.288350e-06
-5.548986e-06
-7.288350e-06
-1.331063e-06
-1.331063e-06
-1.107922e-06
-1.107922e-06
-3.924643e-06
-1.304950e-06
-3.924643e-06
-1.304950e-06
-6.279672e-06
-6.279672e-06
-5.810876e-06
-2.498975e-06
-5.810876e-06
-2.498975e-06
-7.739927e-08
-7.739927e-08
-7.780808e-06
-7.780808e-06
-6.473743e-06
-6.473743e-06
-5.425146e-06
-8.043614e-06
-5.425146e-06
-8.043614e-06
-1.634852e-06
-1.634852e-06
-4.046517e-07
-4.046517e-07
-1.499901e-06
-5.722716e-07
-1.499901e-06
-5.722716e-07
-3.368462e-06
-3.368462e-06
-1.973675e-06
-1.719648e-06
-1.973675e-06
-1.719648e-06
-2.411040e-07
-2.411040e-07
-5.194651e-06
-5.194651e-06
-2.892551e-06
-2.892551e-06
-5.356476e-07
-2.267587e-06
-5.356476e-07
-2.267587e-06
1.537218e-06
1.537218e-06
2.271994e-06
2.271994e-06
-1.323334e-06
6.420495e-07
-1.323334e-06
6.420495e-07
-1.869275e-06
-1.869275e-06
-7.215274e-07
-8.839925e-08
-7.215274e-07
-8.839925e-08
-6.911178e-07
-6.911178e-07
-1.113875e-06
-1.113875e-06
6.854677e-07
6.854677e-07
5.976474e-07
-4.353321e-07
5.976474e-07
-4.353321e-07
2.781879e-06
2.781879e-06
1.417279e-06
1.417279e-06
1.319057e-06
-1.718641e-06
1.319057e-06
-1.718641e-06
1.375354e-06
1.375354e-06
2.604804e-06
1.837189e-06
2.604804e-06
1.837189e-06
-2.000639e-06
-2.000639e-06
4.201188e-07
4.201188e-07
7.144052e-07
7.144052e-07
1.371115e-06
1.673368e-06
1.371115e-06
1.673368e-06
6.004102e-07
6.004102e-07
7.215686e-07
7.215686e-07
3.395918e-06
2.785785e-06
3.395918e-06
2.785785e-06
2.844764e-06
2.844764e-06
2.266870e-06
4.145340e-06
2.266870e-06
4.145340e-06
5.358601e-06
5.358601e-06
-1.296770e-06
-1.296770e-06
-1.531643e-06
-1.531643e-06
-1.356609e-06
-1.688780e-06
-1.356609e-06
-1.688780e-06
2.567210e-07
2.567210e-07
-2.075367e-06
-2.075367e-06
-2.737656e-06
-1.074430e-06
-2.737656e-06
-1.074430e-06
-3.382487e-06
-3.382487e-06
-2.557997e-06
-2.557997e-06
-2.892607e-06
-2.814905e-06
-2.892607e-06
-2.814905e-06
-2.230265e-06
-2.230265e-06
-1.655417e-06
-1.655417e-06
-1.857622e-06
-2.795436e-06
-1.857622e-06
-2.795436e-06
-7.961646e-07
-7.961646e-07
-3.978412e-07
-3.978412e-07
2.811450e-07
-1.071528e-06
2.811450e-07
-1.071528e-06
-1.991218e-07
-1.991218e-07
1.681343e-07
1.681343e-07
5.012109e-06
1.071555e-05
5.012109e-06
1.071555e-05
2.024996e-07
2.024996e-07
2.993916e-06
1.920692e-06
2.993916e-06
1.920692e-06
2.528669e-06
2.528669e-06
-9.445388e-07
-9.445388e-07
-2.586818e-06
-2.586818e-06
-4.080236e-06
-4.341249e-07
-4.080236e-06
-4.341249e-07
-2.520050e-06
-2.520050e-06
-2.844752e-06
-2.844752e-06
-4.337210e-06
-4.655961e-06
-4.337210e-06
-4.655961e-06
-2.600295e-06
-2.600295e-06
-2.007643e-06
-2.007643e-06
8.843598e-07
-1.853231e-06
8.843598e-07
-1.853231e-06
-1.568472e-06
-1.568472e-06
-1.581796e-06
-1.581796e-06
-3.336981e-07
6.580736e-07
-3.336981e-07
6.580736e-07
-1.363148e-06
-1.363148e-06
-3.512893e-07
-3.512893e-07
-9.023945e-07
-1.305310e-06
-9.023945e-07
-1.305310e-06
-1.064569e-06
-1.064569e-06
-1.192763e-06
-1.192763e-06
-1.377279e-06
-1.377279e-06
-2.164681e-06
-2.164681e-06
-1.809163e-06
-1.159921e-06
-1.809163e-06
-1.159921e-06
-4.818269e-07
-4.818269e-07
2.938523e-07
2.938523e-07
9.020512e-07
1.003974e-06
9.020512e-07
1.003974e-06
2.780258e-06
2.780258e-06
9.947858e-07
9.947858e-07
9.800684e-07
3.633834e-06
9.800684e-07
3.633834e-06
8.947157e-07
8.947157e-07
5.174983e-07
5.174983e-07
8.672971e-07
-4.310949e-06
8.672971e-07
-4.310949e-06
-3.937576e-06
-3.937576e-06
3.099936e-06
3.099936e-06
3.249190e-06
-1.198944e-06
3.249190e-06
-1.198944e-06
5.002966e-07
5.002966e-07
3.004317e-06
3.004317e-06
3.345242e-06
6.708055e-06
3.345242e-06
6.708055e-06
1.840553e-06
1.840553e-06
1.589955e-06
1.589955e-06
-3.757977e-06
-5.645179e-06
-3.757977e-06
-5.645179e-06
-4.537461e-06
3.376020e-06
-4.537461e-06
3.376020e-06
-1.039479e-06
5.150633e-06
-1.039479e-06
5.150633e-06
4.192246e-07
2.072128e-06
4.192246e-07
2.072128e-06
-1.297286e-09
-1.096353e-06
-1.683055e-06
-7.867347e-07
-1.297286e-09
-1.096353e-06
-1.683055e-06
-7.867347e-07
1.986495e-06
1.372806e-07
1.986495e-06
1.372806e-07
2.726424e-07
-9.918976e-07
2.726424e-07
-9.918976e-07
-5.324220e-07
-5.324220e-07
1.036304e-07
-4.302204e-07
4.536521e-07
8.810033e-07
1.036304e-07
-4.302204e-07
4.536521e-07
8.810033e-07
4.071532e-07
-5.106643e-08
4.071532e-07
-5.106643e-08
3.103174e-07
3.805678e-07
3.103174e-07
3.805678e-07
-4.099480e-07
-4.099480e-07
-1.225256e-06
4.981040e-07
9.827026e-07
3.826653e-08
-1.225256e-06
4.981040e-07
9.827026e-07
3.826653e-08
1.432723e-06
1.480853e-06
1.432723e-06
1.480853e-06
9.463197e-07
7.003238e-07
9.463197e-07
7.003238e-07
1.381997e-06
1.381997e-06
2.607401e-06
1.539758e-06
1.365372e-06
2.607401e-06
1.539758e-06
1.365372e-06
1.528203e-06
1.383159e-06
1.528203e-06
1.383159e-06
3.880752e-07
7.546380e-07
3.880752e-07
7.546380e-07
5.223867e-07
5.223867e-07
5.641690e-07
3.335454e-07
3.428598e-07
-4.949745e-07
5.641690e-07
3.335454e-07
3.428598e-07
-4.949745e-07
-5.146932e-07
-5.146932e-07
-1.202938e-06
-1.202938e-06
1.743147e-07
2.579919e-06
2.127864e-06
-2.086223e-06
1.743147e-07
2.579919e-06
2.127864e-06
-2.086223e-06
5.983396e-06
3.144371e-06
5.983396e-06
3.144371e-06
1.714540e-06
2.324124e-07
1.714540e-06
2.324124e-07
-1.972732e-06
-1.972732e-06
5.653383e-06
1.783405e-06
1.243532e-06
1.097756e-05
5.653383e-06
1.783405e-06
1.243532e-06
1.097756e-05
-1.099604e-06
-1.099604e-06
-1.359243e-06
-1.359243e-06
1.007326e-05
1.007326e-05
2.799111e-07
-1.508695e-07
2.799111e-07
-1.508695e-07
4.676977e-07
4.676977e-07
-2.597284e-07
-5.735186e-07
-2.597284e-07
-5.735186e-07
-4.345463e-07
-4.345463e-07
5.619839e-07
3.914781e-07
-2.167404e-08
-7.806586e-07
5.619839e-07
3.914781e-07
-2.167404e-08
-7.806586e-07
3.200554e-07
3.200554e-07
-1.803073e-07
-7.897191e-07
-1.803073e-07
-7.897191e-07
-1.278937e-06
-1.278937e-06
2.069463e-08
-9.398813e-07
-3.390968e-07
4.904443e-07
2.069463e-08
-9.398813e-07
-3.390968e-07
4.904443e-07
-9.221768e-07
-1.103459e-06
-9.221768e-07
-1.103459e-06
-3.253879e-07
-3.253879e-07
-5.215966e-07
-9.438897e-07
-5.215966e-07
-9.438897e-07
-6.693754e-07
-6.693754e-07
-5.441718e-06
1.913032e-06
3.369764e-06
-5.848863e-06
-5.441718e-06
1.913032e-06
3.369764e-06
-5.848863e-06
2.323941e-06
2.323941e-06
2.274568e-06
2.274568e-06
2.673205e-07
9.508719e-07
2.673205e-07
9.508719e-07
5.809913e-07
5.809913e-07
-5.180735e-06
1.633754e-06
-5.180735e-06
1.633754e-06
-9.944179e-07
7.805003e-07
1.241770e-06
-9.944179e-07
7.805003e-07
1.241770e-06
1.173635e-06
1.173635e-06
1.933477e-06
1.933477e-06
-7.327084e-07
1.380971e-07
-3.152302e-06
-5.583809e-06
-7.327084e-07
1.380971e-07
-3.152302e-06
-5.583809e-06
1.339514e-06
1.506160e-06
1.339514e-06
1.506160e-06
-4.654347e-06
-4.654347e-06
-8.855261e-06
-8.855261e-06
-5.541058e-06
-7.891925e-06
-1.288932e-06
1.379082e-06
-5.541058e-06
-7.891925e-06
-1.288932e-06
1.379082e-06
-3.406131e-06
-7.582990e-07
-3.406131e-06
-7.582990e-07
3.753792e-06
4.722129e-06
3.753792e-06
4.722129e-06
3.991575e-06
3.991575e-06
4.263366e-06
4.965903e-06
5.867063e-06
4.634491e-06
4.263366e-06
4.965903e-06
5.867063e-06
4.634491e-06
4.720999e-06
4.720999e-06
5.025500e-06
5.025500e-06
2.478486e-06
2.478486e-06
1.551552e-06
1.551552e-06
1.824096e-06
-9.083281e-07
1.824096e-06
-9.083281e-07
3.486158e-06
3.104748e-06
-2.810803e-06
3.378442e-06
3.486158e-06
3.104748e-06
-2.810803e-06
3.378442e-06
4.571263e-06
-7.308373e-07
4.571263e-06
-7.308373e-07
2.476693e-06
-1.673851e-06
2.476693e-06
-1.673851e-06
8.085137e-06
8.085137e-06
-1.465840e-06
4.769334e-07
-1.465840e-06
4.769334e-07
3.346600e-06
3.346600e-06
2.257911e-06
2.657319e-06
2.257911e-06
2.657319e-06
-1.808563e-06
-1.808563e-06
1.185422e-06
1.635817e-06
1.185422e-06
1.635817e-06
3.582049e-06
3.582049e-06
4.688570e-06
4.688570e-06
3.068470e-06
3.068470e-06
5.534835e-06
5.708128e-06
5.534835e-06
5.708128e-06
9.890530e-06
9.890530e-06
-2.522518e-07
-9.978008e-07
-2.522518e-07
-9.978008e-07
-3.730187e-06
-7.046841e-07
-3.730187e-06
-7.046841e-07
-1.397757e-06
1.608660e-09
8.872936e-08
-3.202337e-06
-1.397757e-06
1.608660e-09
8.872936e-08
-3.202337e-06
9.745056e-08
-3.494055e-07
9.745056e-08
-3.494055e-07
8.473383e-07
8.473383e-07
7.927466e-07
4.304463e-07
7.927466e-07
4.304463e-07
1.892405e-07
1.892405e-07
2.178714e-06
2.178714e-06
1.373555e-06
1.373555e-06
3.792408e-06
1.849045e-06
3.792408e-06
1.849045e-06
1.961500e-06
1.331618e-06
1.961500e-06
1.331618e-06
8.448775e-07
8.448775e-07
-1.649574e-06
-1.649574e-06
-1.848665e-06
-1.848665e-06
3.670141e-07
3.670141e-07
-8.735700e-07
-8.735700e-07
5.167576e-07
5.167576e-07
-5.573893e-07
-9.811395e-07
-5.573893e-07
-9.811395e-07
1.727377e-06
3.900133e-06
1.727377e-06
3.900133e-06
6.016132e-06
6.016132e-06
2.196454e-06
2.196454e-06
1.801040e-06
1.801040e-06
1.395298e-06
1.395298e-06
-3.635340e-07
-3.591082e-07
-3.635340e-07
-3.591082e-07
1.798025e-07
1.798025e-07
-6.795945e-09
7.717529e-07
-6.795945e-09
7.717529e-07
-6.109369e-07
-6.109369e-07
1.103259e-06
4.348389e-07
1.103259e-06
4.348389e-07
5.042259e-07
-5.833830e-07
5.042259e-07
-5.833830e-07
-1.073814e-06
2.612296e-07
-1.073814e-06
2.612296e-07
1.114468e-06
-1.489058e-07
1.114468e-06
-1.489058e-07
6.932653e-07
-2.243704e-07
6.932653e-07
-2.243704e-07
-5.484882e-07
-1.066579e-06
-5.484882e-07
-1.066579e-06
8.080545e-07
-2.731022e-07
8.080545e-07
-2.731022e-07
8.305402e-07
5.202724e-07
8.305402e-07
5.202724e-07
4.430928e-07
2.241418e-07
4.430928e-07
2.241418e-07
2.588043e-07
3.548416e-07
2.588043e-07
3.548416e-07
2.204175e-07
2.113238e-07
2.204175e-07
2.113238e-07
1.034759e-06
2.836274e-07
1.034759e-06
2.836274e-07
4.278573e-07
-1.653985e-08
4.278573e-07
-1.653985e-08
1.523780e-06
4.309744e-07
1.523780e-06
4.309744e-07
-3.278121e-07
8.868877e-08
-3.278121e-07
8.868877e-08
1.327741e-06
2.962668e-07
1.327741e-06
2.962668e-07
1.002774e-06
1.781548e-07
1.002774e-06
1.781548e-07
4.718682e-07
1.433448e-07
4.718682e-07
1.433448e-07
1.231319e-06
7.964750e-07
1.231319e-06
7.964750e-07
3.456620e-07
4.205925e-07
3.456620e-07
4.205925e-07
4.618454e-07
6.412460e-07
4.618454e-07
6.412460e-07
-8.740288e-07
-3.122419e-07
-8.740288e-07
-3.122419e-07
-1.483872e-06
-5.698585e-07
-1.483872e-06
-5.698585e-07
-2.344019e-07
2.795567e-07
-2.344019e-07
2.795567e-07
-1.017453e-06
-6.995575e-07
-1.017453e-06
-6.995575e-07
-2.891638e-07
-1.180294e-06
-2.891638e-07
-1.180294e-06
-1.023555e-06
-1.301451e-06
-1.023555e-06
-1.301451e-06
-2.786973e-07
-1.928375e-06
-2.786973e-07
-1.928375e-06
-4.321438e-07
-8.789424e-07
-4.321438e-07
-8.789424e-07
-1.233037e-06
-7.000804e-07
-1.233037e-06
-7.000804e-07
6.651990e-08
9.608779e-08
6.651990e-08
9.608779e-08
4.256564e-07
-5.151920e-07
4.256564e-07
-5.151920e-07
2.651439e-08
-2.224588e-07
2.651439e-08
-2.224588e-07
5.054635e-07
-1.127236e-07
5.054635e-07
-1.127236e-07
6.364819e-07
4.171962e-07
6.364819e-07
4.171962e-07
9.989372e-07
3.998032e-07
9.989372e-07
3.998032e-07
-2.562297e-08
2.473170e-07
-2.562297e-08
2.473170e-07
-7.369112e-07
2.366505e-08
-7.369112e-07
2.366505e-08
2.081255e-07
6.453395e-07
2.081255e-07
6.453395e-07
-1.245636e-06
-1.338842e-06
-1.245636e-06
-1.338842e-06
-2.029498e-06
-2.620671e-06
-2.029498e-06
-2.620671e-06
-1.387775e-06
-9.125383e-07
-1.387775e-06
-9.125383e-07
2.115907e-07
2.115907e-07
-6.931184e-07
-6.931184e-07
7.095536e-10
3.185364e-07
7.095536e-10
3.185364e-07
-4.713230e-07
-4.713230e-07
5.951450e-07
5.951450e-07
9.255400e-07
-8.159617e-08
9.255400e-07
-8.159617e-08
7.666919e-07
7.666919e-07
1.008785e-06
1.008785e-06
8.207569e-07
1.830335e-08
8.207569e-07
1.830335e-08
1.609113e-07
1.609113e-07
1.364475e-07
1.364475e-07
-1.559819e-08
4.318620e-07
-1.559819e-08
4.318620e-07
1.459330e-07
1.459330e-07
-1.547223e-07
-1.547223e-07
-8.379702e-07
-6.998764e-09
-8.379702e-07
-6.998764e-09
1.887035e-07
1.887035e-07
-1.004198e-08
-1.004198e-08
-7.573718e-07
-3.998089e-07
-7.573718e-07
-3.998089e-07
-1.615459e-07
-1.615459e-07
-2.947770e-07
-2.947770e-07
-1.093200e-06
-7.754570e-07
-1.093200e-06
-7.754570e-07
1.406852e-07
1.406852e-07
-5.220220e-07
-5.220220e-07
-1.175116e-06
-6.372426e-07
-1.175116e-06
-6.372426e-07
-1.245011e-06
-1.245011e-06
5.469623e-07
5.469623e-07
1.291782e-06
-9.754638e-07
1.291782e-06
-9.754638e-07
9.129007e-07
9.129007e-07
-7.753497e-07
-7.753497e-07
4.758559e-07
1.045521e-06
4.758559e-07
1.045521e-06
-8.732778e-07
-8.732778e-07
3.759213e-07
3.759213e-07
3.879708e-07
2.640144e-07
3.879708e-07
2.640144e-07
1.004428e-06
1.004428e-06
1.153270e-06
1.153270e-06
5.217167e-07
6.043173e-07
5.217167e-07
6.043173e-07
1.118898e-06
1.118898e-06
6.818917e-07
6.818917e-07
1.082985e-06
1.070290e-06
1.082985e-06
1.070290e-06
1.721346e-07
1.721346e-07
4.318055e-10
4.318055e-10
6.095366e-08
4.408614e-07
6.095366e-08
4.408614e-07
3.250863e-07
3.250863e-07
-1.355573e-07
-1.355573e-07
-1.664132e-08
7.948493e-08
-1.664132e-08
7.948493e-08
-6.033306e-07
-6.033306e-07
-9.032184e-08
-9.032184e-08
-5.263085e-07
1.688218e-07
-5.263085e-07
1.688218e-07
-2.323337e-07
-2.323337e-07
9.089895e-07
9.089895e-07
7.577022e-07
-5.028675e-07
7.577022e-07
-5.028675e-07
9.945290e-07
9.945290e-07
1.540459e-07
1.540459e-07
-8.213155e-08
6.660943e-07
-8.213155e-08
6.660943e-07
1.985193e-07
1.985193e-07
-7.650436e-07
-7.650436e-07
-6.859711e-07
2.617783e-07
-6.859711e-07
2.617783e-07
-1.901030e-06
-1.901030e-06
-1.733655e-06
-1.733655e-06
-1.397492e-06
-1.774525e-06
-1.397492e-06
-1.774525e-06
-6.410612e-07
-6.410612e-07
-6.278082e-07
-6.278082e-07
-6.027939e-07
-5.407162e-07
-6.027939e-07
-5.407162e-07
-1.138758e-06
-1.138758e-06
-1.645046e-06
-1.645046e-06
-2.766434e-07
-1.377038e-06
-2.766434e-07
-1.377038e-06
-6.320042e-07
-6.320042e-07
1.441439e-06
1.441439e-06
9.574635e-07
7.166497e-07
9.574635e-07
7.166497e-07
1.534232e-06
1.534232e-06
9.053721e-07
9.053721e-07
4.307180e-07
8.614278e-07
4.307180e-07
8.614278e-07
7.496042e-07
7.496042e-07
-2.933793e-07
-2.933793e-07
-1.467555e-07
1.218244e-07
-1.467555e-07
1.218244e-07
-4.680503e-07
-4.680503e-07
1.997352e-07
1.997352e-07
-2.359498e-07
-3.158815e-07
-2.359498e-07
-3.158815e-07
5.741435e-07
5.741435e-07
7.245710e-07
7.245710e-07
1.173292e-07
-7.341975e-08
1.173292e-07
-7.341975e-08
1.451604e-07
1.451604e-07
-1.232634e-07
-1.232634e-07
-1.087993e-06
-3.394987e-07
-1.087993e-06
-3.394987e-07
1.224240e-06
1.224240e-06
1.194714e-06
1.194714e-06
1.379456e-06
1.027992e-06
1.379456e-06
1.027992e-06
8.651103e-07
8.651103e-07
2.600875e-07
2.600875e-07
4.897502e-07
1.217888e-06
4.897502e-07
1.217888e-06
1.750556e-07
1.750556e-07
1.827002e-07
1.827002e-07
2.590257e-07
1.896193e-07
2.590257e-07
1.896193e-07
3.596412e-07
3.596412e-07
5.161183e-07
5.161183e-07
6.918013e-07
3.156524e-07
6.918013e-07
3.156524e-07
6.407521e-07
6.407521e-07
-4.218465e-09
-4.218465e-09
2.554468e-07
1.055804e-06
2.554468e-07
1.055804e-06
-5.626975e-07
-5.626975e-07
-2.867938e-07
-2.867938e-07
-4.758952e-07
-3.629262e-07
-4.758952e-07
-3.629262e-07
-6.030331e-07
-6.030331e-07
-9.701635e-07
-9.701635e-07
-6.570444e-07
-7.757876e-07
-6.570444e-07
-7.757876e-07
-1.238470e-06
-1.238470e-06
-5.226278e-08
-5.226278e-08
-1.283267e-07
-6.719098e-07
-1.283267e-07
-6.719098e-07
1.462209e-06
1.462209e-06
1.445698e-06
1.445698e-06
1.292593e-06
1.183908e-06
1.292593e-06
1.183908e-06
5.217172e-07
5.217172e-07
-3.704776e-07
-3.704776e-07
-1.078115e-06
2.539681e-07
-1.078115e-06
2.539681e-07
-3.121782e-07
-3.121782e-07
6.901283e-07
6.901283e-07
8.232858e-07
-5.717751e-07
8.232858e-07
-5.717751e-07
3.457844e-07
3.457844e-07
-4.601436e-07
-4.601436e-07
5.581088e-07
7.368390e-07
5.581088e-07
7.368390e-07
-3.850949e-07
-3.850949e-07
-3.537267e-07
-3.537267e-07
-2.732957e-07
-2.973444e-08
-2.732957e-07
-2.973444e-08
-4.660606e-07
-4.660606e-07
-7.679991e-07
-7.679991e-07
-1.562998e-07
-1.138309e-08
-1.562998e-07
-1.138309e-08
-1.579197e-07
-1.579197e-07
5.492437e-08
5.492437e-08
-3.619768e-07
1.419370e-07
-3.619768e-07
1.419370e-07
3.432844e-07
3.432844e-07
2.962357e-07
2.962357e-07
2.866935e-08
-6.941199e-07
2.866935e-08
-6.941199e-07
2.248122e-07
2.248122e-07
-1.500019e-07
-1.500019e-07
-7.376293e-07
4.878678e-07
-7.376293e-07
4.878678e-07
-1.656418e-07
-1.656418e-07
7.906720e-07
7.906720e-07
1.153145e-06
-2.610058e-07
1.153145e-06
-2.610058e-07
8.515614e-07
8.515614e-07
-2.851306e-08
-2.851306e-08
1.640766e-07
7.930721e-07
1.640766e-07
7.930721e-07
-6.166384e-07
-6.166384e-07
-1.560436e-06
-1.560436e-06
-2.522152e-06
-1.411746e-06
-2.522152e-06
-1.411746e-06
-1.156099e-06
-1.156099e-06
4.248068e-07
4.248068e-07
6.777332e-07
-1.726157e-06
6.777332e-07
-1.726157e-06
1.124382e-06
1.124382e-06
1.447821e-06
1.447821e-06
2.146940e-06
1.975420e-06
2.146940e-06
1.975420e-06
1.398605e-06
1.398605e-06
5.201851e-07
5.201851e-07
1.949287e-07
1.812967e-06
1.949287e-07
1.812967e-06
-5.977458e-08
-5.977458e-08
-5.266838e-07
-5.266838e-07
1.056730e-08
-5.534214e-07
1.056730e-08
-5.534214e-07
-8.614190e-08
-8.614190e-08
8.436843e-07
8.436843e-07
7.205458e-08
1.445413e-07
7.205458e-08
1.445413e-07
8.941343e-07
8.941343e-07
8.006170e-07
8.006170e-07
6.879765e-07
6.955071e-07
6.879765e-07
6.955071e-07
5.560838e-07
5.560838e-07
2.529516e-07
2.529516e-07
4.539440e-07
1.020488e-06
4.539440e-07
1.020488e-06
-3.145257e-07
-3.145257e-07
-7.504010e-07
-7.504010e-07
-5.987901e-07
-6.688628e-07
-5.987901e-07
-6.688628e-07
4.960125e-08
6.945342e-08
4.960125e-08
6.945342e-08
-3.780682e-07
-3.780682e-07
2.595900e-07
2.388476e-07
2.595900e-07
2.388476e-07
1.167976e-06
1.167976e-06
-4.609408e-07
-4.609408e-07
5.275687e-07
5.275687e-07
7.793816e-07
4.150513e-07
7.793816e-07
4.150513e-07
2.015473e-06
2.015473e-06
1.575981e-06
1.575981e-06
-1.844139e-06
-8.204857e-07
-1.844139e-06
-8.204857e-07
-1.471043e-06
-1.471043e-06
-2.212661e-06
-2.212661e-06
4.349800e-07
-4.744037e-07
4.349800e-07
-4.744037e-07
4.959664e-07
4.959664e-07
1.618317e-06
1.618317e-06
1.118264e-06
6.980228e-07
1.118264e-06
6.980228e-07
1.097590e-06
1.097590e-06
1.284840e-06
1.284840e-06
1.077118e-06
1.348829e-06
1.077118e-06
1.348829e-06
1.406792e-07
1.406792e-07
-3.090964e-06
-3.090964e-06
-3.276937e-06
-5.935375e-07
-3.276937e-06
-5.935375e-07
-4.363535e-06
-4.363535e-06
-3.907838e-06
-3.907838e-06
-4.055247e-06
-4.223416e-06
-4.055247e-06
-4.223416e-06
5.028436e-08
1.884006e-06
5.028436e-08
1.884006e-06
2.252129e-07
2.252129e-07
-7.937416e-07
1.943026e-07
-7.937416e-07
1.943026e-07
1.203912e-06
1.203912e-06
1.873611e-07
1.873611e-07
7.017964e-08
7.017964e-08
9.882987e-07
-3.074841e-07
9.882987e-07
-3.074841e-07
-1.360898e-06
-1.360898e-06
-2.484670e-06
-2.484670e-06
-1.050876e-07
4.719812e-07
-1.050876e-07
4.719812e-07
-5.217533e-07
-5.217533e-07
1.458246e-06
1.458246e-06
6.945438e-07
-2.451582e-07
6.945438e-07
-2.451582e-07
1.629891e-06
1.629891e-06
7.270403e-07
7.270403e-07
3.668953e-08
1.486336e-06
3.668953e-08
1.486336e-06
4.264991e-07
4.264991e-07
1.073739e-06
1.073739e-06
5.167398e-07
-7.600100e-08
5.167398e-07
-7.600100e-08
1.114570e-06
1.114570e-06
-3.375605e-07
-3.375605e-07
1.326973e-06
1.261620e-06
1.326973e-06
1.261620e-06
-2.021021e-06
-2.021021e-06
-2.521421e-06
-2.521421e-06
9.509808e-08
2.405481e-07
9.509808e-08
2.405481e-07
1.965480e-06
5.125855e-06
1.965480e-06
5.125855e-06
-8.307017e-07
-8.307017e-07
3.261392e-07
3.195215e-06
3.261392e-07
3.195215e-06
7.600341e-06
7.600341e-06
1.131237e-06
1.131237e-06
1.304293e-06
1.304293e-06
3.815122e-07
1.412529e-06
3.815122e-07
1.412529e-06
3.623740e-07
3.623740e-07
1.306759e-06
1.306759e-06
1.543094e-06
-5.744654e-07
1.543094e-06
-5.744654e-07
2.517951e-07
2.517951e-07
-4.446299e-07
-4.446299e-07
7.136500e-08
1.981600e-06
7.136500e-08
1.981600e-06
-1.014364e-06
-1.014364e-06
-8.332797e-07
-8.332797e-07
-2.253112e-06
-2.632236e-06
-2.253112e-06
-2.632236e-06
7.143813e-07
7.143813e-07
-3.529723e-09
-3.529723e-09
-5.744698e-07
-2.591452e-08
-5.744698e-07
-2.591452e-08
-4.848520e-07
-4.848520e-07
1.470223e-06
1.470223e-06
2.205186e-06
-1.424559e-06
2.205186e-06
-1.424559e-06
2.138904e-06
2.138904e-06
1.504686e-06
1.504686e-06
3.472936e-06
4.423179e-06
3.472936e-06
4.423179e-06
3.260095e-06
7.008060e-06
3.260095e-06
7.008060e-06
4.396054e-07
4.396054e-07
-4.659605e-07
2.116460e-06
-4.659605e-07
2.116460e-06
5.997795e-06
5.997795e-06
-7.562419e-07
-7.562419e-07
-9.058764e-07
-9.058764e-07
-2.665922e-06
-2.367243e-06
-2.665922e-06
-2.367243e-06
-1.166492e-06
-1.166492e-06
-2.636224e-08
-2.636224e-08
-1.928021e-06
-2.314024e-06
-1.928021e-06
-2.314024e-06
2.178270e-06
2.178270e-06
1.253587e-06
1.253587e-06
1.088091e-06
4.703640e-07
1.088091e-06
4.703640e-07
-2.172891e-06
-2.172891e-06
-2.393160e-06
-2.393160e-06
-4.499483e-07
-7.190942e-07
-4.499483e-07
-7.190942e-07
3.036978e-07
3.036978e-07
-2.268422e-07
-2.268422e-07
4.126973e-07
1.116035e-06
4.126973e-07
1.116035e-06
-1.342390e-06
-1.342390e-06
1.988752e-06
1.988752e-06
8.368340e-07
-4.176685e-07
8.368340e-07
-4.176685e-07
4.468645e-06
4.468645e-06
4.601290e-06
4.601290e-06
1.690590e-06
1.560281e-06
1.690590e-06
1.560281e-06
2.501031e-06
5.310688e-06
2.501031e-06
5.310688e-06
-9.434422e-07
-9.434422e-07
-2.641032e-07
3.543692e-06
-2.641032e-07
3.543692e-06
6.066692e-06
6.066692e-06
-2.582537e-06
-2.582537e-06
-1.011928e-06
-1.011928e-06
2.267000e-06
-6.596988e-07
2.267000e-06
-6.596988e-07
-5.475986e-07
-5.475986e-07
-1.008518e-06
-1.008518e-06
1.134230e-06
2.000276e-06
1.134230e-06
2.000276e-06
2.467585e-07
2.467585e-07
-6.349521e-07
-6.349521e-07
-9.019364e-07
1.705697e-06
-9.019364e-07
1.705697e-06
-1.091613e-06
-1.091613e-06
-1.074213e-07
-1.074213e-07
1.625538e-07
-1.683397e-06
1.625538e-07
-1.683397e-06
7.287653e-07
7.287653e-07
3.579571e-07
3.579571e-07
7.557195e-07
1.104096e-06
7.557195e-07
1.104096e-06
-3.466478e-07
-3.466478e-07
1.252559e-06
1.252559e-06
1.713889e-06
7.783570e-07
1.713889e-06
7.783570e-07
2.762473e-07
2.762473e-07
-1.782740e-06
-1.782740e-06
-1.438322e-06
1.700208e-07
-1.438322e-06
1.700208e-07
2.026169e-06
4.043506e-06
2.026169e-06
4.043506e-06
7.593166e-07
7.593166e-07
1.554894e-06
2.049373e-07
1.554894e-06
2.049373e-07
5.716636e-07
5.716636e-07
2.407585e-07
2.407585e-07
2.597696e-06
2.597696e-06
5.123752e-08
-1.101061e-06
5.123752e-08
-1.101061e-06
2.868687e-06
2.868687e-06
1.225328e-06
1.225328e-06
2.795950e-07
2.906030e-06
2.795950e-07
2.906030e-06
1.324297e-06
1.324297e-06
1.792907e-07
1.792907e-07
4.874813e-07
-1.023564e-06
4.874813e-07
-1.023564e-06
-7.169215e-07
-7.169215e-07
2.603110e-07
2.603110e-07
1.329011e-07
7.143825e-07
1.329011e-07
7.143825e-07
-3.354599e-07
-3.354599e-07
-3.696783e-07
-3.696783e-07
-1.575853e-06
-2.120695e-06
-1.575853e-06
-2.120695e-06
7.228612e-07
7.228612e-07
1.838701e-07
1.838701e-07
2.418237e-08
9.577598e-07
2.418237e-08
9.577598e-07
2.157613e-07
2.157613e-07
9.932781e-07
9.932781e-07
1.711986e-06
2.711214e-07
1.711986e-06
2.711214e-07
-3.260972e-07
-5.514448e-07
-1.197198e-06
-2.480736e-06
-3.260972e-07
-5.514448e-07
-1.197198e-06
-2.480736e-06
-2.898459e-08
5.684173e-07
-2.898459e-08
5.684173e-07
1.473522e-07
4.597444e-08
1.473522e-07
4.597444e-08
1.077247e-07
1.077247e-07
7.653661e-07
1.223649e-06
7.653661e-07
1.223649e-06
6.873012e-08
6.873012e-08
3.366719e-07
2.000263e-07
3.366719e-07
2.000263e-07
3.948313e-07
3.948313e-07
-1.529179e-06
-7.129220e-07
-1.529179e-06
-7.129220e-07
-8.198582e-07
-8.198582e-07
-1.509546e-06
-2.464234e-06
-1.509546e-06
-2.464234e-06
-2.250376e-06
-2.250376e-06
-1.661607e-06
-1.491956e-06
-1.661607e-06
-1.491956e-06
-9.350288e-07
-9.350288e-07
-9.447337e-08
-4.481336e-07
-9.447337e-08
-4.481336e-07
1.158421e-07
1.158421e-07
-1.652896e-06
5.810431e-07
-1.652896e-06
5.810431e-07
-9.181578e-07
-9.181578e-07
-1.872028e-06
-3.864608e-06
-1.872028e-06
-3.864608e-06
-1.878864e-06
-1.878864e-06
-1.946336e-06
-2.247178e-06
-1.946336e-06
-2.247178e-06
-5.527007e-07
-5.527007e-07
-4.882469e-07
1.510402e-07
-4.882469e-07
1.510402e-07
8.919874e-07
8.919874e-07
1.642886e-06
-4.793688e-07
1.642886e-06
-4.793688e-07
2.187815e-06
2.187815e-06
4.806665e-06
2.303963e-06
4.806665e-06
2.303963e-06
-2.142674e-06
-2.142674e-06
1.082628e-06
8.316363e-07
1.082628e-06
8.316363e-07
1.089360e-06
5.289262e-07
1.089360e-06
5.289262e-07
5.029984e-07
3.048559e-07
5.029984e-07
3.048559e-07
-5.492322e-07
-3.858764e-07
-5.492322e-07
-3.858764e-07
3.274219e-07
3.274219e-07
1.375821e-07
1.375821e-07
1.001787e-06
1.001787e-06
9.658994e-07
8.207093e-07
9.658994e-07
8.207093e-07
1.385482e-06
1.385482e-06
1.390243e-06
1.390243e-06
6.967808e-07
6.967808e-07
7.500826e-07
7.500826e-07
1.026781e-06
1.497437e-07
1.026781e-06
1.497437e-07
1.014849e-06
1.014849e-06
8.355869e-07
8.355869e-07
6.774207e-07
6.774207e-07
1.674359e-06
1.674359e-06
1.423587e-06
9.670994e-07
1.423587e-06
9.670994e-07
8.540062e-07
8.540062e-07
9.499246e-07
9.499246e-07
-4.504635e-08
-4.504635e-08
2.149411e-07
2.149411e-07
5.247639e-07
2.812481e-07
5.247639e-07
2.812481e-07
5.703846e-07
5.703846e-07
1.201519e-06
1.201519e-06
-2.630131e-07
-2.630131e-07
6.972173e-07
6.972173e-07
8.506139e-07
3.938684e-08
8.506139e-07
3.938684e-08
1.500667e-06
1.500667e-06
9.084717e-07
9.084717e-07
3.148792e-07
3.148792e-07
-3.837266e-07
-3.837266e-07
-5.880077e-07
1.022828e-06
-5.880077e-07
1.022828e-06
6.653944e-07
6.653944e-07
9.578729e-08
9.578729e-08
-1.272980e-07
-1.272980e-07
-3.436350e-07
-3.436350e-07
-2.991592e-07
3.744978e-07
-2.991592e-07
3.744978e-07
1.849378e-06
1.849378e-06
-2.066088e-07
-2.066088e-07
-8.762695e-07
-8.762695e-07
5.450128e-07
5.450128e-07
2.069420e-07
-3.372121e-08
2.069420e-07
-3.372121e-08
3.944663e-07
3.944663e-07
-2.849506e-07
-2.849506e-07
8.344092e-07
8.341034e-08
8.344092e-07
8.341034e-08
4.124037e-07
4.124037e-07
1.068131e-06
1.068131e-06
-6.128371e-07
-2.296608e-08
-6.128371e-07
-2.296608e-08
3.018294e-07
3.018294e-07
3.585013e-08
3.585013e-08
1.722627e-07
4.660652e-08
1.722627e-07
4.660652e-08
1.203876e-07
1.203876e-07
8.454663e-07
8.454663e-07
9.286399e-08
5.939098e-08
9.286399e-08
5.939098e-08
2.144219e-07
2.144219e-07
-9.283989e-07
-9.283989e-07
8.062608e-08
5.937489e-07
8.062608e-08
5.937489e-07
5.557792e-07
5.557792e-07
7.203427e-07
7.203427e-07
7.661270e-07
8.728748e-07
7.661270e-07
8.728748e-07
5.561158e-07
5.561158e-07
6.576696e-07
6.576696e-07
-2.272105e-07
5.190600e-08
-2.272105e-07
5.190600e-08
5.194767e-07
5.194767e-07
-2.673450e-07
-2.673450e-07
-1.207026e-06
-3.539637e-07
-1.207026e-06
-3.539637e-07
1.179401e-06
1.179401e-06
2.985346e-08
2.985346e-08
-9.532260e-08
1.196413e-06
-9.532260e-08
1.196413e-06
-1.414500e-06
-1.414500e-06
-1.644136e-06
-1.644136e-06
-6.250908e-07
-9.643576e-07
-6.250908e-07
-9.643576e-07
-7.873515e-07
-7.873515e-07
-5.682708e-07
-5.682708e-07
5.240079e-07
1.737294e-07
5.240079e-07
1.737294e-07
3.425144e-07
3.425144e-07
5.187618e-07
5.187618e-07
1.346948e-08
-7.789724e-07
1.346948e-08
-7.789724e-07
2.435237e-07
2.435237e-07
3.699957e-07
3.699957e-07
-2.539644e-07
2.871792e-07
-2.539644e-07
2.871792e-07
1.556966e-07
1.556966e-07
-1.060238e-06
-1.060238e-06
-1.648002e-06
-6.756914e-07
-1.648002e-06
-6.756914e-07
-1.099370e-06
-1.099370e-06
-8.492250e-07
-8.492250e-07
-1.186545e-06
-1.097344e-06
-1.186545e-06
-1.097344e-06
1.453445e-08
1.453445e-08
-5.163531e-07
-5.163531e-07
-1.308767e-07
-3.315482e-07
-1.308767e-07
-3.315482e-07
-9.557288e-07
-9.557288e-07
2.371298e-08
2.371298e-08
2.100859e-08
-1.167078e-06
2.100859e-08
-1.167078e-06
3.045906e-07
1.991662e-06
3.045906e-07
1.991662e-06
1.642991e-06
1.985985e-06
1.642991e-06
1.985985e-06
1.174087e-06
8.494379e-07
1.174087e-06
8.494379e-07
3.106360e-06
5.306890e-07
3.106360e-06
5.306890e-07
2.088284e-06
-9.910833e-07
2.088284e-06
-9.910833e-07
4.277852e-07
5.554521e-07
4.277852e-07
5.554521e-07
1.712715e-06
-3.519520e-07
1.712715e-06
-3.519520e-07
7.548053e-07
-1.156115e-07
7.548053e-07
-1.156115e-07
7.035251e-07
1.076603e-06
7.035251e-07
1.076603e-06
9.371618e-07
-6.154108e-07
9.371618e-07
-6.154108e-07
1.762383e-06
-5.912049e-07
1.762383e-06
-5.912049e-07
-1.405903e-06
-1.522118e-06
-1.405903e-06
-1.522118e-06
8.321721e-07
-4.643847e-07
8.321721e-07
-4.643847e-07
1.445515e-06
1.761730e-07
1.445515e-06
1.761730e-07
-1.574874e-06
-6.605774e-07
-1.574874e-06
-6.605774e-07
4.320783e-07
-2.954648e-07
4.320783e-07
-2.954648e-07
-4.256956e-07
-4.256956e-07
-5.903439e-07
-5.903439e-07
7.974312e-07
7.974312e-07
1.316888e-06
8.709069e-07
1.316888e-06
8.709069e-07
-9.418051e-08
-9.418051e-08
6.476297e-07
6.476297e-07
-1.575085e-06
-1.014153e-06
-1.575085e-06
-1.014153e-06
2.192128e-06
2.192128e-06
1.087535e-06
1.087535e-06
8.117985e-07
4.952485e-07
8.117985e-07
4.952485e-07
-1.172168e-06
-1.172168e-06
7.594384e-08
7.594384e-08
4.998220e-07
5.741333e-07
4.998220e-07
5.741333e-07
5.841990e-08
5.841990e-08
-8.851163e-07
-8.851163e-07
-7.339110e-07
1.915546e-08
-7.339110e-07
1.915546e-08
-1.156427e-06
-1.156427e-06
-1.326964e-06
-1.326964e-06
4.110104e-07
4.110104e-07
-7.442006e-07
-7.442006e-07
-1.461674e-06
-9.635533e-07
-1.461674e-06
-9.635533e-07
-1.513666e-06
-1.513666e-06
-1.311534e-06
-1.311534e-06
1.605782e-06
3.625027e-07
1.605782e-06
3.625027e-07
-1.514186e-06
-1.514186e-06
-5.209232e-07
-5.209232e-07
-1.325119e-06
-2.146380e-07
-1.325119e-06
-2.146380e-07
7.685554e-07
7.685554e-07
-9.261599e-07
-9.261599e-07
-2.399236e-07
-8.706669e-07
-2.399236e-07
-8.706669e-07
-9.089291e-07
-9.089291e-07
-1.128338e-06
-1.128338e-06
-1.269098e-06
-3.932084e-07
-1.269098e-06
-3.932084e-07
1.053719e-07
1.053719e-07
-8.099595e-07
-8.099595e-07
-1.046988e-06
-1.046988e-06
9.603782e-08
9.603782e-08
4.003285e-07
3.274413e-08
4.003285e-07
3.274413e-08
1.552146e-06
1.552146e-06
2.183760e-06
2.183760e-06
1.712075e-07
-1.488679e-07
1.712075e-07
-1.488679e-07
1.691656e-06
1.691656e-06
-1.953157e-07
-1.953157e-07
1.530330e-06
8.733611e-07
1.530330e-06
8.733611e-07
-1.394001e-06
-1.394001e-06
6.654307e-07
6.654307e-07
6.828265e-07
8.422457e-07
6.828265e-07
8.422457e-07
1.536688e-06
1.536688e-06
-5.395242e-07
-5.395242e-07
4.600673e-07
1.367440e-06
4.600673e-07
1.367440e-06
-1.749853e-06
-1.749853e-06
3.858099e-07
3.858099e-07
2.400672e-08
2.400672e-08
5.658321e-07
5.658321e-07
-1.991397e-07
-1.023025e-06
-1.991397e-07
-1.023025e-06
-7.498454e-07
-7.498454e-07
-1.601841e-06
-1.601841e-06
-7.016447e-07
-5.815378e-07
-7.016447e-07
-5.815378e-07
3.796957e-07
3.796957e-07
1.376863e-06
1.376863e-06
-7.540428e-07
-3.104871e-08
-7.540428e-07
-3.104871e-08
3.266025e-07
3.266025e-07
8.325374e-07
8.325374e-07
-6.226457e-07
-1.245620e-06
-6.226457e-07
-1.245620e-06
1.340175e-07
1.340175e-07
2.640597e-07
2.640597e-07
-5.847694e-08
-1.125762e-06
-5.847694e-08
-1.125762e-06
1.856033e-06
1.856033e-06
1.161197e-06
1.161197e-06
-8.741185e-07
-8.741185e-07
-6.139636e-07
-6.139636e-07
-1.226886e-06
-3.832867e-07
-1.226886e-06
-3.832867e-07
-3.695039e-07
-3.695039e-07
2.366376e-07
2.366376e-07
-1.147849e-06
-1.587777e-06
-1.147849e-06
-1.587777e-06
1.139111e-07
1.139111e-07
-3.133643e-08
-3.133643e-08
1.251856e-06
5.235713e-07
1.251856e-06
5.235713e-07
3.036217e-07
3.036217e-07
-4.233545e-07
-4.233545e-07
1.690348e-06
1.134616e-06
1.690348e-06
1.134616e-06
-3.199916e-07
-3.199916e-07
2.980605e-07
2.980605e-07
1.275006e-06
2.019006e-06
1.275006e-06
2.019006e-06
-1.154145e-06
-1.154145e-06
-4.772949e-07
-4.772949e-07
-2.199431e-06
-2.199431e-06
-1.933511e-06
-1.933511e-06
8.838091e-07
-1.630161e-06
8.838091e-07
-1.630161e-06
-1.147393e-06
-1.147393e-06
-8.287251e-07
-8.287251e-07
6.214204e-07
1.726830e-06
6.214204e-07
1.726830e-06
-1.489081e-07
-1.489081e-07
-4.992272e-07
-4.992272e-07
-1.080854e-06
-2.113790e-07
-1.080854e-06
-2.113790e-07
-3.618880e-07
-3.618880e-07
9.103337e-07
9.103337e-07
-3.801801e-08
-1.065591e-06
-3.801801e-08
-1.065591e-06
6.716281e-07
6.716281e-07
1.006269e-06
1.006269e-06
-7.821248e-07
-5.558899e-07
-7.821248e-07
-5.558899e-07
2.456468e-06
2.456468e-06
5.583273e-07
5.583273e-07
2.419360e-06
2.419360e-06
3.811214e-06
3.811214e-06
4.387670e-06
4.142009e-06
4.387670e-06
4.142009e-06
1.187284e-06
1.187284e-06
-3.663699e-07
-3.663699e-07
-1.439561e-06
-5.899787e-07
-1.439561e-06
-5.899787e-07
-2.068617e-07
-2.068617e-07
-7.854517e-07
-7.854517e-07
-1.031090e-06
-4.138025e-08
-1.031090e-06
-4.138025e-08
-1.089714e-06
-1.089714e-06
8.382680e-07
8.382680e-07
1.207979e-06
-1.574291e-06
1.207979e-06
-1.574291e-06
1.312774e-06
1.312774e-06
-9.186765e-07
-9.186765e-07
1.931755e-08
2.471803e-06
1.931755e-08
2.471803e-06
-1.069815e-06
-1.069815e-06
1.123428e-08
1.123428e-08
-8.414352e-07
-8.414352e-07
1.972625e-06
1.972625e-06
1.927001e-06
-9.668239e-07
1.927001e-06
-9.668239e-07
3.811213e-06
3.811213e-06
3.823924e-06
3.823924e-06
5.611527e-06
4.163781e-06
5.611527e-06
4.163781e-06
5.804547e-06
5.804547e-06
8.407728e-06
8.407728e-06
4.428777e-06
4.897447e-06
4.428777e-06
4.897447e-06
8.485269e-06
8.485269e-06
7.315928e-06
7.315928e-06
3.713048e-06
3.658574e-06
3.713048e-06
3.658574e-06
7.113322e-06
7.113322e-06
6.590399e-06
6.590399e-06
5.243016e-06
5.641076e-06
5.243016e-06
5.641076e-06
5.942865e-06
5.942865e-06
3.026286e-06
3.026286e-06
-3.303159e-07
3.245999e-06
-3.303159e-07
3.245999e-06
6.253213e-07
6.253213e-07
2.826091e-06
2.826091e-06
4.967626e-06
4.578136e-06
4.967626e-06
4.578136e-06
4.672230e-06
4.672230e-06
4.394488e-06
4.394488e-06
3.939435e-06
6.163237e-06
3.939435e-06
6.163237e-06
7.336739e-07
7.336739e-07
-8.674980e-07
-8.674980e-07
-5.365522e-07
1.440671e-08
-5.365522e-07
1.440671e-08
-2.675738e-07
-2.675738e-07
-5.882733e-07
-5.882733e-07
-2.349945e-07
8.824557e-07
-2.349945e-07
8.824557e-07
-2.011103e-07
-2.011103e-07
6.846223e-07
6.846223e-07
-1.611168e-06
-1.881777e-06
-1.611168e-06
-1.881777e-06
-1.048770e-06
-1.048770e-06
-2.301412e-06
-2.301412e-06
-1.423092e-06
-1.538533e-06
-1.423092e-06
-1.538533e-06
6.983534e-06
6.983534e-06
6.337840e-06
6.337840e-06
5.494761e-06
4.988436e-06
5.494761e-06
4.988436e-06
5.611916e-06
5.611916e-06
3.783875e-06
3.783875e-06
4.329447e-06
4.324605e-06
4.329447e-06
4.324605e-06
4.857940e-06
4.857940e-06
5.472580e-06
5.472580e-06
8.197583e-06
7.685200e-06
8.197583e-06
7.685200e-06
3.818597e-06
3.818597e-06
3.836591e-06
3.836591e-06
3.575710e-06
4.757522e-06
3.575710e-06
4.757522e-06
5.093133e-07
5.093133e-07
-2.126669e-06
-2.126669e-06
-3.279900e-06
1.279920e-06
-3.279900e-06
1.279920e-06
-1.705380e-06
-1.705380e-06
-2.370673e-06
-2.370673e-06
-1.243362e-06
-3.582706e-06
-1.243362e-06
-3.582706e-06
3.498675e-06
3.498675e-06
3.376023e-06
3.376023e-06
-8.484988e-07
-6.675541e-07
-8.484988e-07
-6.675541e-07
3.687241e-06
3.687241e-06
3.307945e-06
3.307945e-06
-7.518828e-07
-7.468372e-09
-7.518828e-07
-7.468372e-09
4.198983e-06
4.198983e-06
3.051501e-06
3.051501e-06
-6.444062e-06
-4.374097e-06
-6.444062e-06
-4.374097e-06
3.655790e-07
3.655790e-07
1.484410e-06
1.484410e-06
-2.785768e-06
-5.536229e-06
-2.785768e-06
-5.536229e-06
1.388611e-06
1.388611e-06
-1.941036e-06
-1.941036e-06
-3.922004e-06
-3.180497e-06
-3.922004e-06
-3.180497e-06
-2.553380e-06
-2.553380e-06
1.829566e-07
1.829566e-07
-2.738900e-06
-4.204237e-06
-2.738900e-06
-4.204237e-06
-6.910376e-06
-6.910376e-06
-6.192921e-06
-6.192921e-06
-5.649624e-06
-5.266702e-06
-5.649624e-06
-5.266702e-06
-3.582453e-06
-3.582453e-06
-2.899226e-06
-2.899226e-06
-2.883884e-06
-3.372717e-06
-2.883884e-06
-3.372717e-06
-7.041225e-06
-7.041225e-06
-1.030917e-05
-1.030917e-05
-5.692237e-06
-4.421391e-06
-5.692237e-06
-4.421391e-06
-9.303696e-06
-9.303696e-06
-9.566991e-06
-9.566991e-06
-9.025850e-06
-7.924142e-06
-9.025850e-06
-7.924142e-06
-9.514636e-06
-9.514636e-06
-7.603683e-06
-7.603683e-06
-5.845590e-06
-7.709411e-06
-5.845590e-06
-7.709411e-06
-6.461652e-06
-6.461652e-06
-4.348139e-06
-4.348139e-06
-1.820964e-06
-3.434242e-06
-1.820964e-06
-3.434242e-06
-2.258140e-06
-2.258140e-06
9.846384e-07
9.846384e-07
4.000308e-06
-1.194566e-06
4.000308e-06
-1.194566e-06
7.113814e-07
7.113814e-07
-2.601507e-07
-2.601507e-07
3.522994e-06
4.220831e-06
3.522994e-06
4.220831e-06
-6.381703e-07
-6.381703e-07
-5.866115e-08
-5.866115e-08
5.614730e-06
5.204100e-06
5.614730e-06
5.204100e-06
-1.156534e-06
-1.156534e-06
-2.800810e-06
-2.800810e-06
3.119957e-06
4.637639e-06
3.119957e-06
4.637639e-06
-2.230594e-06
-2.230594e-06
-2.261117e-06
-2.261117e-06
-3.479326e-06
1.034618e-07
-3.479326e-06
1.034618e-07
-1.600200e-06
-1.600200e-06
-2.393352e-07
-2.393352e-07
-1.155858e-06
-4.668063e-06
-1.155858e-06
-4.668063e-06
7.467594e-07
7.467594e-07
2.432734e-06
2.432734e-06
-2.987392e-06
-3.390167e-06
-2.987392e-06
-3.390167e-06
2.306188e-06
2.306188e-06
4.346280e-06
4.346280e-06
1.217489e-06
-1.783105e-06
1.217489e-06
-1.783105e-06
6.925708e-06
6.925708e-06
7.101529e-06
7.101529e-06
1.212157e-06
2.688199e-06
1.212157e-06
2.688199e-06
5.831316e-06
5.831316e-06
3.648133e-06
3.648133e-06
-9.589210e-07
4.669233e-07
-9.589210e-07
4.669233e-07
-1.411599e-06
-1.411599e-06
-7.325457e-06
-7.325457e-06
-8.853736e-06
-5.607850e-06
-8.853736e-06
-5.607850e-06
-7.708362e-06
-7.708362e-06
-3.461276e-06
-3.461276e-06
-2.482747e-06
-7.127391e-06
-2.482747e-06
-7.127391e-06
-9.486873e-06
-9.486873e-06
-8.310070e-06
-8.310070e-06
-1.076820e-05
-9.044331e-06
-1.076820e-05
-9.044331e-06
-6.502945e-06
-6.502945e-06
-4.971507e-06
-4.971507e-06
-1.294274e-05
-1.241978e-05
-1.294274e-05
-1.241978e-05
-4.041183e-06
-4.041183e-06
-4.147067e-06
-4.147067e-06
-4.864788e-06
-9.755954e-06
-4.864788e-06
-9.755954e-06
-5.655202e-06
-5.655202e-06
-7.723525e-06
-7.723525e-06
-8.263131e-06
-5.221385e-06
-8.263131e-06
-5.221385e-06
-9.061041e-06
-9.061041e-06
-9.204360e-06
-9.204360e-06
-1.196636e-05
-1.132806e-05
-1.196636e-05
-1.132806e-05
-6.412552e-06
-6.412552e-06
8.826118e-08
8.826118e-08
-1.268452e-06
-6.867691e-06
-1.268452e-06
-6.867691e-06
-8.831460e-06
-8.831460e-06
-1.166419e-05
-1.166419e-05
-1.241265e-05
-1.408004e-05
-1.241265e-05
-1.408004e-05
-1.377188e-05
-1.377188e-05
-1.664272e-05
-1.664272e-05
-1.450818e-05
-1.212080e-05
-1.450818e-05
-1.212080e-05
-1.163699e-05
-1.163699e-05
-1.676586e-06
-1.676586e-06
1.334343e-07
-1.239751e-05
1.334343e-07
-1.239751e-05
9.010921e-07
9.010921e-07
-3.625410e-06
-3.625410e-06
2.470283e-06
1.068583e-05
2.470283e-06
1.068583e-05
-1.532108e-05
-1.532108e-05
-1.870503e-05
-1.870503e-05
-2.416266e-05
-1.604167e-05
-2.416266e-05
-1.604167e-05
-8.807727e-06
-8.807727e-06
-1.376938e-06
-1.376938e-06
2.662518e-06
-1.018281e-05
2.662518e-06
-1.018281e-05
-1.551636e-05
-1.551636e-05
-1.312887e-05
-1.312887e-05
-9.195994e-06
-7.398201e-06
-9.195994e-06
-7.398201e-06
-1.210278e-05
-1.210278e-05
-1.459272e-05
-1.459272e-05
-1.598605e-05
-1.372656e-05
-1.598605e-05
-1.372656e-05
-1.929548e-05
-1.929548e-05
-8.892009e-06
-8.892009e-06
-2.134014e-05
-2.559944e-05
-2.134014e-05
-2.559944e-05
1.869523e-05
1.869523e-05
2.747991e-05
2.747991e-05
6.366997e-05
2.070623e-05
6.366997e-05
2.070623e-05
-3.910270e-07
-3.910270e-07
-2.461095e-05
-2.461095e-05
-2.348849e-05
4.225611e-05
-2.348849e-05
4.225611e-05
-1.250988e-05
-1.250988e-05
-3.386910e-06
-3.386910e-06
-4.930810e-05
-5.057185e-05
-4.930810e-05
-5.057185e-05
-7.696518e-07
-7.696518e-07
-3.196253e-06
-3.196253e-06
-4.274856e-06
-7.152451e-06
-4.274856e-06
-7.152451e-06
-1.410613e-05
-1.410613e-05
-1.799889e-05
-1.799889e-05
-2.276992e-05
-1.129096e-05
-2.276992e-05
-1.129096e-05
-2.055934e-05
-2.055934e-05
-2.307563e-05
-2.307563e-05
1.240749e-06
-1.588932e-05
1.240749e-06
-1.588932e-05
1.583310e-05
1.583310e-05
8.971468e-05
8.971468e-05
1.074814e-04
2.977575e-05
1.074814e-04
2.977575e-05
1.078007e-04
1.078007e-04
-5.818861e-06
-5.818861e-06
5.963592e-05
1.733629e-04
5.963592e-05
1.733629e-04
-1.520343e-04
-1.520343e-04
-1.687329e-04
-1.687329e-04
-2.500101e-04
-2.055181e-04
-2.500101e-04
-2.055181e-04
-2.217435e-05
-2.217435e-05
-1.581553e-05
-1.581553e-05
-2.843769e-05
-3.912295e-05
-2.843769e-05
-3.912295e-05
-1.400319e-05
-1.400319e-05
-2.258315e-05
-2.258315e-05
-1.209176e-05
-2.304054e-05
-1.209176e-05
-2.304054e-05
-1.531700e-05
-1.531700e-05
4.329884e-05
4.329884e-05
7.404465e-05
8.029953e-06
7.404465e-05
8.029953e-06
9.614289e-05
9.614289e-05
1.117118e-04
1.117118e-04
9.559658e-05
1.486916e-04
9.559658e-05
1.486916e-04
1.501843e-04
1.501843e-04
1.617305e-04
1.617305e-04
2.185116e-04
5.383611e-05
2.185116e-04
5.383611e-05
-1.895503e-06
-1.895503e-06
-4.082557e-05
-4.082557e-05
3.306342e-04
3.154337e-04
3.306342e-04
3.154337e-04
-4.594907e-05
-4.594907e-05
-2.965431e-05
-2.965431e-05
-1.939101e-05
-4.076644e-05
-1.939101e-05
-4.076644e-05
-1.740106e-05
-1.740106e-05
9.386449e-06
9.386449e-06
4.344423e-05
1.099462e-05
4.344423e-05
1.099462e-05
5.590215e-05
5.590215e-05
9.063163e-05
9.063163e-05
5.491821e-05
7.386913e-05
5.491821e-05
7.386913e-05
1.034763e-04
1.034763e-04
9.879455e-05
9.879455e-05
7.480136e-05
-1.308944e-05
7.480136e-05
-1.308944e-05
1.312300e-04
1.312300e-04
2.873826e-04
2.873826e-04
5.239136e-04
3.437373e-04
5.239136e-04
3.437373e-04
4.519899e-04
4.519899e-04
4.867597e-04
4.867597e-04
5.985529e-04
6.331662e-04
5.985529e-04
6.331662e-04
-3.245912e-05
-3.245912e-05
-4.005755e-06
-4.005755e-06
1.496307e-05
-2.183554e-05
1.496307e-05
-2.183554e-05
4.994665e-05
4.994665e-05
7.340311e-05
7.340311e-05
6.565973e-05
8.190731e-05
6.565973e-05
8.190731e-05
1.106808e-05
1.106808e-05
-9.311289e-05
-9.311289e-05
-2.729573e-04
-1.058021e-04
-2.729573e-04
-1.058021e-04
-9.883545e-05
-9.883545e-05
1.225305e-04
1.225305e-04
3.360126e-04
-1.408089e-04
3.360126e-04
-1.408089e-04
4.791090e-04
4.791090e-04
7.269242e-04
7.269242e-04
1.104619e-03
8.260261e-04
1.104619e-03
8.260261e-04
9.468455e-04
9.468455e-04
8.414125e-04
8.414125e-04
1.206395e-03
1.488398e-03
1.206395e-03
1.488398e-03
-2.050747e-05
-2.050747e-05
3.340268e-05
3.340268e-05
5.243831e-05
-2.846317e-05
5.243831e-05
-2.846317e-05
9.262246e-05
9.262246e-05
8.242564e-06
8.242564e-06
-7.144526e-05
7.883365e-05
-7.144526e-05
7.883365e-05
-2.236671e-04
-2.236671e-04
-3.573310e-04
-3.573310e-04
-4.104656e-04
-3.400922e-04
-4.104656e-04
-3.400922e-04
-7.680638e-05
-7.680638e-05
6.850361e-04
6.850361e-04
1.417321e-03
9.490410e-05
1.417321e-03
9.490410e-05
1.597487e-03
1.597487e-03
2.546339e-03
2.546339e-03
8.413200e-03
4.160203e-03
8.413200e-03
4.160203e-03
3.547654e-03
3.547654e-03
2.383088e-03
2.383088e-03
5.710866e-03
1.052424e-02
5.710866e-03
1.052424e-02
-5.121892e-05
-5.121892e-05
6.826237e-05
6.826237e-05
5.007002e-05
-1.085753e-04
5.007002e-05
-1.085753e-04
8.280985e-05
8.280985e-05
-1.393726e-04
-1.393726e-04
-1.315030e-04
1.271788e-04
-1.315030e-04
1.271788e-04
-4.792173e-04
-4.792173e-04
-5.056082e-04
-5.056082e-04
-8.766932e-04
-5.770847e-04
-8.766932e-04
-5.770847e-04
4.004584e-04
4.004584e-04
3.128191e-03
3.128191e-03
-7.698330e-04
-5.616090e-04
-7.698330e-04
-5.616090e-04
1.020568e-02
1.020568e-02
1.947798e-02
1.947798e-02
9.138252e-03
2.090567e-03
9.138252e-03
2.090567e-03
2.271432e-02
2.271432e-02
1.230646e-02
1.230646e-02
1.171112e-02
1.886856e-02
1.171112e-02
1.886856e-02
-1.363638e-04
-1.363638e-04
-9.595498e-06
-9.595498e-06
-7.989420e-05
-1.006744e-04
-7.989420e-05
-1.006744e-04
1.242719e-04
1.242719e-04
-1.198308e-05
-1.198308e-05
1.269999e-04
5.411734e-05
1.269999e-04
5.411734e-05
-4.691322e-04
-4.691322e-04
-1.113657e-03
-1.113657e-03
-6.295932e-04
-1.516186e-04
-6.295932e-04
-1.516186e-04
-1.745298e-03
-1.745298e-03
-5.529242e-03
-5.529242e-03
-1.732243e-03
-8.144330e-04
-1.732243e-03
-8.144330e-04
-8.665075e-03
-8.665075e-03
-7.282263e-03
-7.282263e-03
5.822239e-03
2.055888e-04
5.822239e-03
2.055888e-04
6.144493e-03
6.144493e-03
6.044554e-03
6.044554e-03
1.079311e-02
1.590487e-02
1.079311e-02
1.590487e-02
-6.353150e-05
-6.353150e-05
-6.704941e-05
-6.704941e-05
1.429889e-05
-3.687190e-05
1.429889e-05
-3.687190e-05
3.099916e-05
3.099916e-05
9.435473e-05
9.435473e-05
-2.985714e-06
7.861604e-05
-2.985714e-06
7.861604e-05
-8.440670e-05
-8.440670e-05
-2.425155e-04
-2.425155e-04
-4.154525e-04
-2.910227e-04
-4.154525e-04
-2.910227e-04
2.639869e-04
2.639869e-04
2.185179e-03
2.185179e-03
1.685720e-03
1.528184e-04
1.685720e-03
1.528184e-04
7.139575e-03
7.139575e-03
1.513286e-02
1.513286e-02
7.216004e-03
4.035170e-03
7.216004e-03
4.035170e-03
2.077168e-02
2.077168e-02
1.168710e-02
1.168710e-02
4.792188e-03
9.209845e-03
4.792188e-03
9.209845e-03
-1.406674e-06
-1.406674e-06
3.728727e-05
3.728727e-05
3.646258e-05
2.334312e-05
3.646258e-05
2.334312e-05
6.174948e-05
6.174948e-05
1.376945e-05
1.376945e-05
2.271945e-05
1.204618e-05
2.271945e-05
1.204618e-05
-2.220708e-04
-2.220708e-04
-4.420092e-04
-4.420092e-04
-1.625041e-04
-1.311325e-05
-1.625041e-04
-1.311325e-05
-1.639061e-04
-1.639061e-04
5.209571e-04
5.209571e-04
3.140198e-04
-1.121586e-04
3.140198e-04
-1.121586e-04
1.197162e-03
1.197162e-03
2.042276e-03
2.042276e-03
1.051417e-03
7.638265e-04
1.051417e-03
7.638265e-04
3.237331e-03
3.237331e-03
2.065538e-03
2.065538e-03
1.204495e-03
1.510195e-03
1.204495e-03
1.510195e-03
2.291076e-05
2.291076e-05
4.754513e-05
4.754513e-05
2.946059e-05
1.987448e-06
2.946059e-05
1.987448e-06
1.175867e-05
1.175867e-05
-3.268672e-06
-3.268672e-06
-1.728298e-05
6.964552e-06
-1.728298e-05
6.964552e-06
5.824869e-05
5.824869e-05
7.396382e-05
7.396382e-05
1.326418e-04
4.761075e-05
1.326418e-04
4.761075e-05
6.071495e-05
6.071495e-05
2.313637e-04
2.313637e-04
1.362900e-04
1.134152e-04
1.362900e-04
1.134152e-04
5.428222e-04
5.428222e-04
8.122532e-04
8.122532e-04
6.782530e-04
3.726342e-04
6.782530e-04
3.726342e-04
1.067569e-03
1.067569e-03
9.242866e-04
9.242866e-04
7.845681e-04
8.816941e-04
7.845681e-04
8.816941e-04
-2.074490e-05
-2.074490e-05
1.055925e-06
1.055925e-06
-8.033139e-06
-2.060913e-05
-8.033139e-06
-2.060913e-05
-5.565630e-06
-5.565630e-06
-1.679206e-05
-1.679206e-05
-3.321719e-06
-8.411988e-06
-3.321719e-06
-8.411988e-06
2.787688e-05
2.787688e-05
1.122996e-04
1.122996e-04
1.245399e-04
4.243417e-05
1.245399e-04
4.243417e-05
1.226492e-04
1.226492e-04
1.078618e-04
1.078618e-04
1.000498e-04
1.483804e-04
1.000498e-04
1.483804e-04
3.135881e-04
3.135881e-04
6.288972e-04
6.288972e-04
5.017810e-04
2.187307e-04
5.017810e-04
2.187307e-04
6.782491e-04
6.782491e-04
5.327525e-04
5.327525e-04
4.476356e-04
6.367114e-04
4.476356e-04
6.367114e-04
-7.408269e-06
-7.408269e-06
-4.105120e-06
-4.105120e-06
-1.048415e-06
-7.350386e-07
-1.048415e-06
-7.350386e-07
-1.444168e-05
-1.444168e-05
-1.610344e-05
-1.610344e-05
-3.703253e-05
-2.345396e-05
-3.703253e-05
-2.345396e-05
2.700231e-05
2.700231e-05
1.017949e-04
1.017949e-04
7.530481e-05
3.102001e-06
7.530481e-05
3.102001e-06
1.414158e-04
1.414158e-04
1.065733e-04
1.065733e-04
1.068183e-04
1.277609e-04
1.068183e-04
1.277609e-04
1.043912e-04
1.043912e-04
1.383475e-04
1.383475e-04
2.781499e-05
4.897104e-05
2.781499e-05
4.897104e-05
-2.083823e-07
-2.083823e-07
-1.786368e-08
-1.786368e-08
2.812040e-06
2.190984e-06
2.812040e-06
2.190984e-06
8.525104e-07
8.525104e-07
1.664147e-06
1.664147e-06
2.882618e-06
2.899457e-06
2.882618e-06
2.899457e-06
1.466433e-06
1.466433e-06
-5.974861e-07
-5.974861e-07
1.269633e-06
2.335345e-06
1.269633e-06
2.335345e-06
-4.856168e-07
-4.856168e-07
1.583728e-06
1.583728e-06
3.140863e-06
1.910385e-06
3.140863e-06
1.910385e-06
5.881694e-07
5.881694e-07
-1.595302e-06
-1.595302e-06
-1.741488e-06
1.299035e-06
-1.741488e-06
1.299035e-06
-1.794628e-06
-1.794628e-06
-7.168202e-07
-7.168202e-07
-1.062205e-06
-1.692019e-06
-1.062205e-06
-1.692019e-06
1.425192e-07
1.425192e-07
2.128668e-06
2.128668e-06
3.468843e-06
9.888992e-07
3.468843e-06
9.888992e-07
3.358297e-06
3.358297e-06
2.206722e-06
2.206722e-06
2.249086e-06
2.295958e-06
2.249086e-06
2.295958e-06
6.595186e-07
6.595186e-07
-2.413746e-08
-2.413746e-08
8.042938e-07
1.435649e-06
8.042938e-07
1.435649e-06
1.077822e-06
1.077822e-06
1.565990e-06
1.565990e-06
6.059861e-06
3.374368e-06
6.059861e-06
3.374368e-06
-1.791829e-06
-1.791829e-06
-3.428867e-06
-3.428867e-06
9.933300e-07
4.872399e-06
9.933300e-07
4.872399e-06
4.166122e-07
4.166122e-07
4.283779e-06
4.283779e-06
2.300407e-06
1.243204e-07
2.300407e-06
1.243204e-07
1.589006e-05
1.589006e-05
3.007515e-05
3.007515e-05
3.949002e-05
1.482301e-05
3.949002e-05
1.482301e-05
1.178206e-05
1.178206e-05
-1.110548e-05
-1.110548e-05
1.561890e-05
4.991805e-05
1.561890e-05
4.991805e-05
5.394249e-06
5.394249e-06
6.138239e-06
6.138239e-06
3.419639e-06
-1.611385e-05
3.419639e-06
-1.611385e-05
-1.995822e-05
-1.995822e-05
-8.057298e-06
-8.057298e-06
-9.155892e-05
-2.591413e-05
-9.155892e-05
-2.591413e-05
2.496481e-05
2.496481e-05
2.213918e-05
2.213918e-05
-1.142491e-04
-1.095590e-04
-1.142491e-04
-1.095590e-04
-1.291981e-06
-1.291981e-06
-1.245692e-05
-1.245692e-05
-1.041478e-04
-1.146852e-04
-1.041478e-04
-1.146852e-04
-8.491404e-06
-8.491404e-06
2.825215e-06
2.825215e-06
-2.474306e-05
-6.790549e-05
-2.474306e-05
-6.790549e-05
3.686472e-06
3.686472e-06
-7.648116e-06
-7.648116e-06
-3.000347e-05
-1.512850e-05
-3.000347e-05
-1.512850e-05
-1.622804e-05
-1.622804e-05
-1.569115e-05
-1.569115e-05
-2.849956e-05
-3.696899e-05
-2.849956e-05
-3.696899e-05
-7.943916e-06
-7.943916e-06
-2.358725e-06
-2.358725e-06
-6.667665e-06
-1.457115e-05
-6.667665e-06
-1.457115e-05
6.324710e-06
6.324710e-06
5.564894e-06
5.564894e-06
6.962754e-06
7.650963e-06
6.962754e-06
7.650963e-06
3.454154e-06
3.454154e-06
4.295214e-06
4.295214e-06
3.890967e-06
3.189872e-06
3.890967e-06
3.189872e-06
5.896933e-06
5.896933e-06
4.194602e-06
4.194602e-06
5.279620e-06
6.017281e-06
5.279620e-06
6.017281e-06
2.504564e-06
2.504564e-06
2.766987e-06
2.766987e-06
4.610163e-06
4.311044e-06
4.610163e-06
4.311044e-06
1.682153e-06
1.682153e-06
6.129367e-08
6.129367e-08
1.940599e-06
4.192776e-06
1.940599e-06
4.192776e-06
-2.043586e-07
-2.043586e-07
1.500350e-07
1.500350e-07
7.009453e-07
2.527393e-07
7.009453e-07
2.527393e-07
1.227589e-06
1.227589e-06
2.610765e-06
2.610765e-06
1.776360e-06
4.504135e-07
1.776360e-06
4.504135e-07
3.504360e-06
3.504360e-06
4.456110e-06
4.456110e-06
4.402091e-06
4.130683e-06
4.402091e-06
4.130683e-06
3.165989e-06
3.165989e-06
3.959184e-06
3.959184e-06
6.329590e-06
5.445746e-06
6.329590e-06
5.445746e-06
8.051645e-06
8.051645e-06
8.753248e-06
8.753248e-06
9.733351e-06
7.586333e-06
9.733351e-06
7.586333e-06
8.958820e-06
8.958820e-06
8.532708e-06
8.532708e-06
1.669296e-05
1.263919e-05
1.669296e-05
1.263919e-05
5.258187e-06
5.258187e-06
4.076228e-06
4.076228e-06
-1.961691e-06
1.215302e-05
-1.961691e-06
1.215302e-05
1.394090e-05
1.394090e-05
3.879813e-05
3.879813e-05
1.296714e-06
-1.066440e-05
1.296714e-06
-1.066440e-05
6.461675e-05
6.461675e-05
4.607070e-05
4.607070e-05
2.542215e-05
2.543609e-05
2.542215e-05
2.543609e-05
-4.356488e-05
-4.356488e-05
-8.086263e-05
-8.086263e-05
-1.610791e-04
-4.969938e-05
-1.610791e-04
-4.969938e-05
-5.460757e-05
-5.460757e-05
-1.358201e-04
-1.358201e-04
-4.072611e-05
-1.259953e-04
-4.072611e-05
-1.259953e-04
-2.573317e-04
-2.573317e-04
-2.616926e-04
-2.616926e-04
-4.963902e-06
-1.670847e-05
-4.963902e-06
-1.670847e-05
-2.005435e-04
-2.005435e-04
-1.631166e-04
-1.631166e-04
-6.769386e-05
-1.962542e-05
-6.769386e-05
-1.962542e-05
-1.258401e-04
-1.258401e-04
-7.642858e-05
-7.642858e-05
-9.773386e-05
-1.143771e-04
-9.773386e-05
-1.143771e-04
-5.872690e-05
-5.872690e-05
-7.151830e-05
-7.151830e-05
-1.083125e-04
-8.079409e-05
-1.083125e-04
-8.079409e-05
-7.541569e-05
-7.541569e-05
-5.540349e-05
-5.540349e-05
-1.006088e-04
-1.305626e-04
-1.006088e-04
-1.305626e-04
-2.728490e-05
-2.728490e-05
-1.421793e-05
-1.421793e-05
-3.251855e-05
-5.252861e-05
-3.251855e-05
-5.252861e-05
5.656277e-06
5.656277e-06
6.508183e-06
6.508183e-06
5.836235e-06
3.574139e-06
5.836235e-06
3.574139e-06
4.587821e-06
4.587821e-06
3.516728e-06
3.516728e-06
3.732336e-06
5.417784e-06
3.732336e-06
5.417784e-06
3.756727e-06
3.756727e-06
4.166093e-06
4.166093e-06
3.734424e-06
3.002916e-06
3.734424e-06
3.002916e-06
5.190408e-06
5.190408e-06
5.809604e-06
5.809604e-06
1.760331e-06
3.642878e-06
1.760331e-06
3.642878e-06
3.694378e-06
3.694378e-06
9.856319e-07
9.856319e-07
-1.140973e-06
-4.574313e-07
-1.140973e-06
-4.574313e-07
1.452771e-07
1.452771e-07
-5.758847e-07
-5.758847e-07
-4.772181e-07
-2.353062e-07
-4.772181e-07
-2.353062e-07
5.344437e-07
5.344437e-07
3.491064e-06
3.491064e-06
2.586998e-06
1.071595e-06
2.586998e-06
1.071595e-06
3.731221e-06
3.731221e-06
2.700385e-06
2.700385e-06
3.987719e-06
2.627130e-06
3.987719e-06
2.627130e-06
5.806483e-06
5.806483e-06
6.942461e-06
6.942461e-06
5.330537e-06
5.492475e-06
5.330537e-06
5.492475e-06
5.051692e-06
5.051692e-06
7.553627e-06
7.553627e-06
6.117936e-06
4.476030e-06
6.117936e-06
4.476030e-06
1.308811e-05
1.308811e-05
1.872841e-05
1.872841e-05
1.457241e-05
1.291782e-05
1.457241e-05
1.291782e-05
8.668005e-06
8.668005e-06
-3.181086e-05
-3.181086e-05
-8.558749e-05
-1.435248e-05
-8.558749e-05
-1.435248e-05
-8.060940e-05
-8.060940e-05
-8.743435e-05
-8.743435e-05
-1.656104e-04
-1.649878e-04
-1.656104e-04
-1.649878e-04
-4.312878e-05
-4.312878e-05
-3.629084e-06
-3.629084e-06
7.482346e-05
-5.890635e-05
7.482346e-05
-5.890635e-05
-1.501586e-05
-1.501586e-05
-1.111408e-04
-1.111408e-04
6.264422e-05
1.383630e-04
6.264422e-05
1.383630e-04
-1.457161e-04
-1.457161e-04
3.621946e-06
3.621946e-06
-3.402581e-05
-6.307982e-05
-3.402581e-05
-6.307982e-05
2.103600e-04
2.103600e-04
2.633065e-04
2.633065e-04
9.728414e-05
6.023318e-05
9.728414e-05
6.023318e-05
2.044706e-04
2.044706e-04
1.228985e-04
1.228985e-04
1.833306e-04
1.496414e-04
1.833306e-04
1.496414e-04
3.046823e-05
3.046823e-05
2.173246e-05
2.173246e-05
2.181079e-04
1.999416e-04
2.181079e-04
1.999416e-04
4.111163e-06
4.111163e-06
-9.010454e-05
-9.010454e-05
1.472225e-05
1.565526e-04
1.472225e-05
1.565526e-04
-1.625760e-04
-1.625760e-04
-1.460858e-04
-1.460858e-04
-1.554108e-04
-1.144300e-04
-1.554108e-04
-1.144300e-04
-9.076030e-05
-9.076030e-05
-6.342843e-05
-6.342843e-05
-6.962233e-05
-1.079376e-04
-6.962233e-05
-1.079376e-04
4.048343e-06
4.048343e-06
6.057685e-06
6.057685e-06
3.236092e-06
2.560929e-06
3.236092e-06
2.560929e-06
4.745908e-06
4.745908e-06
2.393277e-06
2.393277e-06
2.460144e-07
2.913616e-06
2.460144e-07
2.913616e-06
2.047558e-06
2.047558e-06
2.569803e-06
2.569803e-06
1.849170e-06
1.043712e-06
1.849170e-06
1.043712e-06
1.168673e-06
1.168673e-06
-1.430678e-06
-1.430678e-06
-3.439135e-06
-1.512080e-06
-3.439135e-06
-1.512080e-06
-3.100461e-06
-3.100461e-06
-3.160783e-06
-3.160783e-06
-3.662742e-06
-3.534124e-06
-3.662742e-06
-3.534124e-06
-6.165400e-07
-6.165400e-07
2.668208e-07
2.668208e-07
5.957902e-09
-2.365447e-06
5.957902e-09
-2.365447e-06
6.346885e-07
6.346885e-07
2.316003e-06
2.316003e-06
4.100609e-06
2.580850e-06
4.100609e-06
2.580850e-06
4.134529e-06
4.134529e-06
5.264849e-06
5.264849e-06
5.245515e-06
5.740353e-06
5.245515e-06
5.740353e-06
3.530889e-06
3.530889e-06
3.850031e-06
3.850031e-06
3.694492e-06
2.341470e-06
3.694492e-06
2.341470e-06
5.497122e-06
5.497122e-06
6.883480e-06
6.883480e-06
8.674852e-06
7.793802e-06
8.674852e-06
7.793802e-06
1.104411e-05
1.104411e-05
-3.559131e-06
-3.559131e-06
-5.232462e-05
-1.634271e-06
-5.232462e-05
-1.634271e-06
-6.637315e-05
-6.637315e-05
-1.532603e-04
-1.532603e-04
-1.834759e-04
-1.425778e-04
-1.834759e-04
-1.425778e-04
-1.956683e-04
-1.956683e-04
-1.392204e-04
-1.392204e-04
1.049118e-05
-1.116170e-04
1.049118e-05
-1.116170e-04
1.614095e-05
1.614095e-05
2.141800e-04
2.141800e-04
2.903803e-04
1.232970e-04
2.903803e-04
1.232970e-04
3.451863e-04
3.451863e-04
2.502641e-04
2.502641e-04
4.429186e-04
4.971157e-04
4.429186e-04
4.971157e-04
2.702865e-05
2.702865e-05
-4.147908e-07
-4.147908e-07
1.458834e-04
2.279861e-04
1.458834e-04
2.279861e-04
8.428568e-06
8.428568e-06
-2.854409e-05
-2.854409e-05
9.540045e-05
1.077752e-04
9.540045e-05
1.077752e-04
3.492340e-05
3.492340e-05
1.355821e-04
1.355821e-04
2.910967e-04
1.924414e-04
2.910967e-04
1.924414e-04
2.427150e-04
2.427150e-04
2.609020e-04
2.609020e-04
2.111650e-04
2.907280e-04
2.111650e-04
2.907280e-04
1.925915e-04
1.925915e-04
1.198572e-04
1.198572e-04
1.601387e-04
1.289647e-04
1.601387e-04
1.289647e-04
7.526802e-06
7.526802e-06
-8.238405e-05
-8.238405e-05
6.932955e-05
1.546085e-04
6.932955e-05
1.546085e-04
-5.459063e-05
-5.459063e-05
-1.720137e-05
-1.720137e-05
5.520982e-05
4.545973e-05
5.520982e-05
4.545973e-05
2.732482e-07
2.732482e-07
-1.534895e-07
-1.534895e-07
-1.808158e-06
-5.383221e-07
-1.808158e-06
-5.383221e-07
-2.728932e-08
-2.728932e-08
-1.252883e-06
-1.252883e-06
-1.420074e-06
-7.836529e-07
-1.420074e-06
-7.836529e-07
5.998371e-08
5.998371e-08
7.144611e-07
7.144611e-07
-7.791648e-07
-1.843950e-06
-7.791648e-07
-1.843950e-06
-1.759108e-06
-1.759108e-06
-3.109608e-06
-3.109608e-06
-2.406531e-06
-1.423236e-06
-2.406531e-06
-1.423236e-06
-2.697055e-06
-2.697055e-06
-2.484837e-06
-2.484837e-06
-1.442950e-06
-2.236026e-06
-1.442950e-06
-2.236026e-06
-2.813038e-06
-2.813038e-06
4.792727e-07
4.792727e-07
1.312657e-06
-5.962735e-07
1.312657e-06
-5.962735e-07
3.786796e-06
3.786796e-06
4.382772e-06
4.382772e-06
2.394489e-06
2.496731e-06
2.394489e-06
2.496731e-06
5.296873e-06
5.296873e-06
4.998154e-06
4.998154e-06
4.479303e-06
3.870854e-06
4.479303e-06
3.870854e-06
3.937985e-06
3.937985e-06
3.901242e-06
3.901242e-06
3.899346e-06
2.679597e-06
3.899346e-06
2.679597e-06
9.358603e-06
9.358603e-06
9.303490e-06
9.303490e-06
-4.427867e-06
8.993724e-06
-4.427867e-06
8.993724e-06
-3.318119e-05
-3.318119e-05
-1.286702e-04
-1.286702e-04
-1.898491e-04
-8.420036e-05
-1.898491e-04
-8.420036e-05
-1.900645e-04
-1.900645e-04
-9.937599e-05
-9.937599e-05
9.923213e-05
-1.426455e-04
9.923213e-05
-1.426455e-04
8.244206e-05
8.244206e-05
1.893942e-04
1.893942e-04
3.143469e-04
2.865686e-04
3.143469e-04
2.865686e-04
2.138808e-04
2.138808e-04
3.136274e-04
3.136274e-04
3.640236e-04
3.187175e-04
3.640236e-04
3.187175e-04
5.845682e-04
5.845682e-04
6.580997e-04
6.580997e-04
8.956506e-04
6.112786e-04
8.956506e-04
6.112786e-04
5.990049e-04
5.990049e-04
3.448993e-04
3.448993e-04
3.756225e-04
1.281460e-03
3.756225e-04
1.281460e-03
1.096286e-04
1.096286e-04
1.595853e-04
1.595853e-04
1.320128e-05
-7.260068e-04
1.320128e-05
-7.260068e-04
3.421196e-04
3.421196e-04
5.052008e-04
5.052008e-04
6.141928e-04
7.618025e-04
6.141928e-04
7.618025e-04
3.742977e-04
3.742977e-04
2.051945e-04
2.051945e-04
2.104721e-04
2.701185e-04
2.104721e-04
2.701185e-04
1.497737e-04
1.497737e-04
2.208788e-04
2.208788e-04
3.503194e-04
2.773768e-04
3.503194e-04
2.773768e-04
2.804091e-04
2.804091e-04
2.058735e-04
2.058735e-04
2.993103e-04
3.697144e-04
2.993103e-04
3.697144e-04
9.087275e-05
9.087275e-05
5.392962e-05
5.392962e-05
2.125967e-05
8.501286e-05
2.125967e-05
8.501286e-05
-1.021176e-06
-1.021176e-06
-2.825394e-06
-2.825394e-06
-1.017427e-06
-1.017427e-06
-9.910363e-07
-9.910363e-07
-2.854432e-06
-2.854432e-06
-4.355219e-07
-4.355219e-07
3.621705e-07
3.621705e-07
-1.934398e-06
-1.934398e-06
-2.360480e-06
-2.360480e-06
-1.569339e-06
-1.569339e-06
5.057322e-07
5.057322e-07
1.881182e-06
1.881182e-06
7.459827e-07
7.459827e-07
7.362484e-07
7.362484e-07
3.466607e-06
3.466607e-06
2.515284e-06
2.515284e-06
2.071490e-07
2.071490e-07
2.858077e-06
2.858077e-06
-1.027209e-06
-1.027209e-06
-3.511247e-05
-3.511247e-05
-1.233829e-04
-1.233829e-04
-1.812005e-04
-1.812005e-04
-1.360150e-05
-1.360150e-05
3.002667e-04
3.002667e-04
4.222871e-04
4.222871e-04
4.228937e-04
4.228937e-04
4.839884e-04
4.839884e-04
5.173025e-04
5.173025e-04
6.717423e-04
6.717423e-04
1.105471e-03
1.105471e-03
2.290668e-03
2.290668e-03
-6.409933e-04
-6.409933e-04
-4.007113e-03
-4.007113e-03
-9.063267e-04
-9.063267e-04
1.298044e-03
1.298044e-03
4.485355e-04
4.485355e-04
1.874991e-04
1.874991e-04
3.893938e-04
3.893938e-04
4.980277e-04
4.980277e-04
5.227511e-04
5.227511e-04
4.360878e-04
4.360878e-04
3.950525e-04
3.950525e-04
1.799691e-06
1.985409e-06
2.242806e-06
2.528844e-06
2.642813e-06
2.542423e-06
1.766875e-06
2.396535e-06
3.207495e-06
3.692013e-06
3.939224e-06
3.883218e-06
6.566879e-07
1.994043e-06
3.831626e-06
4.602222e-06
5.090559e-06
5.308529e-06
-2.751161e-07
9.808979e-07
3.036232e-06
4.059584e-06
4.737921e-06
5.192227e-06
5.669887e-07
1.242687e-06
2.625902e-06
3.512026e-06
4.061545e-06
4.432455e-06
1.758106e-06
2.313606e-06
2.873812e-06
2.914454e-06
3.183464e-06
3.416537e-06
1.772814e-06
2.621523e-06
2.861909e-06
2.453809e-06
2.598847e-06
2.543662e-06
1.277951e-06
2.011068e-06
2.454694e-06
2.149711e-06
2.053916e-06
1.973613e-06
1.570604e-06
1.619291e-06
1.746830e-06
1.454928e-06
1.359277e-06
1.634379e-06
1.778274e-06
1.525679e-06
1.103416e-06
7.269725e-07
7.933468e-07
1.066497e-06
1.678299e-06
1.515074e-06
9.759603e-07
5.106537e-07
5.524740e-07
6.837128e-07
-1.982761e-08
4.286487e-07
1.124473e-06
1.522463e-06
2.030040e-06
2.386975e-06
-5.538016e-07
4.393215e-08
9.416717e-07
1.836882e-06
3.248347e-06
4.064608e-06
-2.550572e-06
-1.467256e-06
-2.497772e-07
1.326393e-06
4.468069e-06
6.167739e-06
-3.449727e-06
-2.040839e-06
-1.296128e-06
-5.254451e-08
4.055589e-06
6.255963e-06
-1.863744e-06
-9.415668e-07
-1.245110e-06
-6.507688e-07
3.320660e-06
5.472027e-06
-6.812998e-07
-3.509662e-07
-6.295597e-07
-6.303871e-08
2.806596e-06
4.500782e-06
5.352975e-07
7.543897e-07
8.309809e-07
1.015530e-06
2.338805e-06
3.335029e-06
1.753354e-06
1.919218e-06
1.652381e-06
1.190623e-06
1.723411e-06
2.285256e-06
1.601346e-06
1.505526e-06
1.011340e-06
6.049105e-07
1.117548e-06
1.638250e-06
1.516215e-06
1.235868e-06
6.941874e-07
3.898028e-07
8.034641e-07
1.260177e-06
1.744653e-06
1.483590e-06
9.057637e-07
4.888551e-07
7.546084e-07
1.120507e-06
-3.128098e-06
-1.480322e-06
-3.357513e-08
2.588122e-07
1.409472e-06
2.066714e-06
-6.374784e-06
-3.923862e-06
-1.397590e-06
3.235290e-08
2.627437e-06
3.867927e-06
-7.766506e-06
-6.030255e-06
-4.622197e-06
-1.624559e-06
4.108282e-06
6.515294e-06
-4.047853e-06
-5.072581e-06
-7.627531e-06
-4.269167e-06
3.881626e-06
7.143832e-06
-4.579607e-06
-5.500255e-06
-7.917053e-06
-4.634853e-06
3.249348e-06
6.355199e-06
-6.924301e-06
-5.208238e-06
-4.404732e-06
-2.262153e-06
3.018535e-06
5.244087e-06
-3.216258e-06
-1.361708e-06
-3.142580e-07
-5.197805e-08
2.504322e-06
3.991243e-06
2.609952e-06
2.245370e-06
1.127996e-06
4.958840e-07
1.497589e-06
2.378614e-06
3.381188e-06
2.401028e-06
7.088182e-07
1.079421e-08
6.087718e-07
1.192723e-06
1.793938e-06
1.437271e-06
5.615256e-07
6.726752e-08
6.888710e-07
1.285655e-06
1.604366e-06
1.418623e-06
8.422913e-07
4.707493e-07
1.077197e-06
1.664599e-06
-5.006265e-06
-2.755990e-06
3.945786e-07
1.454089e-06
1.196642e-06
7.799785e-07
-6.333685e-06
-3.787353e-06
-3.458917e-07
1.723642e-06
2.519026e-06
2.140005e-06
-1.518403e-06
-3.036791e-06
-4.384493e-06
2.493663e-08
4.648297e-06
5.032913e-06
3.334123e-06
-3.022361e-06
-9.829555e-06
-3.356639e-06
5.265007e-06
6.963025e-06
7.783485e-07
-4.445027e-06
-9.832993e-06
-3.769446e-06
4.472297e-06
6.485902e-06
-2.507444e-07
-2.636545e-06
-4.868136e-06
-1.050871e-06
3.421422e-06
4.230660e-06
-1.970064e-06
-1.290310e-06
-3.001268e-07
1.412250e-06
2.422435e-06
2.030673e-06
2.828133e-07
1.291313e-06
2.046036e-06
1.623701e-06
1.171739e-06
8.883347e-07
4.765910e-06
3.931922e-06
2.119129e-06
6.223301e-07
2.627179e-07
4.210997e-07
3.307171e-06
2.671582e-06
1.256093e-06
3.470945e-07
4.890342e-07
7.600741e-07
1.574036e-06
1.469672e-06
9.194826e-07
5.396275e-07
9.243215e-07
1.243046e-06
-8.197183e-06
-5.566850e-06
-6.613375e-07
3.905223e-07
-1.236988e-06
-1.641179e-06
-1.895296e-06
-9.808888e-07
1.319860e-06
8.463477e-07
-1.596427e-06
-2.179349e-06
1.236658e-05
8.207758e-06
4.114774e-06
2.025035e-06
-1.227833e-06
-2.325127e-06
2.114708e-05
1.435331e-05
5.281415e-06
1.974850e-06
-4.153187e-07
-1.777044e-06
1.727986e-05
1.198748e-05
4.581969e-06
1.264992e-06
-9.440313e-07
-1.949202e-06
6.640718e-06
3.086400e-06
2.219553e-06
1.815083e-06
-1.995009e-06
-2.713160e-06
6.640065e-07
-3.307843e-07
1.018374e-06
1.104706e-06
-2.001476e-06
-2.850042e-06
8.219226e-07
1.145470e-06
7.396607e-07
6.917965e-08
-8.843510e-07
-1.896758e-06
2.635544e-06
2.212885e-06
1.194816e-06
6.674485e-07
4.869346e-08
-6.381033e-07
2.483134e-06
2.020188e-06
1.299940e-06
9.014484e-07
5.658269e-07
3.713949e-07
7.003174e-07
6.611293e-07
5.623281e-07
6.989327e-07
8.357235e-07
7.762967e-07
-1.079869e-05
-7.454250e-06
-2.185122e-06
-2.125593e-06
-3.465585e-06
-2.940414e-06
-9.983117e-07
7.387623e-08
1.860473e-06
-1.671634e-06
-5.533502e-06
-5.148854e-06
1.799478e-05
1.535714e-05
1.208532e-05
2.700513e-06
-7.381275e-06
-8.712442e-06
3.415454e-05
2.966875e-05
2.059537e-05
6.289317e-06
-6.970657e-06
-1.051217e-05
2.813829e-05
2.499032e-05
1.811194e-05
5.612735e-06
-6.913736e-06
-1.067141e-05
3.055029e-06
4.044954e-06
9.498846e-06
4.248134e-06
-7.225520e-06
-8.984494e-06
-4.621560e-07
3.083792e-07
3.208433e-06
-2.962943e-07
-5.917941e-06
-5.905342e-06
4.069365e-06
2.371688e-06
-1.206825e-06
-2.348810e-06
-2.509907e-06
-3.409856e-06
8.695558e-07
-2.777815e-08
-7.068392e-07
3.569324e-07
-8.632475e-08
-1.375081e-06
6.856472e-07
6.256974e-07
9.257853e-07
1.190610e-06
7.177459e-07
3.400949e-07
-3.497122e-07
-2.319455e-07
1.347064e-07
7.930525e-07
1.020456e-06
8.383981e-07
SCALARS E22 float 1
LOOKUP_TABLE default
-1.067885e-04
-1.165533e-04
-2.372531e-04
-1.722576e-04
-1.067885e-04
-1.165533e-04
-2.372531e-04
-1.722576e-04
-4.604708e-05
-1.746914e-04
-4.604708e-05
-1.746914e-04
-1.192713e-04
-1.358591e-04
-1.192713e-04
-1.358591e-04
-8.205728e-05
-8.205728e-05
9.383000e-07
3.930496e-06
1.735606e-05
1.389762e-05
9.383000e-07
3.930496e-06
1.735606e-05
1.389762e-05
2.999486e-06
1.053471e-05
2.999486e-06
1.053471e-05
1.308858e-05
1.621841e-05
1.308858e-05
1.621841e-05
1.997672e-05
1.997672e-05
1.925109e-05
1.672580e-05
2.807409e-05
1.925109e-05
1.672580e-05
2.807409e-05
1.095486e-05
6.010145e-06
1.095486e-05
6.010145e-06
-9.827275e-06
-3.079857e-06
-9.827275e-06
-3.079857e-06
8.554070e-06
8.554070e-06
1.598531e-06
3.039169e-06
-4.809983e-06
2.833137e-06
1.598531e-06
3.039169e-06
-4.809983e-06
2.833137e-06
1.424329e-06
-8.615924e-06
1.424329e-06
-8.615924e-06
-4.972405e-06
-5.372597e-06
-4.972405e-06
-5.372597e-06
3.056027e-06
3.056027e-06
4.093459e-06
3.204032e-06
-2.698272e-06
5.368369e-06
4.093459e-06
3.204032e-06
-2.698272e-06
5.368369e-06
-2.370665e-06
-2.370665e-06
-7.410442e-06
-7.410442e-06
-1.811975e-07
-3.093111e-06
3.676989e-07
1.504941e-06
-1.811975e-07
-3.093111e-06
3.676989e-07
1.504941e-06
4.726496e-06
4.726496e-06
4.344309e-06
4.344309e-06
1.391438e-06
-7.147815e-07
-2.181837e-06
1.658435e-06
1.391438e-06
-7.147815e-07
-2.181837e-06
1.658435e-06
-3.411979e-06
-5.315397e-06
-3.411979e-06
-5.315397e-06
4.239409e-07
3.247572e-06
4.239409e-07
3.247572e-06
6.931971e-06
6.931971e-06
2.279757e-06
3.690029e-07
9.226775e-06
9.012255e-06
2.279757e-06
3.690029e-07
9.226775e-06
9.012255e-06
1.001680e-06
8.785313e-06
1.001680e-06
8.785313e-06
1.347030e-05
9.367446e-06
1.347030e-05
9.367446e-06
7.379967e-06
7.379967e-06
1.178850e-05
-7.555439e-06
2.294611e-06
4.006185e-05
1.178850e-05
-7.555439e-06
2.294611e-06
4.006185e-05
-3.367622e-05
-2.355826e-05
-3.367622e-05
-2.355826e-05
7.646901e-05
5.004522e-05
7.646901e-05
5.004522e-05
3.962413e-05
3.962413e-05
5.092201e-06
-6.111570e-06
2.747285e-05
5.092201e-06
-6.111570e-06
2.747285e-05
-8.885602e-08
9.053496e-06
-8.885602e-08
9.053496e-06
-1.548624e-05
-1.548624e-05
1.316558e-05
1.316558e-05
2.247564e-05
2.168607e-07
2.247564e-05
2.168607e-07
4.714874e-05
6.185834e-05
1.160513e-05
3.509920e-06
4.714874e-05
6.185834e-05
1.160513e-05
3.509920e-06
5.367544e-05
5.367544e-05
-7.434436e-06
-3.560134e-06
1.475481e-05
5.274480e-06
-7.434436e-06
-3.560134e-06
1.475481e-05
5.274480e-06
1.734011e-05
1.734011e-05
2.800337e-05
2.800337e-05
1.968629e-05
1.968629e-05
3.092556e-05
3.092556e-05
-9.610347e-06
-9.610347e-06
-7.103818e-06
-7.103818e-06
1.475329e-06
-1.161529e-05
1.475329e-06
-1.161529e-05
2.358271e-05
2.358271e-05
6.015676e-06
-1.402745e-06
6.015676e-06
-1.402745e-06
-6.290719e-06
-6.290719e-06
-8.715805e-06
-1.146740e-05
-8.715805e-06
-1.146740e-05
-1.217473e-05
-9.490465e-06
-1.217473e-05
-9.490465e-06
-8.443342e-06
-3.546290e-06
-8.443342e-06
-3.546290e-06
-1.400365e-05
-1.400365e-05
-6.796569e-06
-6.796569e-06
4.497812e-06
-3.959050e-07
4.497812e-06
-3.959050e-07
9.726848e-07
9.726848e-07
1.192975e-06
1.113304e-06
1.192975e-06
1.113304e-06
-2.245273e-07
-3.736170e-06
8.396367e-06
5.891637e-06
-2.245273e-07
-3.736170e-06
8.396367e-06
5.891637e-06
-2.684782e-06
6.753552e-06
-2.684782e-06
6.753552e-06
1.226137e-05
1.343375e-05
1.226137e-05
1.343375e-05
-2.487955e-06
-2.468324e-06
-3.653013e-06
-3.418840e-06
-2.487955e-06
-2.468324e-06
-3.653013e-06
-3.418840e-06
-2.715890e-06
-5.826393e-06
-2.715890e-06
-5.826393e-06
-4.878170e-06
-2.831848e-06
-4.878170e-06
-2.831848e-06
-2.884041e-06
-2.884041e-06
6.168589e-06
1.991478e-06
6.168589e-06
1.991478e-06
6.729934e-06
6.729934e-06
3.387845e-06
3.387845e-06
2.647287e-08
-2.098069e-06
1.001884e-07
1.279173e-06
2.647287e-08
-2.098069e-06
1.001884e-07
1.279173e-06
1.811033e-06
1.811033e-06
1.882581e-06
1.882581e-06
3.250594e-06
2.196589e-06
1.689733e-06
-9.082538e-08
3.250594e-06
2.196589e-06
1.689733e-06
-9.082538e-08
5.378516e-06
5.378516e-06
7.620278e-07
2.502240e-06
3.175427e-06
4.503375e-06
7.620278e-07
2.502240e-06
3.175427e-06
4.503375e-06
8.006303e-06
8.006303e-06
2.912596e-06
-1.681518e-07
2.912596e-06
-1.681518e-07
-2.145690e-05
4.964045e-06
-2.145690e-05
4.964045e-06
-1.183673e-05
-1.183673e-05
5.575749e-06
5.575749e-06
2.371820e-06
2.371820e-06
3.409696e-06
4.711729e-06
3.409696e-06
4.711729e-06
-1.133070e-06
2.510744e-06
-1.133070e-06
2.510744e-06
7.846628e-06
7.846628e-06
7.051852e-08
-2.713813e-06
-6.935765e-07
2.943962e-06
7.051852e-08
-2.713813e-06
-6.935765e-07
2.943962e-06
-5.249711e-06
-5.249711e-06
-1.303015e-06
-1.303015e-06
4.325598e-06
1.416251e-05
4.560889e-05
3.359910e-05
4.325598e-06
1.416251e-05
4.560889e-05
3.359910e-05
3.257278e-06
3.257278e-06
5.880177e-06
5.880177e-06
6.021934e-06
6.021934e-06
4.569453e-06
2.125669e-05
4.569453e-06
2.125669e-05
-5.090717e-05
-5.090717e-05
-3.313460e-06
-3.313460e-06
-1.025236e-06
2.351725e-05
-1.025236e-06
2.351725e-05
-5.442413e-06
-5.442413e-06
-4.356935e-06
-4.356935e-06
-6.276106e-06
-4.565997e-06
-6.276106e-06
-4.565997e-06
-3.115111e-06
-6.631361e-06
-3.115111e-06
-6.631361e-06
1.979710e-06
9.771353e-06
3.804343e-05
8.372371e-06
1.979710e-06
9.771353e-06
3.804343e-05
8.372371e-06
4.572722e-07
4.572722e-07
-3.288392e-06
-3.288392e-06
-1.730977e-05
-6.914378e-05
-1.730977e-05
-6.914378e-05
-6.644106e-05
-7.686782e-05
-6.644106e-05
-7.686782e-05
8.794957e-06
8.794957e-06
-5.560673e-07
-5.560673e-07
8.145999e-07
-1.004566e-06
8.145999e-07
-1.004566e-06
2.873066e-06
2.873066e-06
2.912660e-07
9.987145e-07
2.912660e-07
9.987145e-07
-2.430478e-06
-2.430478e-06
6.059474e-06
6.059474e-06
7.196060e-06
7.196060e-06
4.417104e-06
3.107051e-06
4.417104e-06
3.107051e-06
5.351974e-06
5.351974e-06
2.188012e-06
2.188012e-06
3.230920e-06
4.924460e-06
3.230920e-06
4.924460e-06
8.312399e-08
8.312399e-08
2.341966e-07
2.341966e-07
-4.249001e-07
2.661485e-07
-4.249001e-07
2.661485e-07
9.034829e-07
9.034829e-07
1.240069e-06
1.240069e-06
3.605306e-06
1.523774e-06
3.605306e-06
1.523774e-06
3.420505e-08
-1.535951e-06
3.420505e-08
-1.535951e-06
9.402317e-08
9.402317e-08
-6.426915e-08
-8.280466e-07
-6.426915e-08
-8.280466e-07
-2.293419e-06
-2.293419e-06
1.974600e-06
1.974600e-06
3.972795e-06
3.972795e-06
2.626840e-06
1.533877e-06
2.626840e-06
1.533877e-06
3.585255e-06
3.585255e-06
2.093784e-06
2.093784e-06
2.105105e-06
1.742944e-06
2.105105e-06
1.742944e-06
1.462513e-06
1.462513e-06
1.069272e-06
1.069272e-06
4.666628e-06
3.348038e-06
4.666628e-06
3.348038e-06
2.138441e-06
2.138441e-06
3.720527e-06
3.720527e-06
4.618186e-06
4.763348e-06
4.618186e-06
4.763348e-06
-6.261618e-07
-5.328405e-07
-6.261618e-07
-5.328405e-07
-6.907118e-07
-6.907118e-07
-1.291369e-06
-1.052192e-06
-1.291369e-06
-1.052192e-06
-7.107797e-07
-7.107797e-07
-9.738936e-07
-9.738936e-07
-7.999812e-07
-7.999812e-07
-3.618077e-06
-2.860744e-06
-3.618077e-06
-2.860744e-06
2.167876e-08
2.167876e-08
1.125202e-06
1.125202e-06
-8.443594e-07
-1.487354e-06
-8.443594e-07
-1.487354e-06
3.081043e-06
3.081043e-06
6.138792e-06
6.138792e-06
4.446344e-06
3.507884e-08
4.446344e-06
3.507884e-08
5.969125e-06
5.969125e-06
4.093142e-06
4.093142e-06
8.071676e-07
3.931299e-06
8.071676e-07
3.931299e-06
-1.804830e-06
-4.074897e-07
-1.804830e-06
-4.074897e-07
-9.200902e-07
-9.200902e-07
2.654583e-06
1.692494e-08
2.654583e-06
1.692494e-08
9.280653e-07
9.280653e-07
-9.661206e-07
-9.661206e-07
-3.690278e-06
-3.690278e-06
-7.066497e-07
2.085932e-06
-7.066497e-07
2.085932e-06
-3.507916e-06
-3.507916e-06
-1.769681e-06
-1.769681e-06
-7.488006e-07
-1.487021e-06
-7.488006e-07
-1.487021e-06
-2.158372e-06
-2.158372e-06
-8.183274e-07
-8.183274e-07
-3.382796e-06
-1.207891e-06
-3.382796e-06
-1.207891e-06
-1.377425e-06
-1.377425e-06
-3.096146e-06
-3.096146e-06
-3.762834e-06
-4.574615e-06
-3.762834e-06
-4.574615e-06
3.270036e-06
2.611196e-06
3.270036e-06
2.611196e-06
5.514772e-06
5.514772e-06
6.919467e-06
5.771318e-06
6.919467e-06
5.771318e-06
4.617495e-06
4.617495e-06
3.092481e-06
3.092481e-06
1.994697e-06
1.994697e-06
1.597943e-06
3.995659e-06
1.597943e-06
3.995659e-06
1.382932e-06
1.382932e-06
3.309182e-08
3.309182e-08
-2.567330e-06
-1.664038e-09
-2.567330e-06
-1.664038e-09
-5.926216e-07
-5.926216e-07
-1.671697e-06
-1.671697e-06
-2.119493e-06
-2.823576e-06
-2.119493e-06
-2.823576e-06
-2.804931e-06
-2.804931e-06
-3.055094e-06
-3.055094e-06
-1.951995e-06
-1.781435e-06
-1.951995e-06
-1.781435e-06
6.075680e-06
3.552307e-06
6.075680e-06
3.552307e-06
7.360906e-06
7.360906e-06
5.842030e-06
3.860502e-06
5.842030e-06
3.860502e-06
2.060826e-06
2.060826e-06
6.229269e-06
6.229269e-06
2.644203e-06
2.644203e-06
4.159216e-06
6.133604e-06
4.159216e-06
6.133604e-06
-1.497354e-06
-1.497354e-06
-3.762455e-06
-3.762455e-06
-2.318391e-06
2.196609e-07
-2.318391e-06
2.196609e-07
-4.791148e-06
-4.791148e-06
-4.409821e-06
-4.409821e-06
-2.796083e-06
-3.038741e-06
-2.796083e-06
-3.038741e-06
-2.133001e-06
-2.133001e-06
-2.233342e-07
-2.233342e-07
-1.631142e-07
-1.209873e-06
-1.631142e-07
-1.209873e-06
1.884068e-06
-5.730945e-10
1.884068e-06
-5.730945e-10
3.939196e-06
3.939196e-06
2.680642e-06
7.436466e-07
2.680642e-06
7.436466e-07
-6.083874e-07
-6.083874e-07
4.487411e-06
4.487411e-06
4.932612e-06
4.932612e-06
6.343530e-06
4.316827e-06
6.343530e-06
4.316827e-06
3.417503e-06
3.417503e-06
6.719493e-07
6.719493e-07
2.190710e-06
4.761391e-06
2.190710e-06
4.761391e-06
-8.822651e-07
-8.822651e-07
-1.008115e-06
-1.008115e-06
-1.465641e-06
-3.953708e-07
-1.465641e-06
-3.953708e-07
3.282303e-07
3.282303e-07
1.122523e-06
1.122523e-06
1.245855e-06
2.726521e-07
1.245855e-06
2.726521e-07
2.846969e-06
1.088156e-06
2.846969e-06
1.088156e-06
4.043607e-06
4.043607e-06
6.805224e-06
6.667835e-06
6.805224e-06
6.667835e-06
2.683077e-06
2.683077e-06
5.102819e-06
5.102819e-06
5.524777e-06
5.524777e-06
1.729273e-06
4.540461e-06
1.729273e-06
4.540461e-06
1.816254e-06
1.816254e-06
-1.463246e-06
-1.463246e-06
-5.064116e-06
-2.419744e-06
-5.064116e-06
-2.419744e-06
-3.108170e-06
-3.108170e-06
-3.300917e-06
-3.300917e-06
-4.847660e-06
-6.713620e-06
-4.847660e-06
-6.713620e-06
-9.623351e-07
-9.623351e-07
-2.473328e-07
-2.473328e-07
2.883989e-08
-1.087433e-06
2.883989e-08
-1.087433e-06
5.847133e-06
3.292995e-06
5.847133e-06
3.292995e-06
6.064901e-06
6.064901e-06
1.813057e-06
1.683846e-06
1.813057e-06
1.683846e-06
1.606339e-06
1.606339e-06
2.159753e-06
2.159753e-06
-1.592338e-06
-1.592338e-06
-4.789563e-06
-2.446440e-06
-4.789563e-06
-2.446440e-06
-3.434749e-06
-3.434749e-06
-6.397200e-06
-6.397200e-06
-5.541358e-06
-3.876731e-06
-5.541358e-06
-3.876731e-06
-6.938893e-06
-6.938893e-06
-3.973622e-06
-3.973622e-06
-2.144798e-06
-4.598037e-06
-2.144798e-06
-4.598037e-06
-1.503769e-06
-1.503769e-06
-1.913675e-07
-1.913675e-07
-4.220603e-07
-1.184146e-06
-4.220603e-07
-1.184146e-06
-4.195117e-06
-1.668946e-06
-4.195117e-06
-1.668946e-06
-4.557417e-06
-4.557417e-06
-1.163449e-05
-1.207250e-05
-1.163449e-05
-1.207250e-05
-5.363766e-06
-5.363766e-06
-5.718383e-06
-5.718383e-06
-5.828331e-06
-5.828331e-06
-2.694854e-06
-5.944019e-06
-2.694854e-06
-5.944019e-06
-3.250373e-06
-3.250373e-06
-2.472554e-06
-2.472554e-06
2.736423e-06
1.363609e-07
2.736423e-06
1.363609e-07
-4.435421e-07
-4.435421e-07
4.302111e-07
4.302111e-07
3.222373e-06
4.031290e-06
3.222373e-06
4.031290e-06
3.131527e-07
3.131527e-07
1.091546e-06
1.091546e-06
2.796429e-06
2.583343e-06
2.796429e-06
2.583343e-06
-1.531627e-05
-7.650854e-06
-1.531627e-05
-7.650854e-06
-1.446358e-05
-1.446358e-05
-1.318210e-05
-1.372417e-05
-1.318210e-05
-1.372417e-05
-7.792524e-06
-7.792524e-06
-7.224234e-06
-7.224234e-06
-1.703179e-06
-1.703179e-06
-1.534610e-06
-7.426307e-06
-1.534610e-06
-7.426307e-06
2.522126e-06
2.522126e-06
5.705229e-06
5.705229e-06
6.094544e-06
3.040793e-06
6.094544e-06
3.040793e-06
6.417304e-06
6.417304e-06
5.484910e-06
5.484910e-06
6.991801e-06
7.814131e-06
6.991801e-06
7.814131e-06
3.917847e-06
3.917847e-06
3.027284e-06
3.027284e-06
3.829241e-06
4.608787e-06
3.829241e-06
4.608787e-06
-1.157717e-05
-8.234790e-06
-1.157717e-05
-8.234790e-06
-9.498842e-06
-9.498842e-06
-3.309912e-06
-7.492114e-06
-3.309912e-06
-7.492114e-06
-7.433842e-06
-7.433842e-06
-5.049378e-06
-5.049378e-06
2.057804e-07
2.057804e-07
2.071480e-06
-3.102951e-07
2.071480e-06
-3.102951e-07
5.862069e-06
5.862069e-06
1.043092e-05
1.043092e-05
1.368558e-05
8.360555e-06
1.368558e-05
8.360555e-06
1.221348e-05
1.221348e-05
1.034176e-05
1.034176e-05
1.198688e-05
1.500224e-05
1.198688e-05
1.500224e-05
6.187000e-06
6.187000e-06
3.884620e-06
3.884620e-06
4.478216e-06
7.165805e-06
4.478216e-06
7.165805e-06
-2.434169e-06
-3.280086e-06
-2.434169e-06
-3.280086e-06
6.047127e-07
6.047127e-07
1.230414e-06
4.026260e-07
1.230414e-06
4.026260e-07
-1.063314e-06
-1.063314e-06
2.725844e-06
2.725844e-06
3.489107e-06
3.489107e-06
3.444423e-06
2.181754e-06
3.444423e-06
2.181754e-06
5.835535e-06
5.835535e-06
9.938657e-06
9.938657e-06
4.080197e-06
3.328213e-06
4.080197e-06
3.328213e-06
1.191419e-05
1.191419e-05
9.444042e-06
9.444042e-06
4.955747e-06
4.820646e-06
4.955747e-06
4.820646e-06
5.920245e-06
5.920245e-06
4.357187e-06
4.357187e-06
1.580124e-06
3.251545e-06
1.580124e-06
3.251545e-06
2.021343e-06
-4.420140e-07
2.021343e-06
-4.420140e-07
7.587819e-07
7.587819e-07
3.308837e-07
3.186629e-06
3.308837e-07
3.186629e-06
5.655951e-07
5.655951e-07
-1.256194e-07
-1.256194e-07
2.770877e-06
2.770877e-06
2.280614e-06
-1.884476e-06
2.280614e-06
-1.884476e-06
2.936887e-06
2.936887e-06
6.104421e-07
6.104421e-07
-4.707413e-07
2.598823e-06
-4.707413e-07
2.598823e-06
6.050102e-07
6.050102e-07
2.205712e-06
2.205712e-06
2.435294e-06
1.037423e-06
2.435294e-06
1.037423e-06
1.942990e-06
1.942990e-06
7.819537e-07
7.819537e-07
1.099420e-06
1.622975e-06
1.099420e-06
1.622975e-06
7.855614e-07
1.542319e-06
1.829056e-06
6.094817e-07
7.855614e-07
1.542319e-06
1.829056e-06
6.094817e-07
1.567882e-06
2.638783e-06
1.567882e-06
2.638783e-06
4.946747e-06
4.354041e-06
4.946747e-06
4.354041e-06
1.881340e-06
1.881340e-06
2.855350e-06
3.774991e-06
2.855350e-06
3.774991e-06
2.287866e-06
3.309888e-06
2.287866e-06
3.309888e-06
2.301807e-06
4.753228e-06
2.301807e-06
4.753228e-06
5.861519e-07
2.800165e-06
5.861519e-07
2.800165e-06
1.707992e-06
1.707992e-06
3.970946e-06
2.257635e-06
3.970946e-06
2.257635e-06
5.949108e-06
5.949108e-06
5.903185e-06
3.158439e-06
5.903185e-06
3.158439e-06
2.630093e-06
2.630093e-06
6.997747e-06
6.997747e-06
4.014301e-06
4.014301e-06
6.967832e-06
9.112301e-06
6.967832e-06
9.112301e-06
8.637377e-07
8.637377e-07
1.898937e-06
1.898937e-06
4.882918e-06
2.047679e-06
4.882918e-06
2.047679e-06
7.845862e-06
7.845862e-06
7.690997e-06
4.471561e-06
7.690997e-06
4.471561e-06
9.299897e-07
9.299897e-07
1.120370e-05
1.120370e-05
8.903091e-06
8.903091e-06
8.208071e-06
9.576776e-06
8.208071e-06
9.576776e-06
1.454243e-06
1.454243e-06
1.306978e-06
1.306978e-06
1.903553e-06
2.470285e-07
1.903553e-06
2.470285e-07
4.734430e-06
4.734430e-06
2.325962e-06
7.669213e-07
2.325962e-06
7.669213e-07
-3.084010e-07
-3.084010e-07
6.732057e-06
6.732057e-06
4.854140e-06
4.854140e-06
1.108036e-06
3.152442e-06
1.108036e-06
3.152442e-06
-1.254977e-06
-1.254977e-06
-3.997224e-06
-3.997224e-06
1.269935e-06
6.697895e-07
1.269935e-06
6.697895e-07
1.572952e-06
1.572952e-06
1.691216e-06
1.326340e-06
1.691216e-06
1.326340e-06
1.833902e-06
1.833902e-06
4.607089e-07
4.607089e-07
-1.750546e-06
-1.750546e-06
-1.484705e-06
1.118665e-06
-1.484705e-06
1.118665e-06
-2.690179e-06
-2.690179e-06
-1.906966e-06
-1.906966e-06
-5.064712e-07
5.658763e-07
-5.064712e-07
5.658763e-07
3.315412e-07
3.315412e-07
-7.046608e-07
-1.833411e-06
-7.046608e-07
-1.833411e-06
-9.092808e-07
-9.092808e-07
3.704021e-07
3.704021e-07
-1.867726e-07
-1.867726e-07
8.469228e-08
-5.325806e-07
8.469228e-08
-5.325806e-07
-1.424024e-06
-1.424024e-06
-1.044102e-06
-1.044102e-06
-9.010501e-06
-8.988653e-06
-9.010501e-06
-8.988653e-06
-2.205644e-06
-2.205644e-06
-3.692073e-06
-8.536633e-06
-3.692073e-06
-8.536633e-06
-1.314159e-05
-1.314159e-05
4.640116e-07
4.640116e-07
-1.205878e-06
-1.205878e-06
1.422187e-07
1.698850e-06
1.422187e-07
1.698850e-06
6.264679e-07
6.264679e-07
3.274168e-06
3.274168e-06
2.111915e-06
4.049730e-07
2.111915e-06
4.049730e-07
3.934931e-06
3.934931e-06
2.623677e-06
2.623677e-06
2.712715e-06
3.227720e-06
2.712715e-06
3.227720e-06
1.766417e-06
1.766417e-06
1.701144e-06
1.701144e-06
2.922123e-06
2.304653e-06
2.922123e-06
2.304653e-06
4.075049e-07
4.075049e-07
-1.010700e-06
-1.010700e-06
-1.479531e-06
9.298876e-07
-1.479531e-06
9.298876e-07
-1.076943e-06
-1.076943e-06
-6.785975e-07
-6.785975e-07
-1.189495e-05
-1.926824e-05
-1.189495e-05
-1.926824e-05
-2.305302e-06
-2.305302e-06
-6.695273e-06
4.635494e-08
-6.695273e-06
4.635494e-08
7.749536e-06
7.749536e-06
1.083488e-06
1.083488e-06
3.184909e-06
3.184909e-06
8.703294e-07
-1.207608e-06
8.703294e-07
-1.207608e-06
3.653619e-06
3.653619e-06
3.071381e-06
3.071381e-06
4.669279e-06
5.064514e-06
4.669279e-06
5.064514e-06
3.931601e-06
3.931601e-06
3.984135e-06
3.984135e-06
-1.890657e-06
9.638304e-07
-1.890657e-06
9.638304e-07
2.651006e-06
2.651006e-06
2.872300e-06
2.872300e-06
1.071969e-07
-2.622017e-06
1.071969e-07
-2.622017e-06
1.369353e-06
1.369353e-06
-1.823064e-07
-1.823064e-07
1.418034e-06
1.243610e-06
1.418034e-06
1.243610e-06
5.429566e-07
5.429566e-07
1.812806e-06
1.812806e-06
2.378807e-06
2.378807e-06
1.195712e-06
1.195712e-06
5.324804e-07
1.799662e-06
5.324804e-07
1.799662e-06
6.803482e-07
6.803482e-07
-7.679579e-08
-7.679579e-08
-8.139836e-07
-1.796697e-06
-8.139836e-07
-1.796697e-06
-6.048387e-06
-6.048387e-06
-2.537340e-06
-2.537340e-06
-3.111671e-06
-7.145473e-06
-3.111671e-06
-7.145473e-06
-1.535538e-06
-1.535538e-06
-5.301566e-07
-5.301566e-07
4.123896e-07
4.862333e-06
4.123896e-07
4.862333e-06
5.081238e-06
5.081238e-06
5.957041e-08
5.957041e-08
-1.909546e-06
-7.660314e-07
-1.909546e-06
-7.660314e-07
-5.601621e-06
-5.601621e-06
-5.195616e-06
-5.195616e-06
-6.742354e-06
-1.396809e-05
-6.742354e-06
-1.396809e-05
-2.703946e-06
-2.703946e-06
-1.194277e-05
-1.194277e-05
-4.556774e-06
1.168059e-05
-4.556774e-06
1.168059e-05
-3.175781e-07
-9.087756e-06
-3.175781e-07
-9.087756e-06
-4.535445e-06
-1.308604e-05
-4.535445e-06
-1.308604e-05
1.014391e-06
-1.335765e-06
1.014391e-06
-1.335765e-06
7.545666e-07
1.350845e-06
7.088858e-07
5.190409e-07
7.545666e-07
1.350845e-06
7.088858e-07
5.190409e-07
-1.326435e-06
-1.773977e-06
-1.326435e-06
-1.773977e-06
-1.193484e-06
-6.570997e-07
-1.193484e-06
-6.570997e-07
1.211935e-07
1.211935e-07
5.464630e-07
-3.065448e-07
-2.686951e-07
-1.278016e-06
5.464630e-07
-3.065448e-07
-2.686951e-07
-1.278016e-06
-8.873176e-07
6.417236e-07
-8.873176e-07
6.417236e-07
6.905670e-07
1.253373e-06
6.905670e-07
1.253373e-06
8.442041e-07
8.442041e-07
-4.221568e-06
-2.251031e-06
-4.301133e-06
-4.964347e-06
-4.221568e-06
-2.251031e-06
-4.301133e-06
-4.964347e-06
-1.130137e-06
-3.412214e-06
-1.130137e-06
-3.412214e-06
-2.302457e-06
-3.445179e-06
-2.302457e-06
-3.445179e-06
-2.339230e-06
-2.339230e-06
-2.710350e-06
-2.025867e-06
-3.334592e-06
-2.710350e-06
-2.025867e-06
-3.334592e-06
-3.083486e-06
-2.846104e-07
-3.083486e-06
-2.846104e-07
-1.051716e-06
-4.029432e-06
-1.051716e-06
-4.029432e-06
-6.357775e-06
-6.357775e-06
-1.452055e-05
-8.106082e-06
-6.718877e-06
-1.329416e-05
-1.452055e-05
-8.106082e-06
-6.718877e-06
-1.329416e-05
-3.387768e-06
-3.387768e-06
-9.475585e-06
-9.475585e-06
-4.081348e-07
-4.224327e-06
-3.972056e-06
1.029139e-06
-4.081348e-07
-4.224327e-06
-3.972056e-06
1.029139e-06
-1.716624e-05
-1.059278e-05
-1.716624e-05
-1.059278e-05
-1.312090e-05
-3.981505e-06
-1.312090e-05
-3.981505e-06
-2.027426e-06
-2.027426e-06
1.990966e-06
-7.921271e-07
-1.227564e-05
-5.753020e-06
1.990966e-06
-7.921271e-07
-1.227564e-05
-5.753020e-06
-9.371923e-06
-9.371923e-06
-2.080661e-05
-2.080661e-05
-1.542814e-05
-1.542814e-05
-1.934180e-06
-1.107228e-06
-1.934180e-06
-1.107228e-06
-1.786188e-06
-1.786188e-06
-2.230731e-06
-6.733927e-07
-2.230731e-06
-6.733927e-07
1.386152e-06
1.386152e-06
6.485429e-08
-5.531833e-07
9.090539e-07
1.226096e-06
6.485429e-08
-5.531833e-07
9.090539e-07
1.226096e-06
5.662141e-07
5.662141e-07
2.670582e-07
7.094937e-07
2.670582e-07
7.094937e-07
8.552331e-07
8.552331e-07
3.312361e-07
1.170839e-06
9.081925e-07
-4.811498e-08
3.312361e-07
1.170839e-06
9.081925e-07
-4.811498e-08
4.344302e-07
7.416302e-07
4.344302e-07
7.416302e-07
4.322554e-07
4.322554e-07
7.044801e-07
6.813549e-07
7.044801e-07
6.813549e-07
1.134124e-06
1.134124e-06
-7.779709e-06
-1.681015e-05
-1.747379e-05
-3.838073e-06
-7.779709e-06
-1.681015e-05
-1.747379e-05
-3.838073e-06
-3.268610e-05
-3.268610e-05
-1.777120e-05
-1.777120e-05
-1.825759e-05
-1.178994e-05
-1.825759e-05
-1.178994e-05
-1.093849e-05
-1.093849e-05
-1.929051e-06
-1.783584e-05
-1.929051e-06
-1.783584e-05
-2.554023e-06
-2.372681e-06
-4.282799e-06
-2.554023e-06
-2.372681e-06
-4.282799e-06
-3.823665e-06
-3.823665e-06
-3.857516e-06
-3.857516e-06
9.430897e-07
5.037278e-07
3.258362e-06
6.884433e-06
9.430897e-07
5.037278e-07
3.258362e-06
6.884433e-06
-2.535399e-06
-2.503834e-06
-2.535399e-06
-2.503834e-06
4.794200e-06
4.794200e-06
1.083389e-05
1.083389e-05
3.199543e-07
2.233212e-06
2.854348e-06
8.797397e-07
3.199543e-07
2.233212e-06
2.854348e-06
8.797397e-07
1.169412e-06
1.712970e-06
1.169412e-06
1.712970e-06
-5.283686e-06
-6.195696e-06
-5.283686e-06
-6.195696e-06
-3.823380e-06
-3.823380e-06
-7.833914e-06
-9.231512e-06
-1.301100e-05
-1.170128e-05
-7.833914e-06
-9.231512e-06
-1.301100e-05
-1.170128e-05
-9.100259e-06
-9.100259e-06
-1.244721e-05
-1.244721e-05
-4.812332e-06
-4.812332e-06
-6.097076e-06
-6.097076e-06
-8.859154e-06
-4.227113e-06
-8.859154e-06
-4.227113e-06
-3.131039e-05
-1.974965e-05
-3.732872e-05
-4.984782e-05
-3.131039e-05
-1.974965e-05
-3.732872e-05
-4.984782e-05
-8.982119e-06
-2.664711e-05
-8.982119e-06
-2.664711e-05
-1.962570e-05
-2.595540e-05
-1.962570e-05
-2.595540e-05
-3.770480e-05
-3.770480e-05
-1.456267e-06
-2.764492e-06
-1.456267e-06
-2.764492e-06
-7.042535e-06
-7.042535e-06
-1.790586e-06
-3.091789e-06
-1.790586e-06
-3.091789e-06
-1.324521e-06
-1.324521e-06
-4.397426e-07
-5.828198e-06
-4.397426e-07
-5.828198e-06
1.526928e-07
1.526928e-07
3.949827e-07
3.949827e-07
-5.754116e-06
-5.754116e-06
-5.284760e-05
-2.754502e-05
-5.284760e-05
-2.754502e-05
-3.899311e-05
-3.899311e-05
2.608087e-06
3.166557e-06
2.608087e-06
3.166557e-06
-4.078847e-07
4.056767e-07
-4.078847e-07
4.056767e-07
-1.025387e-06
-1.562813e-06
-1.361148e-06
-7.669652e-07
-1.025387e-06
-1.562813e-06
-1.361148e-06
-7.669652e-07
-1.988348e-06
-6.031156e-07
-1.988348e-06
-6.031156e-07
-2.122857e-06
-2.122857e-06
-1.034083e-06
-1.506143e-06
-1.034083e-06
-1.506143e-06
3.634910e-08
3.634910e-08
-1.946389e-06
-1.946389e-06
-3.442452e-06
-3.442452e-06
-2.349321e-06
-2.842728e-06
-2.349321e-06
-2.842728e-06
-2.518141e-06
-3.184570e-06
-2.518141e-06
-3.184570e-06
-1.995669e-05
-1.995669e-05
-8.679016e-06
-8.679016e-06
-3.573638e-06
-3.573638e-06
-6.328411e-06
-6.328411e-06
-1.725710e-07
-1.725710e-07
-9.095571e-07
-9.095571e-07
-4.863049e-07
4.144349e-08
-4.863049e-07
4.144349e-08
-1.327094e-05
-8.263887e-06
-1.327094e-05
-8.263887e-06
-5.204973e-06
-5.204973e-06
-5.093988e-06
-5.093988e-06
-1.455311e-06
-1.455311e-06
-7.504387e-06
-7.504387e-06
7.881634e-07
3.247821e-06
7.881634e-07
3.247821e-06
-1.988798e-06
-1.988798e-06
-2.326999e-07
-1.154892e-06
-2.326999e-07
-1.154892e-06
1.390228e-07
1.390228e-07
-2.298077e-06
-4.791292e-08
-2.298077e-06
-4.791292e-08
-2.718825e-06
1.880505e-06
-2.718825e-06
1.880505e-06
3.548924e-06
9.156333e-08
3.548924e-06
9.156333e-08
-3.088638e-06
6.971569e-07
-3.088638e-06
6.971569e-07
-1.886421e-06
2.506648e-07
-1.886421e-06
2.506648e-07
6.820174e-07
2.169195e-06
6.820174e-07
2.169195e-06
-1.203071e-06
2.827004e-07
-1.203071e-06
2.827004e-07
-1.809102e-06
-2.670911e-07
-1.809102e-06
-2.670911e-07
-6.338691e-07
6.299196e-07
-6.338691e-07
6.299196e-07
2.014967e-07
-5.838051e-07
2.014967e-07
-5.838051e-07
1.109875e-06
-3.694462e-07
1.109875e-06
-3.694462e-07
-6.405163e-07
-9.526994e-07
-6.405163e-07
-9.526994e-07
-8.324482e-07
-9.709418e-07
-8.324482e-07
-9.709418e-07
-6.382212e-07
-1.999286e-07
-6.382212e-07
-1.999286e-07
5.245036e-07
-9.349842e-07
5.245036e-07
-9.349842e-07
-1.124740e-06
-1.641242e-07
-1.124740e-06
-1.641242e-07
-2.310539e-06
-9.735719e-07
-2.310539e-06
-9.735719e-07
-3.871687e-07
-1.566890e-07
-3.871687e-07
-1.566890e-07
-1.089672e-06
-1.314151e-07
-1.089672e-06
-1.314151e-07
6.092491e-07
1.095652e-07
6.092491e-07
1.095652e-07
-1.513909e-06
1.131384e-07
-1.513909e-06
1.131384e-07
1.293166e-06
2.404000e-08
1.293166e-06
2.404000e-08
1.715540e-06
1.170053e-06
1.715540e-06
1.170053e-06
2.848211e-07
-1.419266e-06
2.848211e-07
-1.419266e-06
8.047615e-07
1.482991e-06
8.047615e-07
1.482991e-06
4.959019e-07
1.543598e-06
4.959019e-07
1.543598e-06
1.008757e-06
8.991216e-07
1.008757e-06
8.991216e-07
1.436201e-06
1.385482e-06
1.436201e-06
1.385482e-06
6.505037e-07
5.221021e-07
6.505037e-07
5.221021e-07
7.257372e-07
4.688771e-07
7.257372e-07
4.688771e-07
9.927531e-08
4.980587e-07
9.927531e-08
4.980587e-07
-2.280082e-07
6.203269e-07
-2.280082e-07
6.203269e-07
3.866635e-07
1.717654e-06
3.866635e-07
1.717654e-06
-9.440389e-07
1.145581e-06
-9.440389e-07
1.145581e-06
-7.344103e-07
3.531620e-07
-7.344103e-07
3.531620e-07
-5.802477e-07
-3.086453e-07
-5.802477e-07
-3.086453e-07
-4.060994e-07
-1.670247e-06
-4.060994e-07
-1.670247e-06
1.161511e-06
-1.963047e-07
1.161511e-06
-1.963047e-07
-2.417839e-07
-1.454269e-06
-2.417839e-07
-1.454269e-06
2.657448e-06
2.026556e-06
2.657448e-06
2.026556e-06
2.318967e-06
2.084331e-06
2.318967e-06
2.084331e-06
1.886857e-06
1.336750e-06
1.886857e-06
1.336750e-06
-7.110607e-07
-7.110607e-07
3.630406e-07
3.630406e-07
-6.355033e-07
8.888659e-08
-6.355033e-07
8.888659e-08
-1.360808e-07
-1.360808e-07
-9.862221e-07
-9.862221e-07
-1.111914e-06
-6.722270e-07
-1.111914e-06
-6.722270e-07
-4.612191e-07
-4.612191e-07
-7.438703e-07
-7.438703e-07
-1.079346e-06
-1.667823e-06
-1.079346e-06
-1.667823e-06
-6.908776e-07
-6.908776e-07
2.022455e-07
2.022455e-07
5.841024e-07
-1.260957e-06
5.841024e-07
-1.260957e-06
-6.030387e-07
-6.030387e-07
-5.155925e-08
-5.155925e-08
-5.060572e-07
7.964429e-07
-5.060572e-07
7.964429e-07
1.497128e-07
1.497128e-07
-3.749596e-07
-3.749596e-07
7.520448e-07
1.070828e-06
7.520448e-07
1.070828e-06
5.617946e-07
5.617946e-07
1.191308e-07
1.191308e-07
1.147355e-06
8.315619e-07
1.147355e-06
8.315619e-07
2.182047e-07
2.182047e-07
1.003523e-06
1.003523e-06
2.171405e-06
1.598623e-06
2.171405e-06
1.598623e-06
8.020706e-07
8.020706e-07
-4.215673e-07
-4.215673e-07
-1.305525e-06
1.202700e-06
-1.305525e-06
1.202700e-06
-1.418210e-06
-1.418210e-06
5.361023e-07
5.361023e-07
-4.693409e-07
-2.878424e-06
-4.693409e-07
-2.878424e-06
1.449050e-06
1.449050e-06
-4.503908e-07
-4.503908e-07
-3.684400e-07
3.234196e-07
-3.684400e-07
3.234196e-07
-1.828504e-06
-1.828504e-06
-1.205613e-06
-1.205613e-06
-1.061476e-06
-3.705523e-07
-1.061476e-06
-3.705523e-07
-4.913086e-07
-4.913086e-07
-6.668747e-07
-6.668747e-07
-1.198344e-06
-1.445328e-06
-1.198344e-06
-1.445328e-06
-9.854836e-08
-9.854836e-08
4.491863e-07
4.491863e-07
-1.486727e-06
-1.156089e-06
-1.486727e-06
-1.156089e-06
1.010717e-06
1.010717e-06
2.694026e-07
2.694026e-07
-4.762212e-07
-4.709486e-07
-4.762212e-07
-4.709486e-07
5.315087e-07
5.315087e-07
7.372485e-07
7.372485e-07
9.720744e-07
1.117787e-06
9.720744e-07
1.117787e-06
-2.217080e-07
-2.217080e-07
-7.411030e-07
-7.411030e-07
-5.923321e-07
-7.713423e-08
-5.923321e-07
-7.713423e-08
-1.151594e-06
-1.151594e-06
-5.202536e-07
-5.202536e-07
-1.021816e-06
-5.470048e-07
-1.021816e-06
-5.470048e-07
6.894361e-07
6.894361e-07
9.707331e-07
9.707331e-07
8.169608e-07
-8.931421e-07
8.169608e-07
-8.931421e-07
1.750590e-06
1.750590e-06
1.790693e-06
1.790693e-06
1.940877e-06
2.451023e-06
1.940877e-06
2.451023e-06
1.208164e-06
1.208164e-06
1.142112e-06
1.142112e-06
1.057704e-06
5.721077e-07
1.057704e-06
5.721077e-07
1.052349e-06
1.052349e-06
1.302696e-06
1.302696e-06
8.768415e-07
8.322860e-07
8.768415e-07
8.322860e-07
1.068071e-06
1.068071e-06
-9.645872e-07
-9.645872e-07
-1.493867e-06
2.252768e-07
-1.493867e-06
2.252768e-07
-1.845286e-06
-1.845286e-06
-9.241257e-07
-9.241257e-07
-4.275546e-07
-9.664282e-07
-4.275546e-07
-9.664282e-07
-5.770130e-07
-5.770130e-07
-6.129906e-07
-6.129906e-07
-4.098828e-07
-5.123844e-07
-4.098828e-07
-5.123844e-07
5.951659e-07
5.951659e-07
2.609586e-07
2.609586e-07
1.523035e-06
4.803729e-07
1.523035e-06
4.803729e-07
-1.349195e-06
-1.349195e-06
-5.039931e-07
-5.039931e-07
-4.933492e-07
2.828392e-07
-4.933492e-07
2.828392e-07
1.836091e-07
1.836091e-07
-6.669467e-08
-6.669467e-08
7.297120e-07
4.016837e-07
7.297120e-07
4.016837e-07
-1.669221e-06
-1.669221e-06
-1.941617e-06
-1.941617e-06
-1.779561e-06
-1.236503e-06
-1.779561e-06
-1.236503e-06
-9.151337e-07
-9.151337e-07
-7.617659e-07
-7.617659e-07
-1.375466e-06
-1.235439e-06
-1.375466e-06
-1.235439e-06
-6.475678e-07
-6.475678e-07
-3.241128e-07
-3.241128e-07
2.540783e-07
-8.252647e-07
2.540783e-07
-8.252647e-07
-1.468513e-07
-1.468513e-07
-3.008956e-07
-3.008956e-07
-1.513275e-06
-6.432805e-07
-1.513275e-06
-6.432805e-07
-2.999492e-07
-2.999492e-07
-1.457028e-07
-1.457028e-07
-6.067565e-07
-1.920582e-07
-6.067565e-07
-1.920582e-07
1.165261e-06
1.165261e-06
9.615601e-07
9.615601e-07
1.214728e-06
-5.415149e-07
1.214728e-06
-5.415149e-07
-6.528561e-07
-6.528561e-07
7.707450e-07
7.707450e-07
1.239544e-06
1.258177e-06
1.239544e-06
1.258177e-06
1.589026e-06
1.589026e-06
3.215103e-07
3.215103e-07
-4.257390e-07
1.357411e-06
-4.257390e-07
1.357411e-06
-1.594554e-06
-1.594554e-06
-2.241699e-06
-2.241699e-06
-2.038668e-06
-2.310871e-06
-2.038668e-06
-2.310871e-06
-6.683998e-07
-6.683998e-07
6.609048e-07
6.609048e-07
1.079845e-06
-2.560017e-08
1.079845e-06
-2.560017e-08
9.108682e-07
9.108682e-07
-2.436979e-07
-2.436979e-07
-6.764214e-07
8.718783e-07
-6.764214e-07
8.718783e-07
-1.023476e-06
-1.023476e-06
7.469256e-07
7.469256e-07
1.541814e-07
-1.581354e-06
1.541814e-07
-1.581354e-06
8.701481e-07
8.701481e-07
-1.628837e-07
-1.628837e-07
-1.283470e-07
-1.340359e-08
-1.283470e-07
-1.340359e-08
4.442210e-07
4.442210e-07
6.622910e-07
6.622910e-07
-4.757730e-07
2.825696e-07
-4.757730e-07
2.825696e-07
-2.129687e-07
-2.129687e-07
-6.057455e-07
-6.057455e-07
1.159737e-07
8.373634e-07
1.159737e-07
8.373634e-07
2.420062e-07
2.420062e-07
-9.365152e-08
-9.365152e-08
3.369740e-07
4.565018e-07
3.369740e-07
4.565018e-07
-7.125929e-07
-7.125929e-07
2.273044e-07
2.273044e-07
2.496985e-07
-6.083968e-07
2.496985e-07
-6.083968e-07
-5.889481e-08
-5.889481e-08
-1.651624e-06
-1.651624e-06
-4.896310e-07
1.385466e-06
-4.896310e-07
1.385466e-06
-1.060145e-06
-1.060145e-06
-1.925211e-07
-1.925211e-07
5.384098e-07
-1.249244e-06
5.384098e-07
-1.249244e-06
4.706444e-07
4.706444e-07
2.508729e-06
2.508729e-06
2.745494e-06
1.442206e-06
2.745494e-06
1.442206e-06
2.418745e-06
2.418745e-06
1.189203e-07
1.189203e-07
-1.684292e-06
1.331058e-06
-1.684292e-06
1.331058e-06
-1.146533e-06
-1.146533e-06
-1.665859e-06
-1.665859e-06
-3.276539e-06
-3.477715e-06
-3.276539e-06
-3.477715e-06
-1.653857e-06
-1.653857e-06
-9.041191e-07
-9.041191e-07
-3.433333e-07
-1.333235e-06
-3.433333e-07
-1.333235e-06
6.457825e-07
6.457825e-07
7.556320e-07
7.556320e-07
5.012665e-07
3.536674e-07
5.012665e-07
3.536674e-07
-3.472195e-07
-3.472195e-07
-5.773149e-07
-5.773149e-07
-9.428119e-07
-8.887303e-07
-9.428119e-07
-8.887303e-07
-1.835564e-07
-1.835564e-07
-2.861217e-07
-2.861217e-07
-4.699060e-07
5.583119e-07
-4.699060e-07
5.583119e-07
-9.788104e-07
-9.788104e-07
-3.593391e-07
-3.593391e-07
-2.331143e-07
-1.012534e-06
-2.331143e-07
-1.012534e-06
2.383584e-07
2.383584e-07
3.605964e-08
3.605964e-08
2.489407e-06
1.088361e-06
2.489407e-06
1.088361e-06
-5.207885e-07
-8.999416e-08
-5.207885e-07
-8.999416e-08
3.420623e-07
3.420623e-07
-1.560290e-07
-6.005957e-07
-1.560290e-07
-6.005957e-07
-4.465364e-07
-4.465364e-07
2.996767e-07
2.996767e-07
-6.675027e-07
-6.675027e-07
2.100469e-08
-1.244821e-07
2.100469e-08
-1.244821e-07
-1.078277e-06
-1.078277e-06
-1.988172e-07
-1.988172e-07
9.095045e-07
3.772215e-07
9.095045e-07
3.772215e-07
6.589171e-07
6.589171e-07
8.454978e-07
8.454978e-07
3.236566e-07
1.024945e-06
3.236566e-07
1.024945e-06
4.876478e-07
4.876478e-07
-5.171089e-07
-5.171089e-07
-7.480737e-07
-2.241684e-07
-7.480737e-07
-2.241684e-07
-4.845778e-07
-4.845778e-07
-7.300587e-07
-7.300587e-07
-7.373267e-07
-1.184129e-06
-7.373267e-07
-1.184129e-06
-4.105564e-07
-4.105564e-07
1.467631e-06
1.467631e-06
5.251257e-07
-3.695617e-07
5.251257e-07
-3.695617e-07
3.126322e-06
3.126322e-06
3.841891e-06
3.841891e-06
4.231112e-06
2.947685e-06
4.231112e-06
2.947685e-06
-7.990189e-07
-7.551993e-07
-7.990189e-07
-7.551993e-07
-1.952418e-07
-1.952418e-07
-7.371458e-08
-3.652093e-07
-7.371458e-08
-3.652093e-07
-2.186642e-06
-2.186642e-06
2.781262e-07
2.781262e-07
1.388866e-07
1.388866e-07
-6.707694e-07
-6.679938e-07
-6.707694e-07
-6.679938e-07
6.708552e-07
6.708552e-07
1.455531e-06
1.455531e-06
6.779328e-07
-7.434269e-08
6.779328e-07
-7.434269e-08
8.797043e-07
8.797043e-07
-1.188720e-06
-1.188720e-06
-6.129186e-07
3.042727e-07
-6.129186e-07
3.042727e-07
-1.582540e-06
-1.582540e-06
-7.254818e-07
-7.254818e-07
-6.235094e-07
-7.895973e-07
-6.235094e-07
-7.895973e-07
-8.180511e-07
-8.180511e-07
-6.139930e-07
-6.139930e-07
-5.564882e-07
-7.093159e-08
-5.564882e-07
-7.093159e-08
-6.805577e-07
-6.805577e-07
-5.119584e-07
-5.119584e-07
-9.291536e-07
-9.493625e-07
-9.291536e-07
-9.493625e-07
8.849514e-07
8.849514e-07
1.688978e-06
1.688978e-06
-2.773729e-08
-6.916019e-07
-2.773729e-08
-6.916019e-07
-1.650614e-06
-3.424352e-06
-1.650614e-06
-3.424352e-06
-6.259058e-07
-6.259058e-07
-1.257402e-06
-3.524472e-06
-1.257402e-06
-3.524472e-06
-6.501111e-06
-6.501111e-06
-2.346567e-07
-2.346567e-07
-9.473416e-07
-9.473416e-07
-3.755881e-07
3.382435e-07
-3.755881e-07
3.382435e-07
-8.522755e-07
-8.522755e-07
-1.989671e-07
-1.989671e-07
-1.791151e-07
-8.385412e-07
-1.791151e-07
-8.385412e-07
-6.449957e-07
-6.449957e-07
1.887431e-07
1.887431e-07
-5.259394e-08
-8.919938e-07
-5.259394e-08
-8.919938e-07
7.752877e-07
7.752877e-07
5.160101e-07
5.160101e-07
1.870641e-06
2.026074e-06
1.870641e-06
2.026074e-06
2.983542e-07
2.983542e-07
-1.240036e-07
-1.240036e-07
-7.758174e-08
3.291540e-08
-7.758174e-08
3.291540e-08
-3.187507e-07
-3.187507e-07
-9.149339e-07
-9.149339e-07
-3.762055e-07
3.643959e-08
-3.762055e-07
3.643959e-08
-1.696675e-06
-1.696675e-06
-1.959606e-06
-1.959606e-06
-3.692922e-06
-1.995561e-06
-3.692922e-06
-1.995561e-06
-2.936988e-06
-7.265973e-06
-2.936988e-06
-7.265973e-06
-7.145208e-07
-7.145208e-07
3.713873e-07
-2.265847e-06
3.713873e-07
-2.265847e-06
-5.576583e-06
-5.576583e-06
1.771330e-07
1.771330e-07
1.001829e-06
1.001829e-06
1.848471e-06
1.554372e-06
1.848471e-06
1.554372e-06
1.011833e-06
1.011833e-06
3.064048e-07
3.064048e-07
7.018846e-07
1.498383e-06
7.018846e-07
1.498383e-06
-1.122139e-06
-1.122139e-06
-4.530992e-07
-4.530992e-07
3.208148e-07
-2.486831e-07
3.208148e-07
-2.486831e-07
1.316532e-06
1.316532e-06
1.127536e-06
1.127536e-06
-5.135404e-07
3.353366e-07
-5.135404e-07
3.353366e-07
7.049611e-07
7.049611e-07
2.330592e-07
2.330592e-07
7.263195e-07
7.149173e-07
7.263195e-07
7.149173e-07
-3.108905e-07
-3.108905e-07
-1.207705e-07
-1.207705e-07
-3.277449e-07
-1.483529e-07
-3.277449e-07
-1.483529e-07
-2.020311e-06
-2.020311e-06
-3.743353e-06
-3.743353e-06
-2.198878e-06
-1.631777e-06
-2.198878e-06
-1.631777e-06
-2.628291e-06
-5.037839e-06
-2.628291e-06
-5.037839e-06
2.581916e-07
2.581916e-07
-5.047252e-07
-2.970361e-06
-5.047252e-07
-2.970361e-06
-4.493809e-06
-4.493809e-06
1.909301e-06
1.909301e-06
1.226803e-06
1.226803e-06
-9.712948e-07
3.926771e-07
-9.712948e-07
3.926771e-07
4.768018e-07
4.768018e-07
1.696121e-07
1.696121e-07
-7.919110e-07
-1.152913e-06
-7.919110e-07
-1.152913e-06
9.665976e-08
9.665976e-08
6.690334e-07
6.690334e-07
2.071406e-07
-7.021200e-07
2.071406e-07
-7.021200e-07
6.411024e-07
6.411024e-07
-1.060890e-06
-1.060890e-06
-2.721598e-08
1.059046e-06
-2.721598e-08
1.059046e-06
-4.555439e-07
-4.555439e-07
3.430118e-07
3.430118e-07
-7.510337e-08
-4.804328e-07
-7.510337e-08
-4.804328e-07
-9.383875e-07
-9.383875e-07
-5.014089e-07
-5.014089e-07
1.663563e-08
-3.341188e-07
1.663563e-08
-3.341188e-07
3.783128e-08
3.783128e-08
-1.502187e-07
-1.502187e-07
4.062455e-07
3.341325e-07
4.062455e-07
3.341325e-07
-2.579224e-06
-3.983137e-06
-2.579224e-06
-3.983137e-06
-7.603926e-07
-7.603926e-07
6.292145e-07
-1.148660e-06
6.292145e-07
-1.148660e-06
-2.241477e-06
-2.241477e-06
-8.444350e-07
-8.444350e-07
-1.892940e-06
-1.892940e-06
-7.465306e-07
-8.666131e-08
-7.465306e-07
-8.666131e-08
-2.342506e-06
-2.342506e-06
-1.639939e-06
-1.639939e-06
-6.045444e-07
-7.127002e-07
-6.045444e-07
-7.127002e-07
-6.174788e-07
-6.174788e-07
8.755214e-09
8.755214e-09
-1.067663e-07
3.519591e-07
-1.067663e-07
3.519591e-07
2.694264e-07
2.694264e-07
3.226410e-07
3.226410e-07
2.104205e-07
-9.222890e-07
2.104205e-07
-9.222890e-07
3.375762e-07
3.375762e-07
-1.471172e-07
-1.471172e-07
-2.465035e-07
8.542239e-07
-2.465035e-07
8.542239e-07
-1.805381e-07
-1.805381e-07
7.306269e-08
7.306269e-08
-7.169983e-07
-9.468429e-07
-7.169983e-07
-9.468429e-07
-1.800979e-07
-1.800979e-07
-1.860444e-07
-1.860444e-07
-2.390916e-07
-4.094921e-07
-2.390916e-07
-4.094921e-07
9.274908e-07
1.312644e-06
1.259186e-06
1.318389e-06
9.274908e-07
1.312644e-06
1.259186e-06
1.318389e-06
-1.413728e-07
-6.249344e-07
-1.413728e-07
-6.249344e-07
-7.755601e-08
-4.686479e-07
-7.755601e-08
-4.686479e-07
2.472663e-08
2.472663e-08
-1.422861e-06
-1.561824e-06
-1.422861e-06
-1.561824e-06
1.675860e-07
1.675860e-07
-8.422740e-07
-4.527429e-07
-8.422740e-07
-4.527429e-07
-3.322375e-08
-3.322375e-08
2.092412e-06
1.835428e-06
2.092412e-06
1.835428e-06
-4.014328e-07
-4.014328e-07
2.573237e-06
3.235000e-06
2.573237e-06
3.235000e-06
5.237116e-07
5.237116e-07
1.203092e-06
-3.370399e-07
1.203092e-06
-3.370399e-07
2.166709e-06
2.166709e-06
-3.586916e-07
3.719106e-07
-3.586916e-07
3.719106e-07
-5.391250e-07
-5.391250e-07
1.118685e-06
4.395927e-07
1.118685e-06
4.395927e-07
-1.152711e-07
-1.152711e-07
1.673509e-06
2.650294e-06
1.673509e-06
2.650294e-06
2.312739e-06
2.312739e-06
2.520059e-06
1.873476e-06
2.520059e-06
1.873476e-06
1.083442e-06
1.083442e-06
-1.430601e-06
-1.280342e-06
-1.430601e-06
-1.280342e-06
-2.449211e-07
-2.449211e-07
-2.035182e-06
-1.676196e-07
-2.035182e-06
-1.676196e-07
-2.347102e-06
-2.347102e-06
-5.054327e-06
-5.037149e-06
-5.054327e-06
-5.037149e-06
-1.752006e-06
-1.752006e-06
-1.372606e-06
-9.318522e-07
-1.372606e-06
-9.318522e-07
-1.252715e-07
-5.220433e-07
-1.252715e-07
-5.220433e-07
-1.005730e-06
1.263910e-07
-1.005730e-06
1.263910e-07
1.656544e-06
4.475713e-07
1.656544e-06
4.475713e-07
-1.279460e-06
-1.279460e-06
2.040138e-07
2.040138e-07
-1.370723e-06
-1.370723e-06
-1.288582e-06
-7.097512e-07
-1.288582e-06
-7.097512e-07
-2.314845e-06
-2.314845e-06
-2.452242e-06
-2.452242e-06
-1.029286e-06
-1.029286e-06
-3.394980e-07
-3.394980e-07
-1.050270e-06
3.707405e-08
-1.050270e-06
3.707405e-08
-1.131163e-06
-1.131163e-06
-1.215012e-06
-1.215012e-06
5.459550e-07
5.459550e-07
-2.473511e-06
-2.473511e-06
-2.794892e-06
-1.293327e-06
-2.794892e-06
-1.293327e-06
-2.526810e-06
-2.526810e-06
-1.179405e-06
-1.179405e-06
-1.157605e-06
-1.157605e-06
-9.472488e-07
-9.472488e-07
5.377490e-07
1.739933e-06
5.377490e-07
1.739933e-06
-4.681368e-07
-4.681368e-07
-2.307752e-06
-2.307752e-06
-4.085386e-07
-4.085386e-07
-1.915465e-06
-1.915465e-06
-7.319148e-07
-8.277393e-07
-7.319148e-07
-8.277393e-07
-2.518293e-06
-2.518293e-06
-1.256426e-06
-1.256426e-06
2.292539e-08
2.292539e-08
1.238464e-06
1.238464e-06
1.657950e-06
-1.910163e-06
1.657950e-06
-1.910163e-06
-8.257050e-07
-8.257050e-07
-1.533848e-06
-1.533848e-06
-1.171469e-06
-1.171469e-06
-5.100203e-07
-5.100203e-07
-3.434372e-07
7.668533e-07
-3.434372e-07
7.668533e-07
-4.610632e-06
-4.610632e-06
-3.637584e-06
-3.637584e-06
2.494759e-07
2.494759e-07
-7.201308e-07
-7.201308e-07
4.821866e-08
-2.515316e-07
4.821866e-08
-2.515316e-07
-1.301512e-06
-1.301512e-06
4.427179e-07
4.427179e-07
2.831367e-08
-5.187948e-07
2.831367e-08
-5.187948e-07
1.584215e-08
1.584215e-08
-7.505697e-07
-7.505697e-07
-2.723230e-07
1.102437e-07
-2.723230e-07
1.102437e-07
1.113516e-07
1.113516e-07
3.716665e-07
3.716665e-07
1.116514e-07
-2.600443e-08
1.116514e-07
-2.600443e-08
4.617493e-08
4.617493e-08
-8.568380e-07
-8.568380e-07
-1.614159e-06
3.118739e-07
-1.614159e-06
3.118739e-07
1.035175e-08
1.035175e-08
5.913733e-07
5.913733e-07
8.969676e-08
-1.614870e-06
8.969676e-08
-1.614870e-06
-3.311848e-07
-3.311848e-07
-8.132149e-07
-8.132149e-07
-1.634285e-06
-1.314897e-06
-1.634285e-06
-1.314897e-06
-3.111790e-07
-3.111790e-07
-1.103286e-06
-1.103286e-06
7.182338e-07
-4.343135e-07
7.182338e-07
-4.343135e-07
-1.398553e-06
-1.398553e-06
9.720863e-08
9.720863e-08
1.082005e-06
9.034284e-07
1.082005e-06
9.034284e-07
-2.036793e-06
-2.036793e-06
-9.059720e-07
-9.059720e-07
-1.986163e-07
-1.123363e-06
-1.986163e-07
-1.123363e-06
2.044985e-06
2.044985e-06
2.331197e-06
2.331197e-06
1.218801e-06
1.859748e-06
1.218801e-06
1.859748e-06
1.035409e-06
1.035409e-06
1.080516e-06
1.080516e-06
8.038300e-07
-3.184999e-07
8.038300e-07
-3.184999e-07
3.589971e-07
3.589971e-07
2.819869e-07
2.819869e-07
3.002639e-08
6.306563e-07
3.002639e-08
6.306563e-07
-9.899040e-07
-9.899040e-07
-1.452533e-06
-1.452533e-06
-8.716922e-07
-4.357154e-07
-8.716922e-07
-4.357154e-07
2.651130e-07
2.651130e-07
1.128267e-06
1.128267e-06
7.445449e-07
6.624685e-07
7.445449e-07
6.624685e-07
1.148921e-06
1.148921e-06
3.475827e-07
3.475827e-07
1.022936e-06
1.636659e-06
1.022936e-06
1.636659e-06
9.244996e-07
9.244996e-07
-4.567783e-07
-4.567783e-07
-1.562022e-06
5.249729e-07
-1.562022e-06
5.249729e-07
-3.973584e-07
-3.973584e-07
-3.360016e-07
-3.360016e-07
-1.442045e-06
-1.161092e-06
-1.442045e-06
-1.161092e-06
-9.057345e-07
-1.149830e-06
-9.057345e-07
-1.149830e-06
-2.079591e-06
-1.931919e-06
-2.079591e-06
-1.931919e-06
-7.771923e-07
-1.655933e-07
-7.771923e-07
-1.655933e-07
-2.020408e-06
-6.784523e-07
-2.020408e-06
-6.784523e-07
-2.526195e-06
2.437393e-07
-2.526195e-06
2.437393e-07
-3.576147e-07
-5.747512e-07
-3.576147e-07
-5.747512e-07
-2.109121e-06
1.631941e-07
-2.109121e-06
1.631941e-07
-1.046578e-06
1.483419e-07
-1.046578e-06
1.483419e-07
-6.256813e-08
-8.073926e-07
-6.256813e-08
-8.073926e-07
-2.824179e-07
4.418929e-07
-2.824179e-07
4.418929e-07
-2.173627e-07
1.889748e-07
-2.173627e-07
1.889748e-07
1.208095e-06
8.685432e-07
1.208095e-06
8.685432e-07
-9.670389e-07
-1.764388e-07
-9.670389e-07
-1.764388e-07
-1.938981e-07
2.493282e-07
-1.938981e-07
2.493282e-07
3.888592e-07
1.492917e-06
3.888592e-07
1.492917e-06
-2.081962e-07
-2.461047e-07
-2.081962e-07
-2.461047e-07
2.198383e-07
2.198383e-07
-2.403121e-07
-2.403121e-07
-2.679418e-07
-2.679418e-07
-3.781699e-08
-5.339142e-07
-3.781699e-08
-5.339142e-07
-2.780082e-08
-2.780082e-08
-2.032115e-07
-2.032115e-07
7.200391e-07
1.018795e-06
7.200391e-07
1.018795e-06
-1.222572e-06
-1.222572e-06
-3.614112e-07
-3.614112e-07
-5.430492e-07
5.556977e-08
-5.430492e-07
5.556977e-08
2.777775e-07
2.777775e-07
6.161408e-07
6.161408e-07
-2.668572e-07
-2.896710e-07
-2.668572e-07
-2.896710e-07
5.227247e-07
5.227247e-07
6.307579e-07
6.307579e-07
1.067383e-06
4.754630e-08
1.067383e-06
4.754630e-08
1.066582e-06
1.066582e-06
7.940803e-07
7.940803e-07
-2.469766e-07
-2.469766e-07
2.484382e-07
2.484382e-07
8.153586e-07
5.129961e-07
8.153586e-07
5.129961e-07
4.123063e-07
4.123063e-07
5.970676e-07
5.970676e-07
7.378848e-08
-2.812254e-08
7.378848e-08
-2.812254e-08
7.302470e-07
7.302470e-07
-8.755627e-08
-8.755627e-08
7.318943e-07
4.542066e-07
7.318943e-07
4.542066e-07
2.572152e-07
2.572152e-07
8.583659e-08
8.583659e-08
6.679095e-07
8.407522e-07
6.679095e-07
8.407522e-07
9.287901e-07
9.287901e-07
9.871507e-07
9.871507e-07
3.606623e-07
2.024430e-07
3.606623e-07
2.024430e-07
3.414083e-07
3.414083e-07
9.036512e-07
9.036512e-07
5.374391e-07
5.374391e-07
3.233817e-07
3.233817e-07
-5.088335e-07
5.680320e-07
-5.088335e-07
5.680320e-07
-4.762916e-07
-4.762916e-07
-7.762839e-07
-7.762839e-07
-6.651852e-07
-8.307764e-07
-6.651852e-07
-8.307764e-07
-4.346954e-07
-4.346954e-07
1.716944e-07
1.716944e-07
-7.037374e-07
-1.735376e-06
-7.037374e-07
-1.735376e-06
8.473081e-09
8.473081e-09
-1.634095e-07
-1.634095e-07
-1.427934e-06
-7.894761e-08
-1.427934e-06
-7.894761e-08
-5.169741e-07
-5.169741e-07
-1.283927e-07
-1.283927e-07
-3.496657e-07
-1.016122e-06
-3.496657e-07
-1.016122e-06
1.078776e-06
1.078776e-06
-1.167801e-07
-1.167801e-07
4.174258e-07
4.174258e-07
4.462038e-07
4.462038e-07
4.573468e-07
4.981450e-07
4.573468e-07
4.981450e-07
6.703263e-07
6.703263e-07
5.167517e-08
5.167517e-08
7.038532e-07
8.084374e-07
7.038532e-07
8.084374e-07
-5.907223e-07
-5.907223e-07
-5.354389e-07
-5.354389e-07
-4.326956e-07
2.781896e-07
-4.326956e-07
2.781896e-07
-6.766281e-07
-6.766281e-07
-2.360025e-07
-2.360025e-07
1.329970e-06
-3.187602e-07
1.329970e-06
-3.187602e-07
-1.042917e-07
-1.042917e-07
-6.790704e-07
-6.790704e-07
-3.088942e-07
1.247224e-06
-3.088942e-07
1.247224e-06
-9.232779e-07
-9.232779e-07
-9.708928e-08
-9.708928e-08
8.489729e-07
8.489729e-07
6.067066e-07
6.067066e-07
1.888816e-06
1.622236e-06
1.888816e-06
1.622236e-06
2.153880e-07
2.153880e-07
4.635753e-07
4.635753e-07
-1.101875e-07
8.910429e-07
-1.101875e-07
8.910429e-07
2.443110e-07
2.443110e-07
-1.751388e-07
-1.751388e-07
9.074397e-08
2.809307e-07
9.074397e-08
2.809307e-07
1.426219e-07
1.426219e-07
5.147639e-07
5.147639e-07
-8.607504e-07
-6.980113e-07
-8.607504e-07
-6.980113e-07
1.711720e-07
1.711720e-07
-1.894307e-07
-1.894307e-07
-9.144304e-07
-1.077569e-06
-9.144304e-07
-1.077569e-06
1.998349e-07
1.998349e-07
-5.325072e-07
-5.325072e-07
1.217765e-06
1.217765e-06
1.568282e-06
1.568282e-06
-5.430091e-08
1.809699e-07
-5.430091e-08
1.809699e-07
1.369786e-06
1.369786e-06
3.400820e-07
3.400820e-07
6.661866e-07
1.626845e-07
6.661866e-07
1.626845e-07
-2.888714e-07
-2.888714e-07
-2.849613e-07
-2.849613e-07
6.365445e-07
3.097119e-07
6.365445e-07
3.097119e-07
-5.771686e-07
-5.771686e-07
-9.715645e-07
-9.715645e-07
7.709788e-08
8.646533e-07
7.709788e-08
8.646533e-07
-7.600464e-07
-7.600464e-07
-3.905541e-07
-3.905541e-07
4.300555e-07
9.097179e-08
4.300555e-07
9.097179e-08
-3.067907e-07
-3.067907e-07
-2.802536e-07
-2.802536e-07
-1.691381e-06
-1.691381e-06
-1.478659e-06
-1.478659e-06
-1.894228e-06
-3.498841e-06
-1.894228e-06
-3.498841e-06
-9.415479e-07
-9.415479e-07
-1.345831e-07
-1.345831e-07
-8.214224e-07
-1.145660e-06
-8.214224e-07
-1.145660e-06
6.475798e-07
6.475798e-07
1.494434e-06
1.494434e-06
1.211334e-06
6.330542e-07
1.211334e-06
6.330542e-07
9.673786e-07
9.673786e-07
-1.946349e-07
-1.946349e-07
-1.161941e-06
-1.443720e-07
-1.161941e-06
-1.443720e-07
-4.493393e-07
-4.493393e-07
-1.555011e-07
-1.555011e-07
-5.601830e-07
-1.312218e-06
-5.601830e-07
-1.312218e-06
-2.642802e-07
-2.642802e-07
3.103992e-07
3.103992e-07
9.424313e-08
9.424313e-08
-7.506694e-07
-7.506694e-07
-2.209035e-06
8.676803e-09
-2.209035e-06
8.676803e-09
-2.368804e-06
-2.368804e-06
-3.558356e-06
-3.558356e-06
-3.898388e-06
-3.859285e-06
-3.898388e-06
-3.859285e-06
-4.874077e-06
-4.874077e-06
-7.261650e-06
-7.261650e-06
-3.797042e-06
-4.209345e-06
-3.797042e-06
-4.209345e-06
-7.437014e-06
-7.437014e-06
-6.733918e-06
-6.733918e-06
-4.418110e-06
-3.855338e-06
-4.418110e-06
-3.855338e-06
-6.393756e-06
-6.393756e-06
-5.818125e-06
-5.818125e-06
-4.204333e-06
-4.244568e-06
-4.204333e-06
-4.244568e-06
-4.090340e-06
-4.090340e-06
-1.537648e-06
-1.537648e-06
-4.369133e-07
-2.835815e-06
-4.369133e-07
-2.835815e-06
-1.329732e-06
-1.329732e-06
-3.779835e-06
-3.779835e-06
-4.393563e-06
-4.149148e-06
-4.393563e-06
-4.149148e-06
-4.180713e-06
-4.180713e-06
-3.349078e-06
-3.349078e-06
-3.576829e-06
-4.795269e-06
-3.576829e-06
-4.795269e-06
-2.280641e-06
-2.280641e-06
-2.825315e-07
-2.825315e-07
-1.298004e-06
-2.318907e-06
-1.298004e-06
-2.318907e-06
-8.122890e-08
-8.122890e-08
-1.025521e-06
-1.025521e-06
-9.199299e-07
-4.146197e-07
-9.199299e-07
-4.146197e-07
-8.536345e-07
-8.536345e-07
-7.492152e-07
-7.492152e-07
7.138286e-07
-6.906571e-08
7.138286e-07
-6.906571e-08
-7.565314e-07
-7.565314e-07
1.084309e-06
1.084309e-06
1.155588e-06
3.346320e-07
1.155588e-06
3.346320e-07
-5.905543e-06
-5.905543e-06
-5.334824e-06
-5.334824e-06
-6.206732e-06
-5.897432e-06
-6.206732e-06
-5.897432e-06
-5.189377e-06
-5.189377e-06
-5.694923e-06
-5.694923e-06
-5.063068e-06
-4.132777e-06
-5.063068e-06
-4.132777e-06
-5.429688e-06
-5.429688e-06
-4.556677e-06
-4.556677e-06
-5.758627e-06
-7.139201e-06
-5.758627e-06
-7.139201e-06
-3.780694e-06
-3.780694e-06
-2.489045e-06
-2.489045e-06
-3.085987e-06
-3.711531e-06
-3.085987e-06
-3.711531e-06
-1.137195e-06
-1.137195e-06
1.582606e-06
1.582606e-06
1.464321e-06
-1.272566e-06
1.464321e-06
-1.272566e-06
2.080801e-06
2.080801e-06
6.696964e-07
6.696964e-07
1.228632e-06
2.124401e-06
1.228632e-06
2.124401e-06
-3.262009e-06
-3.262009e-06
-4.565912e-06
-4.565912e-06
-8.558388e-07
9.602616e-07
-8.558388e-07
9.602616e-07
-3.415672e-06
-3.415672e-06
-3.031064e-06
-3.031064e-06
-3.635692e-08
-1.615530e-06
-3.635692e-08
-1.615530e-06
-4.436382e-06
-4.436382e-06
-3.995982e-06
-3.995982e-06
7.445792e-07
2.798176e-07
7.445792e-07
2.798176e-07
-1.613665e-06
-1.613665e-06
-5.900675e-07
-5.900675e-07
3.117369e-06
2.089677e-06
3.117369e-06
2.089677e-06
-1.797442e-07
-1.797442e-07
4.671607e-07
4.671607e-07
2.220476e-06
2.116189e-06
2.220476e-06
2.116189e-06
1.428352e-06
1.428352e-06
1.981049e-06
1.981049e-06
3.919505e-06
3.614608e-06
3.919505e-06
3.614608e-06
2.582798e-06
2.582798e-06
2.028609e-06
2.028609e-06
1.801272e-06
1.627552e-06
1.801272e-06
1.627552e-06
1.448346e-06
1.448346e-06
2.017115e-06
2.017115e-06
-1.284404e-06
2.187261e-07
-1.284404e-06
2.187261e-07
4.010576e-06
4.010576e-06
5.307971e-06
5.307971e-06
3.003502e-06
5.523665e-07
3.003502e-06
5.523665e-07
5.038222e-06
5.038222e-06
4.840570e-06
4.840570e-06
3.502560e-06
2.686609e-06
3.502560e-06
2.686609e-06
4.723468e-06
4.723468e-06
4.083273e-06
4.083273e-06
2.330539e-06
3.986691e-06
2.330539e-06
3.986691e-06
4.281415e-06
4.281415e-06
4.313704e-06
4.313704e-06
1.884234e-06
1.734831e-06
1.884234e-06
1.734831e-06
-5.094581e-07
-5.094581e-07
-1.286514e-06
-1.286514e-06
-5.897446e-06
-3.960639e-06
-5.897446e-06
-3.960639e-06
-3.459298e-06
-3.459298e-06
-4.661125e-06
-4.661125e-06
-7.017594e-06
-5.759464e-06
-7.017594e-06
-5.759464e-06
-5.252792e-06
-5.252792e-06
-4.288759e-06
-4.288759e-06
-9.813252e-06
-8.846408e-06
-9.813252e-06
-8.846408e-06
-2.650342e-06
-2.650342e-06
-1.955868e-06
-1.955868e-06
-7.351199e-06
-8.995405e-06
-7.351199e-06
-8.995405e-06
-8.169102e-07
-8.169102e-07
4.367833e-07
4.367833e-07
-2.731570e-07
-4.863101e-06
-2.731570e-07
-4.863101e-06
4.997370e-07
4.997370e-07
-1.066554e-08
-1.066554e-08
5.278430e-07
1.710930e-06
5.278430e-07
1.710930e-06
-4.291831e-06
-4.291831e-06
-5.638422e-06
-5.638422e-06
-2.041121e-06
-1.082345e-06
-2.041121e-06
-1.082345e-06
-5.943832e-06
-5.943832e-06
-7.388040e-06
-7.388040e-06
-4.808887e-06
-3.830848e-06
-4.808887e-06
-3.830848e-06
-9.723956e-06
-9.723956e-06
-1.142598e-05
-1.142598e-05
-7.604440e-06
-6.104466e-06
-7.604440e-06
-6.104466e-06
-1.111218e-05
-1.111218e-05
-8.952233e-06
-8.952233e-06
-5.572696e-06
-6.942095e-06
-5.572696e-06
-6.942095e-06
-4.969978e-06
-4.969978e-06
1.254697e-07
1.254697e-07
4.972447e-07
-3.258623e-06
4.972447e-07
-3.258623e-06
2.843533e-06
2.843533e-06
1.655948e-06
1.655948e-06
1.073700e-06
2.039012e-06
1.073700e-06
2.039012e-06
2.148693e-06
2.148693e-06
1.777782e-06
1.777782e-06
2.699094e-06
2.859271e-06
2.699094e-06
2.859271e-06
1.005826e-06
1.005826e-06
2.987852e-07
2.987852e-07
5.748174e-06
4.038537e-06
5.748174e-06
4.038537e-06
-3.110345e-07
-3.110345e-07
-1.376632e-06
-1.376632e-06
2.261235e-06
5.000751e-06
2.261235e-06
5.000751e-06
-2.892673e-06
-2.892673e-06
-3.642664e-06
-3.642664e-06
-3.714241e-06
-1.319054e-06
-3.714241e-06
-1.319054e-06
-3.007923e-06
-3.007923e-06
-1.061494e-06
-1.061494e-06
-2.373728e-06
-3.524923e-06
-2.373728e-06
-3.524923e-06
-4.132881e-07
-4.132881e-07
-1.035183e-06
-1.035183e-06
-2.893817e-06
-1.936939e-06
-2.893817e-06
-1.936939e-06
2.542447e-06
2.542447e-06
1.540866e-06
1.540866e-06
3.276851e-06
4.139625e-06
3.276851e-06
4.139625e-06
3.922215e-06
3.922215e-06
6.191215e-06
6.191215e-06
4.378810e-06
3.180994e-06
4.378810e-06
3.180994e-06
5.979267e-06
5.979267e-06
3.138932e-06
3.138932e-06
4.608539e-06
5.677474e-06
4.608539e-06
5.677474e-06
-6.779330e-07
-6.779330e-07
-1.941650e-06
-1.941650e-06
-1.589190e-06
1.232897e-06
-1.589190e-06
1.232897e-06
-2.711607e-06
-2.711607e-06
-2.586784e-06
-2.586784e-06
-2.148234e-06
-1.308393e-06
-2.148234e-06
-1.308393e-06
-3.241505e-06
-3.241505e-06
-3.768095e-06
-3.768095e-06
-3.665293e-06
-4.596832e-06
-3.665293e-06
-4.596832e-06
3.540296e-06
3.540296e-06
3.643425e-06
3.643425e-06
-1.258714e-06
-2.347626e-06
-1.258714e-06
-2.347626e-06
2.510168e-06
2.510168e-06
3.585340e-06
3.585340e-06
1.985478e-06
1.263234e-06
1.985478e-06
1.263234e-06
6.841263e-06
6.841263e-06
7.714715e-06
7.714715e-06
7.741311e-06
4.945521e-06
7.741311e-06
4.945521e-06
3.427868e-06
3.427868e-06
-1.843094e-06
-1.843094e-06
-4.782333e-06
2.455570e-06
-4.782333e-06
2.455570e-06
3.696014e-07
3.696014e-07
2.112949e-06
2.112949e-06
5.897572e-06
-1.599214e-06
5.897572e-06
-1.599214e-06
-1.012397e-06
-1.012397e-06
1.844971e-06
1.844971e-06
7.750088e-06
5.845579e-06
7.750088e-06
5.845579e-06
-6.119723e-06
-6.119723e-06
-7.016148e-06
-7.016148e-06
-9.930985e-06
-3.373138e-06
-9.930985e-06
-3.373138e-06
-4.176200e-06
-4.176200e-06
-4.366867e-06
-4.366867e-06
-1.547818e-05
-1.404958e-05
-1.547818e-05
-1.404958e-05
-4.805480e-06
-4.805480e-06
-2.207877e-06
-2.207877e-06
-1.419483e-05
-1.743839e-05
-1.419483e-05
-1.743839e-05
-1.571742e-06
-1.571742e-06
-9.174962e-06
-9.174962e-06
-1.297141e-05
-7.205458e-06
-1.297141e-05
-7.205458e-06
-1.667858e-05
-1.667858e-05
-6.871272e-06
-6.871272e-06
-2.554946e-05
-3.150745e-05
-2.554946e-05
-3.150745e-05
8.085909e-06
8.085909e-06
4.212472e-06
4.212472e-06
-9.493688e-06
1.200893e-05
-9.493688e-06
1.200893e-05
3.722167e-07
3.722167e-07
-1.054645e-05
-1.054645e-05
-1.132854e-05
9.287114e-07
-1.132854e-05
9.287114e-07
-2.099057e-05
-2.099057e-05
-2.652556e-05
-2.652556e-05
-2.680681e-05
-2.248495e-05
-2.680681e-05
-2.248495e-05
-2.172296e-05
-2.172296e-05
-1.857906e-05
-1.857906e-05
-1.713573e-05
-1.814851e-05
-1.713573e-05
-1.814851e-05
-1.913882e-05
-1.913882e-05
-1.441355e-05
-1.441355e-05
-1.314868e-05
-2.930102e-05
-1.314868e-05
-2.930102e-05
-1.423565e-05
-1.423565e-05
-1.295403e-05
-1.295403e-05
2.013071e-05
2.223459e-05
2.013071e-05
2.223459e-05
3.456476e-05
3.456476e-05
-3.463404e-06
-3.463404e-06
1.772779e-05
4.071590e-05
1.772779e-05
4.071590e-05
-5.278156e-06
-5.278156e-06
-1.663023e-05
-1.663023e-05
-2.415437e-05
-1.660139e-05
-2.415437e-05
-1.660139e-05
-2.287822e-05
-2.287822e-05
-1.691449e-05
-1.691449e-05
-8.225367e-06
-2.121622e-05
-8.225367e-06
-2.121622e-05
-1.189330e-05
-1.189330e-05
-1.734638e-05
-1.734638e-05
-8.522067e-06
-5.810329e-06
-8.522067e-06
-5.810329e-06
-1.091779e-05
-1.091779e-05
2.550178e-05
2.550178e-05
4.365964e-05
2.104226e-05
4.365964e-05
2.104226e-05
4.275089e-05
4.275089e-05
-1.145677e-06
-1.145677e-06
-4.670248e-05
9.526261e-06
-4.670248e-05
9.526261e-06
-4.425493e-05
-4.425493e-05
-3.681444e-05
-3.681444e-05
-9.068390e-05
-1.094611e-04
-9.068390e-05
-1.094611e-04
-2.031764e-05
-2.031764e-05
-2.380454e-05
-2.380454e-05
-1.284630e-05
-1.319626e-05
-1.284630e-05
-1.319626e-05
-1.724875e-05
-1.724875e-05
-8.451155e-06
-8.451155e-06
-1.604656e-05
-1.577223e-05
-1.604656e-05
-1.577223e-05
-5.093444e-06
-5.093444e-06
1.342037e-05
1.342037e-05
3.356810e-05
-3.298678e-06
3.356810e-05
-3.298678e-06
4.395530e-05
4.395530e-05
2.249862e-05
2.249862e-05
-8.869132e-06
5.369281e-05
-8.869132e-06
5.369281e-05
-6.315489e-05
-6.315489e-05
-1.483321e-04
-1.483321e-04
-1.884912e-04
-1.055856e-04
-1.884912e-04
-1.055856e-04
-2.762056e-04
-2.762056e-04
-2.326468e-04
-2.326468e-04
-3.741861e-04
-4.309043e-04
-3.741861e-04
-4.309043e-04
-3.946777e-06
-3.946777e-06
-6.422909e-06
-6.422909e-06
-4.133512e-06
1.911902e-06
-4.133512e-06
1.911902e-06
-1.646498e-05
-1.646498e-05
-1.404693e-05
-1.404693e-05
8.492141e-06
-9.756704e-06
8.492141e-06
-9.756704e-06
1.484152e-05
1.484152e-05
5.346665e-05
5.346665e-05
8.944018e-05
6.317319e-05
8.944018e-05
6.317319e-05
-1.704260e-05
-1.704260e-05
-2.264252e-04
-2.264252e-04
-6.756162e-04
-1.537896e-04
-6.756162e-04
-1.537896e-04
-6.235314e-04
-6.235314e-04
-1.902046e-03
-1.902046e-03
-1.074260e-02
-3.757898e-03
-1.074260e-02
-3.757898e-03
-3.079943e-03
-3.079943e-03
-1.738134e-03
-1.738134e-03
-5.574680e-03
-1.291374e-02
-5.574680e-03
-1.291374e-02
2.112523e-05
2.112523e-05
-1.809296e-05
-1.809296e-05
6.740283e-06
6.467101e-05
6.740283e-06
6.467101e-05
-3.531496e-05
-3.531496e-05
5.309204e-05
5.309204e-05
4.510210e-05
-6.806133e-05
4.510210e-05
-6.806133e-05
2.158828e-04
2.158828e-04
2.669080e-04
2.669080e-04
8.009576e-04
3.842670e-04
8.009576e-04
3.842670e-04
-2.395210e-04
-2.395210e-04
-2.197085e-03
-2.197085e-03
1.207036e-03
1.174855e-03
1.207036e-03
1.174855e-03
-7.842967e-03
-7.842967e-03
-1.819505e-02
-1.819505e-02
-6.562953e-03
-1.238722e-04
-6.562953e-03
-1.238722e-04
-2.395940e-02
-2.395940e-02
-1.316460e-02
-1.316460e-02
-1.529787e-02
-2.041830e-02
-1.529787e-02
-2.041830e-02
1.188047e-04
1.188047e-04
8.688880e-05
8.688880e-05
1.427149e-04
1.651294e-04
1.427149e-04
1.651294e-04
-1.017259e-04
-1.017259e-04
-5.039904e-05
-5.039904e-05
-1.643599e-04
-1.474227e-04
-1.643599e-04
-1.474227e-04
4.499439e-04
4.499439e-04
1.340583e-03
1.340583e-03
1.147681e-03
3.228737e-04
1.147681e-03
3.228737e-04
3.008159e-03
3.008159e-03
6.385448e-03
6.385448e-03
3.117874e-03
2.253404e-03
3.117874e-03
2.253404e-03
8.446691e-03
8.446691e-03
4.369140e-03
4.369140e-03
-8.475609e-03
-1.110611e-04
-8.475609e-03
-1.110611e-04
-1.264947e-02
-1.264947e-02
-1.209195e-02
-1.209195e-02
-1.492555e-02
-2.066783e-02
-1.492555e-02
-2.066783e-02
1.142977e-04
1.142977e-04
1.244244e-04
1.244244e-04
7.923605e-06
3.965376e-05
7.923605e-06
3.965376e-05
-6.533332e-05
-6.533332e-05
-1.396495e-04
-1.396495e-04
1.084503e-05
-4.467559e-05
1.084503e-05
-4.467559e-05
7.172715e-05
7.172715e-05
4.524710e-04
4.524710e-04
2.871400e-04
1.783150e-04
2.871400e-04
1.783150e-04
5.597257e-04
5.597257e-04
-7.076396e-04
-7.076396e-04
-7.006305e-04
-8.858190e-07
-7.006305e-04
-8.858190e-07
-6.911084e-03
-6.911084e-03
-1.741623e-02
-1.741623e-02
-8.792475e-03
-3.616755e-03
-8.792475e-03
-3.616755e-03
-2.217723e-02
-2.217723e-02
-1.160602e-02
-1.160602e-02
-3.518340e-03
-9.541948e-03
-3.518340e-03
-9.541948e-03
1.129568e-05
1.129568e-05
-4.559303e-05
-4.559303e-05
-1.878260e-05
-1.644322e-05
-1.878260e-05
-1.644322e-05
-7.181788e-05
-7.181788e-05
1.710318e-05
1.710318e-05
-5.482197e-05
-2.363014e-05
-5.482197e-05
-2.363014e-05
1.819412e-04
1.819412e-04
2.712323e-04
2.712323e-04
5.307607e-05
-4.624856e-05
5.307607e-05
-4.624856e-05
6.315063e-05
6.315063e-05
-2.519522e-04
-2.519522e-04
7.359736e-05
1.108044e-04
7.359736e-05
1.108044e-04
-6.476277e-04
-6.476277e-04
-1.401196e-03
-1.401196e-03
3.968207e-05
5.494085e-05
3.968207e-05
5.494085e-05
-1.983062e-03
-1.983062e-03
-1.077245e-03
-1.077245e-03
-2.787153e-04
-2.249977e-04
-2.787153e-04
-2.249977e-04
-1.978216e-05
-1.978216e-05
-2.263893e-05
-2.263893e-05
-3.162810e-05
-2.028453e-05
-3.162810e-05
-2.028453e-05
-2.106980e-05
-2.106980e-05
-4.263426e-05
-4.263426e-05
-2.442446e-05
-2.669391e-05
-2.442446e-05
-2.669391e-05
-5.560207e-05
-5.560207e-05
-2.517427e-07
-2.517427e-07
-4.460733e-05
-4.456668e-05
-4.460733e-05
-4.456668e-05
4.725728e-05
4.725728e-05
9.258693e-06
9.258693e-06
2.835767e-05
4.438035e-06
2.835767e-05
4.438035e-06
-3.616286e-05
-3.616286e-05
-3.821898e-05
-3.821898e-05
-1.149702e-05
-5.853950e-07
-1.149702e-05
-5.853950e-07
-1.002209e-04
-1.002209e-04
-7.225098e-05
-7.225098e-05
-3.260076e-06
-2.206188e-05
-3.260076e-06
-2.206188e-05
-1.720355e-05
-1.720355e-05
-3.194355e-05
-3.194355e-05
-1.958462e-05
-8.402771e-06
-1.958462e-05
-8.402771e-06
-3.137343e-05
-3.137343e-05
-2.312367e-05
-2.312367e-05
-2.020486e-05
-2.333184e-05
-2.020486e-05
-2.333184e-05
-3.089959e-05
-3.089959e-05
-5.133925e-05
-5.133925e-05
-4.516545e-05
-2.166428e-05
-4.516545e-05
-2.166428e-05
-3.586035e-05
-3.586035e-05
1.996873e-05
1.996873e-05
-3.345240e-05
-6.598306e-05
-3.345240e-05
-6.598306e-05
2.790696e-05
2.790696e-05
-4.191189e-05
-4.191189e-05
4.035106e-06
2.594706e-05
4.035106e-06
2.594706e-05
-6.323458e-05
-6.323458e-05
-8.227979e-06
-8.227979e-06
4.697869e-05
-3.655725e-05
4.697869e-05
-3.655725e-05
-4.895055e-06
-4.895055e-06
-9.474694e-06
-9.474694e-06
-6.160461e-06
-4.967119e-06
-6.160461e-06
-4.967119e-06
-6.630377e-06
-6.630377e-06
-5.664430e-06
-5.664430e-06
8.030883e-06
4.152995e-06
8.030883e-06
4.152995e-06
-1.556906e-05
-1.556906e-05
-4.321142e-05
-4.321142e-05
-4.045692e-05
-7.663312e-06
-4.045692e-05
-7.663312e-06
-7.485728e-05
-7.485728e-05
-6.630971e-05
-6.630971e-05
-6.464812e-05
-7.632372e-05
-6.464812e-05
-7.632372e-05
-6.562350e-07
-6.562350e-07
4.393868e-05
4.393868e-05
2.900984e-05
-3.849261e-06
2.900984e-05
-3.849261e-06
5.113931e-07
5.113931e-07
-4.259603e-07
-4.259603e-07
-2.033006e-06
-1.541192e-06
-2.033006e-06
-1.541192e-06
-1.715538e-06
-1.715538e-06
-2.588651e-06
-2.588651e-06
-3.826232e-06
-3.235320e-06
-3.826232e-06
-3.235320e-06
-4.729606e-07
-4.729606e-07
1.056628e-06
1.056628e-06
-6.014870e-07
-2.126185e-06
-6.014870e-07
-2.126185e-06
-1.040301e-06
-1.040301e-06
-2.069952e-06
-2.069952e-06
-1.745332e-06
-1.132349e-06
-1.745332e-06
-1.132349e-06
-3.497413e-07
-3.497413e-07
1.094617e-06
1.094617e-06
1.874283e-06
-3.160798e-07
1.874283e-06
-3.160798e-07
5.810643e-07
5.810643e-07
4.219693e-07
4.219693e-07
-1.792261e-07
2.103637e-06
-1.792261e-07
2.103637e-06
-6.335146e-07
-6.335146e-07
-2.051188e-06
-2.051188e-06
-4.256430e-07
-7.373179e-07
-4.256430e-07
-7.373179e-07
-2.472460e-06
-2.472460e-06
-1.595255e-06
-1.595255e-06
-6.071299e-07
-1.743982e-06
-6.071299e-07
-1.743982e-06
1.846286e-07
1.846286e-07
7.841831e-07
7.841831e-07
5.440340e-07
5.754510e-07
5.440340e-07
5.754510e-07
-3.952238e-07
-3.952238e-07
-8.200758e-08
-8.200758e-08
-1.002563e-06
-7.414057e-07
-1.002563e-06
-7.414057e-07
1.219368e-06
1.219368e-06
3.474467e-07
3.474467e-07
8.801793e-07
9.219903e-07
8.801793e-07
9.219903e-07
3.691351e-07
3.691351e-07
3.119370e-06
3.119370e-06
2.968586e-06
1.284850e-06
2.968586e-06
1.284850e-06
3.217716e-06
3.217716e-06
-6.548908e-06
-6.548908e-06
1.017559e-06
4.694253e-06
1.017559e-06
4.694253e-06
-3.305424e-06
-3.305424e-06
1.427132e-05
1.427132e-05
-3.905027e-06
-1.052953e-05
-3.905027e-06
-1.052953e-05
3.561416e-06
3.561416e-06
-1.075182e-05
-1.075182e-05
-2.698605e-06
1.767039e-05
-2.698605e-06
1.767039e-05
1.288005e-05
1.288005e-05
2.377917e-05
2.377917e-05
4.528972e-05
-3.406898e-06
4.528972e-05
-3.406898e-06
3.367078e-06
3.367078e-06
1.244288e-05
1.244288e-05
1.066794e-04
8.279175e-05
1.066794e-04
8.279175e-05
2.454706e-05
2.454706e-05
1.774786e-05
1.774786e-05
7.713466e-05
1.013900e-04
7.713466e-05
1.013900e-04
1.413164e-05
1.413164e-05
2.600310e-06
2.600310e-06
2.566459e-05
5.617333e-05
2.566459e-05
5.617333e-05
-3.807352e-06
-3.807352e-06
-1.965803e-06
-1.965803e-06
-5.104833e-06
-2.855922e-06
-5.104833e-06
-2.855922e-06
1.067471e-06
1.067471e-06
2.679164e-06
2.679164e-06
5.800098e-06
3.644454e-06
5.800098e-06
3.644454e-06
1.036474e-06
1.036474e-06
-2.360089e-07
-2.360089e-07
2.146375e-06
3.155477e-06
2.146375e-06
3.155477e-06
-5.129645e-06
-5.129645e-06
-5.444288e-06
-5.444288e-06
-5.538959e-06
-5.836926e-06
-5.538959e-06
-5.836926e-06
-3.134585e-06
-3.134585e-06
-2.891579e-06
-2.891579e-06
-2.704496e-06
-3.211144e-06
-2.704496e-06
-3.211144e-06
-3.585839e-06
-3.585839e-06
-2.868167e-06
-2.868167e-06
-3.376704e-06
-3.973667e-06
-3.376704e-06
-3.973667e-06
-2.126348e-06
-2.126348e-06
-2.547497e-06
-2.547497e-06
-3.040205e-06
-2.638477e-06
-3.040205e-06
-2.638477e-06
-1.645006e-06
-1.645006e-06
1.019030e-06
1.019030e-06
-1.407030e-07
-1.792991e-06
-1.407030e-07
-1.792991e-06
2.301017e-06
2.301017e-06
9.481242e-07
9.481242e-07
1.403394e-06
9.338773e-07
1.403394e-06
9.338773e-07
4.756650e-07
4.756650e-07
2.844496e-07
2.844496e-07
1.390787e-07
1.042381e-06
1.390787e-07
1.042381e-06
-1.092137e-06
-1.092137e-06
-3.136392e-07
-3.136392e-07
-7.292441e-07
-7.802827e-07
-7.292441e-07
-7.802827e-07
4.565842e-07
4.565842e-07
-1.964188e-07
-1.964188e-07
-4.425921e-07
-1.267606e-07
-4.425921e-07
-1.267606e-07
-5.170280e-07
-5.170280e-07
-1.262257e-06
-1.262257e-06
-1.334965e-07
-9.100179e-07
-1.334965e-07
-9.100179e-07
-1.321977e-07
-1.321977e-07
1.089318e-06
1.089318e-06
1.484124e-07
7.787953e-07
1.484124e-07
7.787953e-07
2.956839e-07
2.956839e-07
1.682777e-06
1.682777e-06
1.370410e-06
-6.628343e-07
1.370410e-06
-6.628343e-07
4.772146e-06
4.772146e-06
6.024897e-06
6.024897e-06
8.937704e-06
6.847142e-06
8.937704e-06
6.847142e-06
-6.152411e-06
-6.152411e-06
-2.512189e-05
-2.512189e-05
-1.851137e-05
1.206528e-06
-1.851137e-05
1.206528e-06
-2.266459e-06
-2.266459e-06
4.098974e-05
4.098974e-05
6.133484e-05
-2.607362e-05
6.133484e-05
-2.607362e-05
2.397636e-05
2.397636e-05
5.101289e-05
5.101289e-05
7.709777e-05
1.237537e-04
7.709777e-05
1.237537e-04
1.537567e-04
1.537567e-04
1.687758e-04
1.687758e-04
2.839456e-05
3.961826e-05
2.839456e-05
3.961826e-05
1.369189e-04
1.369189e-04
1.353011e-04
1.353011e-04
8.499073e-05
3.511584e-05
8.499073e-05
3.511584e-05
1.236400e-04
1.236400e-04
6.820005e-05
6.820005e-05
8.980541e-05
1.294164e-04
8.980541e-05
1.294164e-04
4.982264e-06
4.982264e-06
-1.011078e-05
-1.011078e-05
-1.584560e-05
1.686471e-05
-1.584560e-05
1.686471e-05
2.168330e-06
2.168330e-06
8.194822e-06
8.194822e-06
1.249932e-05
-2.453775e-06
1.249932e-05
-2.453775e-06
4.240530e-06
4.240530e-06
2.251301e-06
2.251301e-06
8.649041e-06
1.037763e-05
8.649041e-06
1.037763e-05
-4.552054e-06
-4.552054e-06
-3.572306e-06
-3.572306e-06
-3.701396e-06
-3.299850e-06
-3.701396e-06
-3.299850e-06
-3.349876e-06
-3.349876e-06
-3.334159e-06
-3.334159e-06
-3.707140e-06
-3.985650e-06
-3.707140e-06
-3.985650e-06
-3.008399e-06
-3.008399e-06
-3.212568e-06
-3.212568e-06
-2.116899e-06
-2.501553e-06
-2.116899e-06
-2.501553e-06
-2.508269e-06
-2.508269e-06
-2.142701e-06
-2.142701e-06
-4.834012e-07
-1.344206e-06
-4.834012e-07
-1.344206e-06
-1.060463e-06
-1.060463e-06
5.311322e-07
5.311322e-07
1.163367e-06
6.918426e-07
1.163367e-06
6.918426e-07
7.168177e-07
7.168177e-07
6.632168e-07
6.632168e-07
1.476839e-06
5.788376e-07
1.476839e-06
5.788376e-07
1.172047e-06
1.172047e-06
4.613468e-07
4.613468e-07
-2.869517e-07
1.910961e-06
-2.869517e-07
1.910961e-06
-3.495038e-07
-3.495038e-07
-1.060366e-06
-1.060366e-06
-8.953173e-07
-9.026892e-07
-8.953173e-07
-9.026892e-07
-7.182659e-07
-7.182659e-07
-2.716055e-07
-2.716055e-07
-1.288970e-06
-1.663038e-06
-1.288970e-06
-1.663038e-06
-6.485405e-07
-6.485405e-07
7.172427e-07
7.172427e-07
1.086023e-06
-4.796253e-07
1.086023e-06
-4.796253e-07
1.621411e-06
1.621411e-06
2.532716e-06
2.532716e-06
8.070498e-06
4.040076e-06
8.070498e-06
4.040076e-06
3.552727e-06
3.552727e-06
5.915992e-06
5.915992e-06
5.990639e-06
1.114715e-05
5.990639e-06
1.114715e-05
1.110228e-05
1.110228e-05
9.048989e-06
9.048989e-06
-1.446932e-05
-6.854741e-06
-1.446932e-05
-6.854741e-06
3.007027e-06
3.007027e-06
7.630030e-06
7.630030e-06
4.064142e-05
3.402188e-06
4.064142e-05
3.402188e-06
3.091080e-06
3.091080e-06
2.004833e-05
2.004833e-05
-4.194436e-05
2.838380e-05
-4.194436e-05
2.838380e-05
1.167786e-04
1.167786e-04
5.908713e-05
5.908713e-05
-6.114659e-06
-2.591243e-06
-6.114659e-06
-2.591243e-06
-1.606142e-04
-1.606142e-04
-1.827279e-04
-1.827279e-04
-1.766262e-04
-1.504152e-04
-1.766262e-04
-1.504152e-04
-1.267900e-04
-1.267900e-04
-8.709332e-05
-8.709332e-05
-1.757689e-04
-1.625645e-04
-1.757689e-04
-1.625645e-04
1.271229e-05
1.271229e-05
5.986303e-05
5.986303e-05
1.975789e-05
-9.993130e-05
1.975789e-05
-9.993130e-05
2.582415e-05
2.582415e-05
-2.178647e-05
-2.178647e-05
-2.092702e-05
4.240764e-05
-2.092702e-05
4.240764e-05
-1.484141e-05
-1.484141e-05
1.351380e-05
1.351380e-05
1.241366e-06
-3.790415e-05
1.241366e-06
-3.790415e-05
1.987685e-05
1.987685e-05
1.681593e-05
1.681593e-05
1.288525e-05
1.832159e-05
1.288525e-05
1.832159e-05
-2.098947e-06
-2.098947e-06
-3.910501e-06
-3.910501e-06
-2.768572e-06
-2.076706e-06
-2.768572e-06
-2.076706e-06
-3.167097e-06
-3.167097e-06
-3.203160e-06
-3.203160e-06
-1.154988e-06
-5.134208e-07
-1.154988e-06
-5.134208e-07
-2.680883e-06
-2.680883e-06
-7.138785e-07
-7.138785e-07
3.865911e-07
-7.338777e-07
3.865911e-07
-7.338777e-07
6.222634e-07
6.222634e-07
2.403007e-06
2.403007e-06
2.310390e-06
4.472864e-08
2.310390e-06
4.472864e-08
3.411804e-06
3.411804e-06
1.746332e-06
1.746332e-06
3.185292e-06
3.709416e-06
3.185292e-06
3.709416e-06
1.632651e-06
1.632651e-06
2.115952e-06
2.115952e-06
1.200499e-06
2.870768e-06
1.200499e-06
2.870768e-06
6.853428e-07
6.853428e-07
-1.060404e-06
-1.060404e-06
-2.253513e-06
-7.442088e-07
-2.253513e-06
-7.442088e-07
-1.614065e-06
-1.614065e-06
-1.736412e-06
-1.736412e-06
-3.152008e-06
-2.861983e-06
-3.152008e-06
-2.861983e-06
-1.721335e-06
-1.721335e-06
-6.323631e-07
-6.323631e-07
-4.139328e-07
-2.999390e-06
-4.139328e-07
-2.999390e-06
-1.026838e-06
-1.026838e-06
1.457892e-06
1.457892e-06
1.584477e-06
5.923830e-08
1.584477e-06
5.923830e-08
8.298809e-06
8.298809e-06
1.483064e-05
1.483064e-05
2.298635e-05
1.252751e-05
2.298635e-05
1.252751e-05
1.584591e-05
1.584591e-05
-8.025595e-06
-8.025595e-06
-3.846871e-05
1.257115e-05
-3.846871e-05
1.257115e-05
-5.072562e-05
-5.072562e-05
-4.995733e-05
-4.995733e-05
-4.516692e-05
-8.819958e-05
-4.516692e-05
-8.819958e-05
3.290968e-05
3.290968e-05
9.257558e-05
9.257558e-05
1.254367e-04
7.836054e-05
1.254367e-04
7.836054e-05
1.655815e-05
1.655815e-05
-7.468514e-05
-7.468514e-05
-7.120501e-05
1.411302e-05
-7.120501e-05
1.411302e-05
-7.853089e-05
-7.853089e-05
-7.656101e-05
-7.656101e-05
-1.497373e-04
-1.400802e-04
-1.497373e-04
-1.400802e-04
-6.323261e-05
-6.323261e-05
-1.115350e-04
-1.115350e-04
-1.337309e-04
-6.317023e-05
-1.337309e-04
-6.317023e-05
-1.665954e-04
-1.665954e-04
-1.380976e-04
-1.380976e-04
-8.820869e-05
-1.991495e-04
-8.820869e-05
-1.991495e-04
-7.170749e-05
-7.170749e-05
3.124970e-05
3.124970e-05
3.775145e-05
3.396060e-05
3.775145e-05
3.396060e-05
6.847610e-05
6.847610e-05
5.097834e-06
5.097834e-06
3.860714e-05
3.944239e-05
3.860714e-05
3.944239e-05
-4.999353e-05
-4.999353e-05
-2.445618e-05
-2.445618e-05
-5.264958e-05
-3.410546e-05
-5.264958e-05
-3.410546e-05
-3.807556e-06
-3.807556e-06
-1.071262e-05
-1.071262e-05
-3.634888e-05
-3.657144e-05
-3.634888e-05
-3.657144e-05
-4.021041e-07
-4.021041e-07
-2.513410e-07
-2.513410e-07
1.813066e-06
1.048937e-06
1.813066e-06
1.048937e-06
-7.330417e-08
-7.330417e-08
5.308538e-07
5.308538e-07
1.415433e-06
1.008540e-06
1.415433e-06
1.008540e-06
1.425712e-06
1.425712e-06
6.828996e-07
6.828996e-07
8.935039e-07
2.225835e-06
8.935039e-07
2.225835e-06
8.323530e-07
8.323530e-07
2.574127e-06
2.574127e-06
2.237948e-06
4.800113e-07
2.237948e-06
4.800113e-07
2.962631e-06
2.962631e-06
3.218159e-06
3.218159e-06
1.572069e-06
2.026818e-06
1.572069e-06
2.026818e-06
2.383072e-06
2.383072e-06
6.039018e-07
6.039018e-07
4.430743e-07
1.648351e-06
4.430743e-07
1.648351e-06
-1.919224e-06
-1.919224e-06
-3.032269e-06
-3.032269e-06
-2.270652e-06
-1.457725e-06
-2.270652e-06
-1.457725e-06
-3.277655e-06
-3.277655e-06
-4.236936e-06
-4.236936e-06
-3.314427e-06
-3.026498e-06
-3.314427e-06
-3.026498e-06
-4.165022e-06
-4.165022e-06
-2.544113e-06
-2.544113e-06
-2.749538e-06
-3.892965e-06
-2.749538e-06
-3.892965e-06
5.659264e-07
5.659264e-07
2.963579e-06
2.963579e-06
8.179379e-06
3.132917e-06
8.179379e-06
3.132917e-06
1.741101e-05
1.741101e-05
2.973776e-05
2.973776e-05
1.999128e-05
2.151696e-05
1.999128e-05
2.151696e-05
-5.877541e-06
-5.877541e-06
-7.822865e-05
-7.822865e-05
-9.948107e-05
-4.662217e-05
-9.948107e-05
-4.662217e-05
-8.942598e-05
-8.942598e-05
-1.666591e-06
-1.666591e-06
2.038067e-05
-4.751896e-05
2.038067e-05
-4.751896e-05
6.317771e-05
6.317771e-05
9.050661e-05
9.050661e-05
4.609022e-05
1.587446e-05
4.609022e-05
1.587446e-05
5.190123e-05
5.190123e-05
-4.717739e-05
-4.717739e-05
1.180981e-04
1.187797e-04
1.180981e-04
1.187797e-04
-2.570501e-04
-2.570501e-04
-1.616208e-04
-1.616208e-04
-1.816774e-04
-3.560206e-04
-1.816774e-04
-3.560206e-04
9.081445e-05
9.081445e-05
4.771676e-05
4.771676e-05
5.703229e-04
5.638326e-04
5.703229e-04
5.638326e-04
4.108189e-06
4.108189e-06
5.028830e-05
5.028830e-05
2.795609e-04
3.978530e-04
2.795609e-04
3.978530e-04
9.581697e-05
9.581697e-05
6.075782e-06
6.075782e-06
1.971369e-06
1.149165e-04
1.971369e-06
1.149165e-04
-2.824955e-05
-2.824955e-05
2.664853e-05
2.664853e-05
2.406704e-06
-1.723239e-05
2.406704e-06
-1.723239e-05
4.236886e-06
4.236886e-06
-3.050948e-05
-3.050948e-05
2.273470e-05
3.197204e-05
2.273470e-05
3.197204e-05
-1.776988e-05
-1.776988e-05
-9.205063e-06
-9.205063e-06
2.561894e-05
1.733920e-05
2.561894e-05
1.733920e-05
-2.482509e-07
-2.482509e-07
1.435445e-06
1.435445e-06
2.518776e-06
2.518776e-06
1.939739e-06
1.939739e-06
1.586348e-06
1.586348e-06
1.111666e-06
1.111666e-06
3.003436e-07
3.003436e-07
2.125856e-06
2.125856e-06
2.702893e-06
2.702893e-06
1.021111e-06
1.021111e-06
6.460764e-07
6.460764e-07
2.686914e-07
2.686914e-07
2.236471e-07
2.236471e-07
-5.004132e-07
-5.004132e-07
-2.029719e-06
-2.029719e-06
-2.578480e-06
-2.578480e-06
-3.420791e-06
-3.420791e-06
-2.111507e-06
-2.111507e-06
5.941941e-06
5.941941e-06
1.207995e-05
1.207995e-05
9.849309e-06
9.849309e-06
-2.214575e-05
-2.214575e-05
-7.867096e-05
-7.867096e-05
-7.036881e-05
-7.036881e-05
-1.859158e-05
-1.859158e-05
-8.166565e-06
-8.166565e-06
-4.753098e-05
-4.753098e-05
-4.105663e-05
-4.105663e-05
-3.325014e-05
-3.325014e-05
7.613755e-06
7.613755e-06
-1.587698e-03
-1.587698e-03
-8.927402e-04
-8.927402e-04
1.239728e-03
1.239728e-03
-4.913990e-04
-4.913990e-04
-5.774721e-04
-5.774721e-04
4.870348e-04
4.870348e-04
3.060387e-05
3.060387e-05
-4.010371e-05
-4.010371e-05
2.031035e-05
2.031035e-05
1.731543e-05
1.731543e-05
2.907435e-05
2.907435e-05
6.781208e-05
6.781208e-05
2.518227e-08
-9.018117e-07
-1.158854e-06
-6.320718e-07
-8.894890e-07
-1.003737e-06
-4.258801e-07
-9.553797e-07
-1.058082e-06
-5.129193e-07
-4.956330e-07
-5.967127e-07
-2.681857e-07
-2.995785e-07
-1.938916e-07
4.470918e-07
9.710715e-07
9.911477e-07
5.093720e-07
8.180607e-07
1.089146e-06
1.517606e-06
2.312386e-06
2.641104e-06
5.755589e-08
9.937313e-07
1.514523e-06
1.527834e-06
2.700648e-06
3.444767e-06
-8.761186e-07
-7.390884e-08
6.597990e-07
1.179271e-06
2.686628e-06
3.606011e-06
-1.833497e-06
-1.463581e-06
-4.841136e-07
7.853228e-07
2.047101e-06
2.648995e-06
-2.563813e-06
-2.203773e-06
-1.048194e-06
3.351528e-07
1.161879e-06
1.400797e-06
-2.310151e-06
-2.124606e-06
-1.052546e-06
1.440456e-07
4.420651e-07
4.300077e-07
-1.620241e-06
-1.440871e-06
-7.952522e-07
-2.811927e-07
-3.375599e-07
-4.417375e-07
-1.269988e-06
-1.021862e-06
-7.142544e-07
-7.006816e-07
-7.768819e-07
-8.071731e-07
7.383627e-07
-4.016670e-07
-1.144192e-06
-5.011660e-07
-8.910207e-08
7.743992e-08
7.222938e-07
-3.185114e-07
-9.692365e-07
-1.544422e-07
2.572104e-07
2.441488e-07
1.723607e-07
2.673319e-07
3.346457e-07
7.388553e-07
1.104253e-06
1.037785e-06
-2.126978e-07
5.449094e-07
1.296577e-06
1.373376e-06
1.755524e-06
2.054933e-06
-8.430834e-07
5.620268e-08
1.072177e-06
1.304968e-06
2.007912e-06
2.594754e-06
-1.464325e-06
-1.592488e-07
7.975564e-07
8.357860e-07
2.064599e-06
2.906912e-06
-1.119290e-06
-8.433175e-07
-3.298800e-07
4.911039e-07
1.873817e-06
2.673011e-06
-2.006402e-06
-2.041405e-06
-1.091380e-06
6.299545e-07
1.631689e-06
1.897118e-06
-2.439091e-06
-2.003909e-06
-6.313709e-07
8.013769e-07
1.231981e-06
1.167194e-06
-1.428661e-06
-1.253952e-06
-5.296519e-07
1.527216e-07
2.103244e-07
1.351445e-07
-1.059739e-06
-1.007364e-06
-7.392194e-07
-4.966501e-07
-5.081316e-07
-5.464131e-07
1.098053e-06
2.000356e-07
-1.223920e-06
-7.747343e-07
8.152278e-07
1.430066e-06
3.229350e-06
1.078916e-06
-1.267034e-06
-3.556722e-07
1.059103e-06
1.367001e-06
1.265544e-06
5.170941e-07
-1.474217e-07
7.366130e-07
1.254968e-06
9.732224e-07
-3.787810e-06
-1.208048e-06
1.947932e-06
1.762922e-06
1.003402e-06
1.005110e-06
-9.640832e-07
3.821132e-07
2.472997e-06
1.645161e-06
6.190402e-07
1.165444e-06
1.185750e-06
1.402786e-06
9.338622e-07
2.288419e-07
7.694199e-07
1.329058e-06
-1.175358e-06
-7.222562e-07
-8.003746e-07
-3.334925e-07
1.558363e-06
2.452117e-06
-2.993756e-06
-2.649416e-06
-1.255711e-06
8.244506e-07
2.567017e-06
3.278787e-06
-3.568292e-06
-2.710649e-06
-5.222436e-07
1.877813e-06
2.947049e-06
2.946992e-06
-1.983432e-06
-1.563104e-06
-2.110603e-07
1.170972e-06
1.467786e-06
1.314284e-06
-9.134720e-07
-1.010373e-06
-4.860168e-07
1.855741e-07
1.593855e-07
8.286334e-08
3.633460e-06
1.630053e-06
-3.386844e-06
-3.812574e-06
2.504304e-07
1.725675e-06
4.610638e-06
1.234111e-06
-3.737364e-06
-3.172919e-06
2.425434e-07
1.498613e-06
8.133120e-07
-1.191421e-06
-1.548458e-06
7.222586e-07
8.030799e-07
2.608811e-07
-6.066469e-06
-1.543734e-06
4.619310e-06
4.406254e-06
1.193464e-06
-1.659632e-07
-2.160229e-06
1.921905e-06
6.643945e-06
3.851004e-06
3.540201e-07
2.898826e-07
4.014028e-06
2.627568e-06
1.725386e-06
9.339115e-07
-2.643644e-08
2.889670e-07
5.300604e-07
-1.267601e-08
-1.862551e-06
-1.595442e-06
1.065988e-06
2.153171e-06
-4.341526e-06
-3.229901e-06
-2.330521e-06
-4.669529e-07
3.142266e-06
4.675671e-06
-5.732841e-06
-4.535585e-06
-1.473058e-06
2.175354e-06
4.340323e-06
4.722150e-06
-3.667854e-06
-2.700295e-06
-2.329831e-07
2.124349e-06
2.741180e-06
2.500432e-06
-1.436434e-06
-1.219000e-06
-4.525923e-08
1.155509e-06
1.208784e-06
1.017597e-06
5.223855e-06
2.015164e-06
-6.223484e-06
-7.155922e-06
-6.602753e-07
1.737853e-06
-3.319653e-06
-3.791374e-06
-6.475453e-06
-5.934834e-06
-8.310466e-07
1.519765e-06
-2.720424e-06
-4.149417e-06
-2.237626e-06
9.065537e-07
3.037081e-07
-1.025344e-07
8.185107e-06
6.502881e-06
7.225181e-06
7.368393e-06
1.798076e-06
-1.510927e-06
1.571437e-06
6.000589e-06
1.012973e-05
6.083168e-06
7.174779e-07
-9.016719e-07
-3.003854e-06
-1.027212e-06
2.060894e-06
9.441083e-07
-4.878934e-07
3.083560e-07
-2.351906e-06
-2.821893e-06
-3.634286e-06
-2.418681e-06
8.183371e-07
2.497344e-06
-3.553569e-06
-2.239426e-06
-2.158685e-06
-8.688348e-07
3.501420e-06
5.348424e-06
-2.937491e-06
-2.140196e-06
-5.204683e-07
2.266815e-06
4.955220e-06
5.678776e-06
-3.044491e-06
-2.146998e-06
2.655033e-07
2.791081e-06
3.525424e-06
3.249198e-06
-1.820008e-06
-1.197590e-06
5.836771e-07
2.080036e-06
2.082748e-06
1.747950e-06
3.925352e-06
1.071816e-06
-6.991589e-06
-7.865905e-06
-9.022405e-07
1.725871e-06
-1.127235e-05
-8.211497e-06
-7.129855e-06
-6.439208e-06
-1.039028e-06
1.691295e-06
-5.149291e-06
-5.716044e-06
-2.536362e-06
8.111975e-07
2.737570e-07
1.351921e-07
2.186230e-05
1.340537e-05
7.603598e-06
8.220975e-06
2.017367e-06
-2.148469e-06
7.278888e-06
9.802920e-06
1.128772e-05
6.672547e-06
6.498190e-07
-1.796961e-06
-9.611732e-06
-4.259400e-06
1.603428e-06
-1.422388e-08
-8.266445e-07
4.890822e-07
-7.709565e-06
-6.839893e-06
-4.968573e-06
-2.510347e-06
9.208928e-07
2.895554e-06
-2.962609e-06
-1.438847e-06
-1.033182e-06
-7.961884e-08
3.750841e-06
5.509639e-06
1.022147e-06
1.252690e-06
1.070887e-06
2.479839e-06
5.101997e-06
5.902858e-06
-1.483055e-06
-9.525811e-07
8.389038e-07
3.088771e-06
3.745850e-06
3.414074e-06
-1.744602e-06
-9.850619e-07
1.050024e-06
2.512822e-06
2.306081e-06
1.912087e-06
SCALARS E33 float 1
LOOKUP_TABLE default
6.751324e-05
7.846414e-05
1.500226e-04
1.291519e-04
6.751324e-05
7.846414e-05
1.500226e-04
1.291519e-04
5.466324e-05
6.279482e-05
5.466324e-05
6.279482e-05
6.232904e-05
1.120544e-04
6.232904e-05
1.120544e-04
9.818142e-05
9.818142e-05
-1.011002e-06
-2.745838e-06
-3.078208e-09
-6.324251e-06
-1.011002e-06
-2.745838e-06
-3.078208e-09
-6.324251e-06
-4.868980e-06
-5.398514e-06
-4.868980e-06
-5.398514e-06
-2.087931e-06
2.336555e-06
-2.087931e-06
2.336555e-06
-1.440321e-05
-1.440321e-05
-2.676951e-05
-2.060782e-05
-2.305902e-05
-2.676951e-05
-2.060782e-05
-2.305902e-05
-1.697892e-05
-1.440165e-05
-1.697892e-05
-1.440165e-05
-4.969672e-06
-6.113166e-06
-4.969672e-06
-6.113166e-06
-8.005246e-06
-8.005246e-06
1.782303e-06
7.663345e-06
6.264001e-06
-3.946347e-06
1.782303e-06
7.663345e-06
6.264001e-06
-3.946347e-06
2.234426e-05
1.254874e-05
2.234426e-05
1.254874e-05
1.180696e-05
6.660074e-06
1.180696e-05
6.660074e-06
-3.494956e-07
-3.494956e-07
-3.465637e-06
3.938908e-06
5.303156e-06
9.001589e-07
-3.465637e-06
3.938908e-06
5.303156e-06
9.001589e-07
3.268147e-05
3.268147e-05
4.483546e-05
4.483546e-05
7.475098e-06
5.768957e-06
-6.144679e-06
-1.666740e-06
7.475098e-06
5.768957e-06
-6.144679e-06
-1.666740e-06
-1.987919e-06
-1.987919e-06
-4.993933e-07
-4.993933e-07
4.390639e-06
1.088650e-06
-3.743511e-07
3.332088e-06
4.390639e-06
1.088650e-06
-3.743511e-07
3.332088e-06
1.174121e-06
-2.568123e-06
1.174121e-06
-2.568123e-06
-3.528953e-06
-2.566293e-06
-3.528953e-06
-2.566293e-06
-4.713285e-06
-4.713285e-06
-1.435151e-06
-6.119317e-06
-8.189087e-06
-3.006503e-06
-1.435151e-06
-6.119317e-06
-8.189087e-06
-3.006503e-06
-4.902383e-06
-4.831580e-06
-4.902383e-06
-4.831580e-06
-5.925958e-07
-5.933655e-06
-5.925958e-07
-5.933655e-06
-4.049279e-06
-4.049279e-06
2.823590e-05
4.316621e-05
-5.756793e-05
-5.627677e-05
2.823590e-05
4.316621e-05
-5.756793e-05
-5.627677e-05
2.667732e-05
-7.358353e-05
2.667732e-05
-7.358353e-05
-8.936951e-05
-7.712083e-05
-8.936951e-05
-7.712083e-05
-5.425655e-05
-5.425655e-05
-1.701064e-06
3.125943e-06
-3.333521e-05
-1.701064e-06
3.125943e-06
-3.333521e-05
5.575356e-06
-2.963032e-06
5.575356e-06
-2.963032e-06
3.221922e-06
3.221922e-06
-1.890303e-05
-1.890303e-05
-1.719025e-05
-1.679780e-06
-1.719025e-05
-1.679780e-06
-2.782357e-05
-5.459216e-05
-1.296737e-05
2.623024e-06
-2.782357e-05
-5.459216e-05
-1.296737e-05
2.623024e-06
-3.398076e-05
-3.398076e-05
1.062030e-05
9.014198e-06
-4.137972e-06
5.070666e-06
1.062030e-05
9.014198e-06
-4.137972e-06
5.070666e-06
-1.304786e-05
-1.304786e-05
-1.586747e-05
-1.586747e-05
-1.184822e-05
-1.184822e-05
-2.928669e-05
-2.928669e-05
3.470090e-06
3.470090e-06
4.592130e-06
4.592130e-06
4.888830e-06
5.004218e-06
4.888830e-06
5.004218e-06
-1.978036e-05
-1.978036e-05
1.074013e-05
2.811894e-05
1.074013e-05
2.811894e-05
2.138292e-05
2.138292e-05
7.606166e-06
7.523431e-07
7.606166e-06
7.523431e-07
3.830140e-06
-7.369620e-07
3.830140e-06
-7.369620e-07
-1.729727e-06
-1.356831e-06
-1.729727e-06
-1.356831e-06
1.879495e-06
1.879495e-06
-3.965035e-07
-3.965035e-07
-1.437669e-06
-2.002343e-06
-1.437669e-06
-2.002343e-06
-6.548870e-06
-6.548870e-06
-6.714636e-06
-3.627874e-06
-6.714636e-06
-3.627874e-06
1.950807e-06
1.100872e-06
-2.324822e-06
1.918006e-06
1.950807e-06
1.100872e-06
-2.324822e-06
1.918006e-06
2.686397e-06
-1.447252e-06
2.686397e-06
-1.447252e-06
-2.261924e-06
-4.445052e-06
-2.261924e-06
-4.445052e-06
-5.403191e-07
-4.851835e-07
-2.502226e-06
-2.822137e-06
-5.403191e-07
-4.851835e-07
-2.502226e-06
-2.822137e-06
-6.544045e-07
-3.434322e-06
-6.544045e-07
-3.434322e-06
-3.093617e-06
-3.041213e-06
-3.093617e-06
-3.041213e-06
-3.424125e-06
-3.424125e-06
1.961694e-06
4.136853e-06
1.961694e-06
4.136853e-06
4.978951e-06
4.978951e-06
8.098792e-06
8.098792e-06
-2.143957e-07
-2.289899e-06
1.912329e-06
2.100273e-06
-2.143957e-07
-2.289899e-06
1.912329e-06
2.100273e-06
6.519156e-06
6.519156e-06
4.487668e-06
4.487668e-06
1.174228e-06
4.660602e-06
5.670475e-07
-3.385143e-06
1.174228e-06
4.660602e-06
5.670475e-07
-3.385143e-06
-2.747288e-07
-2.747288e-07
-1.584314e-06
-1.618976e-06
-6.358110e-06
-4.771789e-06
-1.584314e-06
-1.618976e-06
-6.358110e-06
-4.771789e-06
-9.672198e-06
-9.672198e-06
1.146982e-06
-4.085150e-06
1.146982e-06
-4.085150e-06
2.811365e-06
-8.966757e-06
2.811365e-06
-8.966757e-06
-1.234251e-06
-1.234251e-06
-2.925954e-07
-2.925954e-07
-1.591355e-06
-1.591355e-06
2.243463e-06
3.431115e-06
2.243463e-06
3.431115e-06
-3.329770e-06
-2.858806e-06
-3.329770e-06
-2.858806e-06
1.332577e-06
1.332577e-06
-3.724670e-06
-2.643851e-06
2.787556e-06
1.443399e-06
-3.724670e-06
-2.643851e-06
2.787556e-06
1.443399e-06
-1.711763e-06
-1.711763e-06
3.908895e-06
3.908895e-06
1.288368e-05
8.440788e-06
-4.593412e-05
-3.198532e-05
1.288368e-05
8.440788e-06
-4.593412e-05
-3.198532e-05
-3.209311e-06
-3.209311e-06
2.993298e-06
2.993298e-06
3.650082e-06
3.650082e-06
-2.354202e-06
-2.059261e-05
-2.354202e-06
-2.059261e-05
3.175995e-05
3.175995e-05
-4.799779e-06
-4.799779e-06
3.519073e-05
-1.404729e-05
3.519073e-05
-1.404729e-05
-6.172650e-06
-6.172650e-06
-6.911931e-06
-6.911931e-06
-7.083535e-06
-5.842205e-06
-7.083535e-06
-5.842205e-06
5.300849e-07
-2.591403e-06
5.300849e-07
-2.591403e-06
5.813917e-06
-2.968588e-06
-3.524882e-05
-5.693300e-06
5.813917e-06
-2.968588e-06
-3.524882e-05
-5.693300e-06
-1.689205e-06
-1.689205e-06
-1.267854e-06
-1.267854e-06
3.709162e-05
5.761831e-05
3.709162e-05
5.761831e-05
-4.963566e-05
2.531421e-05
-4.963566e-05
2.531421e-05
5.925192e-07
5.925192e-07
1.764058e-06
1.764058e-06
8.373210e-06
6.050459e-06
8.373210e-06
6.050459e-06
7.473164e-06
7.473164e-06
5.002335e-06
7.714935e-06
5.002335e-06
7.714935e-06
6.450153e-06
6.450153e-06
6.159537e-06
6.159537e-06
2.463018e-06
2.463018e-06
2.954220e-06
4.266577e-06
2.954220e-06
4.266577e-06
1.648155e-06
1.648155e-06
2.230990e-06
2.230990e-06
6.101071e-07
2.152317e-06
6.101071e-07
2.152317e-06
7.712232e-07
7.712232e-07
1.238067e-06
1.238067e-06
-1.908845e-07
-7.853559e-07
-1.908845e-07
-7.853559e-07
2.537736e-06
2.537736e-06
3.208241e-06
3.208241e-06
3.736774e-06
1.900608e-06
3.736774e-06
1.900608e-06
4.740041e-06
-1.290932e-06
4.740041e-06
-1.290932e-06
3.704740e-06
3.704740e-06
2.276662e-06
2.735981e-06
2.276662e-06
2.735981e-06
-1.820628e-06
-1.820628e-06
2.992083e-06
2.992083e-06
2.974878e-06
2.974878e-06
2.424538e-06
2.351435e-06
2.424538e-06
2.351435e-06
1.763437e-06
1.763437e-06
8.297263e-07
8.297263e-07
1.585402e-06
9.345136e-07
1.585402e-06
9.345136e-07
1.049873e-06
1.049873e-06
1.097806e-06
1.097806e-06
4.462463e-06
3.108459e-06
4.462463e-06
3.108459e-06
1.785545e-06
1.785545e-06
2.906348e-06
2.906348e-06
4.069492e-06
4.372891e-06
4.069492e-06
4.372891e-06
2.634348e-06
1.517679e-06
2.634348e-06
1.517679e-06
1.220920e-06
1.220920e-06
4.821004e-07
1.509331e-06
4.821004e-07
1.509331e-06
1.168650e-06
1.168650e-06
-2.445264e-07
-2.445264e-07
-4.553423e-07
-4.553423e-07
-2.749839e-06
-1.436829e-06
-2.749839e-06
-1.436829e-06
1.991978e-07
1.991978e-07
8.977909e-07
8.977909e-07
-1.259468e-06
-1.445013e-06
-1.259468e-06
-1.445013e-06
2.580158e-06
2.580158e-06
5.658323e-06
5.658323e-06
3.914922e-06
-4.388466e-07
3.914922e-06
-4.388466e-07
5.548213e-06
5.548213e-06
3.728019e-06
3.728019e-06
4.643998e-07
3.468452e-06
4.643998e-07
3.468452e-06
1.110149e-07
2.062795e-06
1.110149e-07
2.062795e-06
5.418784e-07
5.418784e-07
3.383302e-06
1.554652e-06
3.383302e-06
1.554652e-06
3.301432e-06
3.301432e-06
5.213306e-07
5.213306e-07
-2.880281e-06
-2.880281e-06
-5.510946e-07
2.481933e-06
-5.510946e-07
2.481933e-06
-3.705923e-06
-3.705923e-06
-2.385063e-06
-2.385063e-06
-1.307049e-06
-1.729648e-06
-1.307049e-06
-1.729648e-06
-2.600638e-06
-2.600638e-06
-1.241379e-06
-1.241379e-06
-3.685379e-06
-1.606186e-06
-3.685379e-06
-1.606186e-06
-1.829284e-06
-1.829284e-06
-3.451631e-06
-3.451631e-06
-3.981475e-06
-4.880455e-06
-3.981475e-06
-4.880455e-06
4.325621e-06
3.957959e-06
4.325621e-06
3.957959e-06
5.449777e-06
5.449777e-06
6.994014e-06
6.424837e-06
6.994014e-06
6.424837e-06
6.034006e-06
6.034006e-06
2.949349e-06
2.949349e-06
1.719522e-06
1.719522e-06
1.527679e-06
4.256457e-06
1.527679e-06
4.256457e-06
7.960783e-07
7.960783e-07
-2.146119e-07
-2.146119e-07
-2.488791e-06
-2.107534e-07
-2.488791e-06
-2.107534e-07
-8.574499e-07
-8.574499e-07
-1.969470e-06
-1.969470e-06
-2.371541e-06
-2.948049e-06
-2.371541e-06
-2.948049e-06
-2.959630e-06
-2.959630e-06
-3.080406e-06
-3.080406e-06
-2.019556e-06
-1.936835e-06
-2.019556e-06
-1.936835e-06
6.507990e-06
5.127853e-06
6.507990e-06
5.127853e-06
8.190774e-06
8.190774e-06
6.627161e-06
4.349023e-06
6.627161e-06
4.349023e-06
3.296921e-06
3.296921e-06
7.522519e-06
7.522519e-06
3.260854e-06
3.260854e-06
4.804986e-06
7.427044e-06
4.804986e-06
7.427044e-06
-1.191897e-06
-1.191897e-06
-3.703763e-06
-3.703763e-06
-1.992479e-06
6.495789e-07
-1.992479e-06
6.495789e-07
-4.931978e-06
-4.931978e-06
-4.600279e-06
-4.600279e-06
-2.940939e-06
-3.151380e-06
-2.940939e-06
-3.151380e-06
-2.235933e-06
-2.235933e-06
-2.538017e-07
-2.538017e-07
-1.567815e-07
-1.245984e-06
-1.567815e-07
-1.245984e-06
2.415161e-06
7.599872e-07
2.415161e-06
7.599872e-07
4.434768e-06
4.434768e-06
3.254517e-06
1.208254e-06
3.254517e-06
1.208254e-06
-2.389739e-07
-2.389739e-07
4.948378e-06
4.948378e-06
5.374415e-06
5.374415e-06
6.463273e-06
4.656842e-06
6.463273e-06
4.656842e-06
3.983536e-06
3.983536e-06
9.625862e-07
9.625862e-07
2.043618e-06
4.778132e-06
2.043618e-06
4.778132e-06
-9.006313e-07
-9.006313e-07
-1.104781e-06
-1.104781e-06
-1.623832e-06
-4.873069e-07
-1.623832e-06
-4.873069e-07
2.788549e-07
2.788549e-07
1.088514e-06
1.088514e-06
1.175532e-06
1.686790e-07
1.175532e-06
1.686790e-07
3.316978e-06
1.724686e-06
3.316978e-06
1.724686e-06
4.964283e-06
4.964283e-06
7.767912e-06
7.250941e-06
7.767912e-06
7.250941e-06
3.723380e-06
3.723380e-06
5.918480e-06
5.918480e-06
5.512887e-06
5.512887e-06
1.730260e-06
5.190112e-06
1.730260e-06
5.190112e-06
1.536605e-06
1.536605e-06
-1.750032e-06
-1.750032e-06
-5.460587e-06
-2.525933e-06
-5.460587e-06
-2.525933e-06
-3.465838e-06
-3.465838e-06
-3.621785e-06
-3.621785e-06
-5.087140e-06
-7.112506e-06
-5.087140e-06
-7.112506e-06
-1.112737e-06
-1.112737e-06
-3.426122e-07
-3.426122e-07
-2.692218e-08
-1.175174e-06
-2.692218e-08
-1.175174e-06
6.411153e-06
4.281992e-06
6.411153e-06
4.281992e-06
6.163440e-06
6.163440e-06
1.421972e-06
2.072025e-06
1.421972e-06
2.072025e-06
2.727457e-06
2.727457e-06
1.400670e-06
1.400670e-06
-2.754426e-06
-2.754426e-06
-6.002901e-06
-3.384049e-06
-6.002901e-06
-3.384049e-06
-4.292281e-06
-4.292281e-06
-6.818959e-06
-6.818959e-06
-6.339391e-06
-5.315807e-06
-6.339391e-06
-5.315807e-06
-7.001046e-06
-7.001046e-06
-3.959217e-06
-3.959217e-06
-1.953269e-06
-4.609064e-06
-1.953269e-06
-4.609064e-06
-1.456796e-06
-1.456796e-06
-1.616646e-07
-1.616646e-07
-3.138538e-07
-1.013200e-06
-3.138538e-07
-1.013200e-06
-3.948325e-06
-6.921467e-07
-3.948325e-06
-6.921467e-07
-5.032886e-06
-5.032886e-06
-1.250720e-05
-1.201806e-05
-1.250720e-05
-1.201806e-05
-4.845422e-06
-4.845422e-06
-6.371163e-06
-6.371163e-06
-6.264503e-06
-6.264503e-06
-3.724582e-06
-7.688387e-06
-3.724582e-06
-7.688387e-06
-4.112227e-06
-4.112227e-06
-3.303330e-06
-3.303330e-06
2.682454e-06
4.722336e-08
2.682454e-06
4.722336e-08
-5.024088e-07
-5.024088e-07
7.363496e-07
7.363496e-07
3.475734e-06
4.088515e-06
3.475734e-06
4.088515e-06
5.724966e-07
5.724966e-07
1.279582e-06
1.279582e-06
3.044956e-06
2.882532e-06
3.044956e-06
2.882532e-06
-1.547465e-05
-7.517546e-06
-1.547465e-05
-7.517546e-06
-1.523735e-05
-1.523735e-05
-1.389163e-05
-1.405520e-05
-1.389163e-05
-1.405520e-05
-8.130172e-06
-8.130172e-06
-9.000833e-06
-9.000833e-06
-2.757627e-06
-2.757627e-06
-1.898128e-06
-8.605989e-06
-1.898128e-06
-8.605989e-06
2.888361e-06
2.888361e-06
6.067062e-06
6.067062e-06
6.152699e-06
3.320696e-06
6.152699e-06
3.320696e-06
6.494157e-06
6.494157e-06
5.676988e-06
5.676988e-06
7.210687e-06
7.915227e-06
7.210687e-06
7.915227e-06
4.178250e-06
4.178250e-06
3.198292e-06
3.198292e-06
3.983063e-06
4.827368e-06
3.983063e-06
4.827368e-06
-1.198175e-05
-8.840273e-06
-1.198175e-05
-8.840273e-06
-1.003042e-05
-1.003042e-05
-3.337318e-06
-7.761922e-06
-3.337318e-06
-7.761922e-06
-8.071990e-06
-8.071990e-06
-5.588310e-06
-5.588310e-06
3.070067e-07
3.070067e-07
2.559045e-06
-1.761084e-07
2.559045e-06
-1.761084e-07
6.044263e-06
6.044263e-06
1.045204e-05
1.045204e-05
1.427922e-05
9.138251e-06
1.427922e-05
9.138251e-06
1.244264e-05
1.244264e-05
1.054224e-05
1.054224e-05
1.202987e-05
1.527617e-05
1.202987e-05
1.527617e-05
6.315462e-06
6.315462e-06
3.985426e-06
3.985426e-06
4.391062e-06
7.082605e-06
4.391062e-06
7.082605e-06
-2.478744e-06
-3.788795e-06
-2.478744e-06
-3.788795e-06
7.944204e-07
7.944204e-07
1.547193e-06
5.083378e-07
1.547193e-06
5.083378e-07
-1.269130e-06
-1.269130e-06
3.053976e-06
3.053976e-06
4.132717e-06
4.132717e-06
4.019754e-06
2.638318e-06
4.019754e-06
2.638318e-06
6.796984e-06
6.796984e-06
1.063719e-05
1.063719e-05
4.402011e-06
3.862641e-06
4.402011e-06
3.862641e-06
1.204203e-05
1.204203e-05
9.231305e-06
9.231305e-06
4.586041e-06
4.777088e-06
4.586041e-06
4.777088e-06
5.643516e-06
5.643516e-06
4.152584e-06
4.152584e-06
1.328935e-06
2.885938e-06
1.328935e-06
2.885938e-06
2.189855e-06
-2.321167e-07
2.189855e-06
-2.321167e-07
1.056626e-06
1.056626e-06
5.516556e-07
3.375588e-06
5.516556e-07
3.375588e-06
1.029597e-06
1.029597e-06
3.136539e-07
3.136539e-07
3.250873e-06
3.250873e-06
2.761237e-06
-1.475540e-06
2.761237e-06
-1.475540e-06
3.218946e-06
3.218946e-06
6.905473e-07
6.905473e-07
-4.475964e-07
2.826489e-06
-4.475964e-07
2.826489e-06
5.129690e-07
5.129690e-07
1.877656e-06
1.877656e-06
2.174841e-06
9.709029e-07
2.174841e-06
9.709029e-07
1.584175e-06
1.584175e-06
5.026322e-07
5.026322e-07
8.077335e-07
1.286083e-06
8.077335e-07
1.286083e-06
1.533233e-06
2.898627e-06
4.442161e-06
3.982687e-06
1.533233e-06
2.898627e-06
4.442161e-06
3.982687e-06
2.097260e-06
3.727956e-06
2.097260e-06
3.727956e-06
6.130684e-06
6.923801e-06
6.130684e-06
6.923801e-06
4.349368e-06
4.349368e-06
2.748969e-06
3.661878e-06
2.748969e-06
3.661878e-06
2.502684e-06
3.331850e-06
2.502684e-06
3.331850e-06
2.804420e-06
4.738981e-06
2.804420e-06
4.738981e-06
1.515542e-06
3.406594e-06
1.515542e-06
3.406594e-06
2.915410e-06
2.915410e-06
6.255705e-06
1.169869e-06
6.255705e-06
1.169869e-06
7.220544e-06
7.220544e-06
7.156395e-06
4.554142e-06
7.156395e-06
4.554142e-06
4.314943e-07
4.314943e-07
6.985197e-06
6.985197e-06
4.625848e-06
4.625848e-06
7.399320e-06
9.226702e-06
7.399320e-06
9.226702e-06
2.114828e-06
2.114828e-06
2.660995e-06
2.660995e-06
5.631758e-06
1.900241e-06
5.631758e-06
1.900241e-06
8.710842e-06
8.710842e-06
9.102780e-06
6.335183e-06
9.102780e-06
6.335183e-06
1.865176e-06
1.865176e-06
1.150942e-05
1.150942e-05
8.981552e-06
8.981552e-06
7.798647e-06
9.650019e-06
7.798647e-06
9.650019e-06
1.625503e-06
1.625503e-06
8.445137e-07
8.445137e-07
3.809562e-06
-7.839687e-08
3.809562e-06
-7.839687e-08
6.708843e-06
6.708843e-06
2.963797e-06
1.239903e-06
2.963797e-06
1.239903e-06
3.986801e-07
3.986801e-07
6.565432e-06
6.565432e-06
4.376547e-06
4.376547e-06
7.229031e-07
3.038793e-06
7.229031e-07
3.038793e-06
-1.767497e-06
-1.767497e-06
-4.606302e-06
-4.606302e-06
1.301073e-06
1.960695e-06
1.301073e-06
1.960695e-06
1.119052e-06
1.119052e-06
8.178698e-07
9.267205e-07
8.178698e-07
9.267205e-07
4.153689e-07
4.153689e-07
3.974418e-07
3.974418e-07
-2.034613e-06
-2.034613e-06
-1.400097e-06
1.030409e-06
-1.400097e-06
1.030409e-06
-3.324256e-06
-3.324256e-06
-2.056312e-06
-2.056312e-06
-9.904445e-07
-2.100093e-06
-9.904445e-07
-2.100093e-06
-8.063905e-07
-8.063905e-07
-1.706553e-06
-1.909728e-06
-1.706553e-06
-1.909728e-06
-3.359143e-06
-3.359143e-06
-5.403945e-07
-5.403945e-07
-5.356982e-07
-5.356982e-07
-9.548003e-07
-2.247201e-06
-9.548003e-07
-2.247201e-06
-1.228895e-06
-1.228895e-06
-7.950600e-07
-7.950600e-07
-8.114363e-06
-1.642365e-06
-8.114363e-06
-1.642365e-06
-2.281709e-06
-2.281709e-06
-3.717006e-07
-4.270987e-06
-3.717006e-07
-4.270987e-06
-1.306569e-06
-1.306569e-06
1.513287e-06
1.513287e-06
3.234984e-07
3.234984e-07
2.746679e-06
4.091257e-06
2.746679e-06
4.091257e-06
3.096452e-06
3.096452e-06
5.641164e-06
5.641164e-06
3.484122e-06
2.125663e-06
3.484122e-06
2.125663e-06
5.412373e-06
5.412373e-06
4.215626e-06
4.215626e-06
3.027549e-06
4.348143e-06
3.027549e-06
4.348143e-06
3.767144e-06
3.767144e-06
3.613632e-06
3.613632e-06
3.993315e-06
2.785032e-06
3.993315e-06
2.785032e-06
1.542324e-06
1.542324e-06
-4.588005e-07
-4.588005e-07
-8.678380e-07
1.782331e-06
-8.678380e-07
1.782331e-06
-1.092571e-07
-1.092571e-07
-1.662895e-08
-1.662895e-08
1.524079e-06
1.130340e-05
1.524079e-06
1.130340e-05
-1.097633e-06
-1.097633e-06
-4.163317e-06
-1.252071e-05
-4.163317e-06
-1.252071e-05
-1.018805e-06
-1.018805e-06
4.047655e-06
4.047655e-06
4.514233e-06
4.514233e-06
4.405559e-06
2.504431e-06
4.405559e-06
2.504431e-06
3.123655e-06
3.123655e-06
2.493691e-06
2.493691e-06
7.829907e-06
7.999070e-06
7.829907e-06
7.999070e-06
3.477183e-06
3.477183e-06
2.466520e-06
2.466520e-06
-2.845762e-06
2.983280e-06
-2.845762e-06
2.983280e-06
1.220245e-06
1.220245e-06
2.128809e-06
2.128809e-06
-1.070679e-06
-4.567113e-06
-1.070679e-06
-4.567113e-06
8.811521e-07
8.811521e-07
-3.699365e-07
-3.699365e-07
2.161173e-06
1.312129e-06
2.161173e-06
1.312129e-06
5.360233e-07
5.360233e-07
2.178624e-06
2.178624e-06
2.894760e-06
2.894760e-06
-9.646170e-08
-9.646170e-08
2.798654e-07
3.169205e-06
2.798654e-07
3.169205e-06
2.000958e-06
2.000958e-06
1.715319e-06
1.715319e-06
-1.108987e-06
-2.535476e-06
-1.108987e-06
-2.535476e-06
-8.834294e-06
-8.834294e-06
-5.585082e-06
-5.585082e-06
-5.758806e-06
-8.261492e-06
-5.758806e-06
-8.261492e-06
3.278389e-06
3.278389e-06
1.474994e-06
1.474994e-06
1.175908e-05
1.382072e-05
1.175908e-05
1.382072e-05
1.438739e-05
1.438739e-05
1.459391e-05
1.459391e-05
9.479342e-06
7.900672e-06
9.479342e-06
7.900672e-06
1.599345e-06
1.599345e-06
4.403781e-06
4.403781e-06
-2.892337e-06
-6.637443e-06
-2.892337e-06
-6.637443e-06
-1.532460e-05
-1.532460e-05
-3.733354e-06
-3.733354e-06
2.220991e-07
-4.249578e-06
2.220991e-07
-4.249578e-06
2.001494e-06
7.392669e-06
2.001494e-06
7.392669e-06
1.754709e-06
-6.487250e-07
1.754709e-06
-6.487250e-07
9.263915e-07
-1.793084e-06
9.263915e-07
-1.793084e-06
1.910720e-06
1.404120e-06
1.675512e-06
4.332123e-06
1.910720e-06
1.404120e-06
1.675512e-06
4.332123e-06
2.764604e-06
-2.157912e-07
2.764604e-06
-2.157912e-07
-1.473463e-08
1.406025e-06
-1.473463e-08
1.406025e-06
3.000379e-06
3.000379e-06
1.522390e-07
-2.672196e-07
-7.135720e-07
-1.728337e-06
1.522390e-07
-2.672196e-07
-7.135720e-07
-1.728337e-06
-4.251867e-07
3.924784e-07
-4.251867e-07
3.924784e-07
-5.659701e-08
5.344897e-07
-5.659701e-08
5.344897e-07
2.188673e-07
2.188673e-07
4.322317e-06
1.122901e-06
1.118257e-06
2.489102e-06
4.322317e-06
1.122901e-06
1.118257e-06
2.489102e-06
1.168321e-06
1.068424e-06
1.168321e-06
1.068424e-06
-1.402669e-06
-2.420451e-07
-1.402669e-06
-2.420451e-07
1.583560e-06
1.583560e-06
-2.804856e-06
-3.476152e-06
5.195372e-08
-2.804856e-06
-3.476152e-06
5.195372e-08
-2.369292e-06
-2.404497e-07
-2.369292e-06
-2.404497e-07
2.868258e-06
-1.041696e-06
2.868258e-06
-1.041696e-06
-1.082907e-06
-1.082907e-06
1.492505e-05
7.411916e-06
5.802406e-06
1.137328e-05
1.492505e-05
7.411916e-06
5.802406e-06
1.137328e-05
6.055516e-06
6.055516e-06
1.064458e-05
1.064458e-05
2.508157e-07
3.315286e-07
2.574376e-06
2.629229e-06
2.508157e-07
3.315286e-07
2.574376e-06
2.629229e-06
7.873911e-06
2.571007e-06
7.873911e-06
2.571007e-06
4.097936e-06
4.273266e-06
4.097936e-06
4.273266e-06
3.830417e-06
3.830417e-06
-4.019138e-06
4.532414e-06
1.243847e-05
-7.064213e-06
-4.019138e-06
4.532414e-06
1.243847e-05
-7.064213e-06
1.109637e-05
1.109637e-05
1.885909e-05
1.885909e-05
3.611134e-06
3.611134e-06
7.505327e-07
-5.283944e-07
7.505327e-07
-5.283944e-07
1.275404e-06
1.275404e-06
2.690066e-07
5.076177e-07
2.690066e-07
5.076177e-07
1.519264e-06
1.519264e-06
-1.445303e-07
-1.194959e-06
5.801845e-07
1.392849e-06
-1.445303e-07
-1.194959e-06
5.801845e-07
1.392849e-06
-6.698559e-07
-6.698559e-07
1.728431e-07
1.548987e-06
1.728431e-07
1.548987e-06
1.689997e-06
1.689997e-06
1.768218e-07
7.597049e-07
2.593094e-07
-3.407889e-07
1.768218e-07
7.597049e-07
2.593094e-07
-3.407889e-07
3.856396e-07
6.712202e-07
3.856396e-07
6.712202e-07
4.353510e-07
4.353510e-07
7.598953e-07
7.515777e-07
7.598953e-07
7.515777e-07
1.227307e-06
1.227307e-06
1.658102e-05
1.317178e-05
1.082271e-05
9.762697e-06
1.658102e-05
1.317178e-05
1.082271e-05
9.762697e-06
2.728909e-05
2.728909e-05
1.492651e-05
1.492651e-05
2.101141e-05
1.010510e-05
2.101141e-05
1.010510e-05
1.303009e-05
1.303009e-05
5.210439e-06
1.445370e-05
5.210439e-06
1.445370e-05
4.734634e-06
2.010214e-06
2.460107e-06
4.734634e-06
2.010214e-06
2.460107e-06
-7.773555e-07
-7.773555e-07
7.064956e-07
7.064956e-07
8.713382e-07
-2.455818e-06
1.359424e-06
4.438392e-06
8.713382e-07
-2.455818e-06
1.359424e-06
4.438392e-06
-2.711067e-06
7.383638e-07
-2.711067e-06
7.383638e-07
1.602849e-06
1.602849e-06
4.257708e-06
4.257708e-06
2.445504e-06
3.885531e-06
-5.030214e-06
-6.213175e-06
2.445504e-06
3.885531e-06
-5.030214e-06
-6.213175e-06
8.460635e-07
-3.849344e-06
8.460635e-07
-3.849344e-06
-1.484890e-06
-5.887276e-06
-1.484890e-06
-5.887276e-06
-8.331070e-06
-8.331070e-06
3.335595e-06
-1.237182e-06
6.803998e-08
9.602593e-07
3.335595e-06
-1.237182e-06
6.803998e-08
9.602593e-07
4.949650e-06
4.949650e-06
2.997713e-06
2.997713e-06
3.332776e-06
3.332776e-06
1.489881e-06
1.489881e-06
3.555819e-06
2.343568e-06
3.555819e-06
2.343568e-06
2.511554e-05
1.377181e-05
4.124669e-05
5.163996e-05
2.511554e-05
1.377181e-05
4.124669e-05
5.163996e-05
5.643822e-06
2.531271e-05
5.643822e-06
2.531271e-05
1.540776e-05
2.582483e-05
1.540776e-05
2.582483e-05
3.615608e-05
3.615608e-05
2.072872e-06
3.613847e-07
2.072872e-06
3.613847e-07
4.636820e-06
4.636820e-06
-7.468959e-06
-6.526172e-06
-7.468959e-06
-6.526172e-06
-1.068946e-06
-1.068946e-06
4.509315e-06
4.341855e-06
4.509315e-06
4.341855e-06
3.375796e-06
3.375796e-06
-8.291922e-07
-8.291922e-07
5.969621e-07
5.969621e-07
4.711025e-05
1.787177e-05
4.711025e-05
1.787177e-05
3.237615e-05
3.237615e-05
1.597325e-06
-2.547541e-07
1.597325e-06
-2.547541e-07
2.398704e-06
-1.924628e-07
2.398704e-06
-1.924628e-07
1.053991e-06
3.085915e-06
2.523882e-06
1.415761e-06
1.053991e-06
3.085915e-06
2.523882e-06
1.415761e-06
3.666869e-06
1.848420e-06
3.666869e-06
1.848420e-06
1.390743e-06
1.390743e-06
-4.146583e-08
-5.070749e-07
-4.146583e-08
-5.070749e-07
1.628955e-06
1.628955e-06
-1.138929e-06
-1.138929e-06
-2.653388e-06
-2.653388e-06
3.463900e-06
-9.541759e-07
3.463900e-06
-9.541759e-07
9.705501e-07
-2.203579e-06
9.705501e-07
-2.203579e-06
1.464849e-05
1.464849e-05
1.035879e-05
1.035879e-05
4.710219e-06
4.710219e-06
6.433680e-06
6.433680e-06
-5.403854e-07
-5.403854e-07
-6.170483e-07
-6.170483e-07
-9.470485e-08
2.951534e-07
-9.470485e-08
2.951534e-07
6.540035e-06
-1.453269e-06
6.540035e-06
-1.453269e-06
-5.683244e-07
-5.683244e-07
-2.455395e-06
-2.455395e-06
1.128967e-06
1.128967e-06
3.669700e-06
3.669700e-06
1.280274e-06
2.727338e-06
1.280274e-06
2.727338e-06
-1.090468e-06
-1.090468e-06
9.322152e-07
-8.979275e-07
9.322152e-07
-8.979275e-07
2.361142e-06
2.361142e-06
-2.233119e-07
3.283960e-07
-2.233119e-07
3.283960e-07
-2.094459e-06
1.735782e-06
-2.094459e-06
1.735782e-06
3.587036e-06
6.899757e-07
3.587036e-06
6.899757e-07
-2.420684e-06
3.940938e-07
-2.420684e-06
3.940938e-07
-1.146448e-06
-8.480209e-09
-1.146448e-06
-8.480209e-09
9.081268e-07
2.201761e-06
9.081268e-07
2.201761e-06
-8.647082e-07
8.418111e-08
-8.647082e-07
8.418111e-08
-1.583509e-06
-4.222919e-07
-1.583509e-06
-4.222919e-07
-3.229428e-07
9.785400e-07
-3.229428e-07
9.785400e-07
-1.050581e-07
-7.028476e-07
-1.050581e-07
-7.028476e-07
7.843819e-07
-3.878075e-07
7.843819e-07
-3.878075e-07
-6.923667e-07
-1.073033e-06
-6.923667e-07
-1.073033e-06
-8.473050e-07
-9.398561e-07
-8.473050e-07
-9.398561e-07
-5.932474e-07
-1.516002e-07
-5.932474e-07
-1.516002e-07
4.507828e-07
-9.358873e-07
4.507828e-07
-9.358873e-07
-1.109901e-06
-1.241476e-07
-1.109901e-06
-1.241476e-07
-2.574753e-06
-1.004416e-06
-2.574753e-06
-1.004416e-06
-1.437643e-07
2.271944e-07
-1.437643e-07
2.271944e-07
-1.099409e-06
-1.622331e-07
-1.099409e-06
-1.622331e-07
1.047236e-06
1.194416e-07
1.047236e-06
1.194416e-07
-1.363421e-06
1.412760e-07
-1.363421e-06
1.412760e-07
1.629331e-06
6.917009e-08
1.629331e-06
6.917009e-08
1.698590e-06
1.245079e-06
1.698590e-06
1.245079e-06
-1.043590e-07
-1.618692e-06
-1.043590e-07
-1.618692e-06
7.047117e-07
1.591258e-06
7.047117e-07
1.591258e-06
4.759845e-07
1.688147e-06
4.759845e-07
1.688147e-06
1.370467e-06
7.249029e-07
1.370467e-06
7.249029e-07
1.395655e-06
1.500258e-06
1.395655e-06
1.500258e-06
5.820258e-07
5.848307e-07
5.820258e-07
5.848307e-07
6.334249e-07
1.003959e-06
6.334249e-07
1.003959e-06
1.433335e-07
5.533698e-07
1.433335e-07
5.533698e-07
-3.395927e-08
7.140182e-07
-3.395927e-08
7.140182e-07
7.137151e-07
1.621270e-06
7.137151e-07
1.621270e-06
-8.683416e-07
1.258747e-06
-8.683416e-07
1.258747e-06
-7.875043e-07
4.027689e-07
-7.875043e-07
4.027689e-07
-6.086831e-07
-8.969581e-08
-6.086831e-07
-8.969581e-08
-3.116050e-07
-1.685182e-06
-3.116050e-07
-1.685182e-06
1.289195e-06
-1.750196e-07
1.289195e-06
-1.750196e-07
-3.220693e-07
-1.601486e-06
-3.220693e-07
-1.601486e-06
2.792378e-06
2.090740e-06
2.792378e-06
2.090740e-06
2.539627e-06
2.141158e-06
2.539627e-06
2.141158e-06
1.928014e-06
1.356963e-06
1.928014e-06
1.356963e-06
-3.054714e-07
-3.054714e-07
-2.046408e-07
-2.046408e-07
-7.600858e-07
5.548505e-08
-7.600858e-07
5.548505e-08
-3.528789e-07
-3.528789e-07
-2.686199e-07
-2.686199e-07
-7.652040e-07
-6.573043e-07
-7.652040e-07
-6.573043e-07
1.923039e-08
1.923039e-08
-4.909679e-07
-4.909679e-07
-1.034843e-06
-1.514944e-06
-1.034843e-06
-1.514944e-06
-9.637034e-07
-9.637034e-07
-1.246633e-08
-1.246633e-08
4.491217e-07
-1.565288e-06
4.491217e-07
-1.565288e-06
-1.764166e-07
-1.764166e-07
2.135666e-08
2.135666e-08
1.035886e-07
1.861375e-06
1.035886e-07
1.861375e-06
2.469274e-07
2.469274e-07
-4.532404e-07
-4.532404e-07
3.401435e-07
4.841012e-07
3.401435e-07
4.841012e-07
1.024708e-07
1.024708e-07
-1.707925e-08
-1.707925e-08
9.119496e-07
6.651842e-07
9.119496e-07
6.651842e-07
3.743287e-07
3.743287e-07
1.072478e-06
1.072478e-06
2.393328e-06
1.834786e-06
2.393328e-06
1.834786e-06
5.773202e-07
5.773202e-07
1.433145e-07
1.433145e-07
-3.330098e-07
1.338625e-06
-3.330098e-07
1.338625e-06
-6.599433e-07
-6.599433e-07
9.777368e-08
9.777368e-08
-5.597128e-07
-2.012577e-06
-5.597128e-07
-2.012577e-06
1.004681e-06
1.004681e-06
-5.023006e-07
-5.023006e-07
-5.663309e-07
5.951035e-08
-5.663309e-07
5.951035e-08
-2.147255e-06
-2.147255e-06
-1.627213e-06
-1.627213e-06
-1.949325e-06
-1.020124e-06
-1.949325e-06
-1.020124e-06
-7.041476e-07
-7.041476e-07
-7.098512e-07
-7.098512e-07
-1.180991e-06
-1.760479e-06
-1.180991e-06
-1.760479e-06
-2.033693e-07
-2.033693e-07
2.759108e-07
2.759108e-07
-1.896538e-06
-1.404683e-06
-1.896538e-06
-1.404683e-06
1.001535e-06
1.001535e-06
8.703588e-07
8.703588e-07
-2.474028e-07
-5.239021e-07
-2.474028e-07
-5.239021e-07
1.061204e-06
1.061204e-06
6.344500e-07
6.344500e-07
1.045141e-06
1.720216e-06
1.045141e-06
1.720216e-06
-4.869918e-07
-4.869918e-07
-8.302662e-07
-8.302662e-07
-7.068858e-07
-5.334695e-07
-7.068858e-07
-5.334695e-07
-1.483421e-06
-1.483421e-06
-5.019977e-07
-5.019977e-07
-9.690315e-07
-5.887614e-07
-9.690315e-07
-5.887614e-07
1.911951e-06
1.911951e-06
1.576877e-06
1.576877e-06
1.005308e-06
-3.132015e-07
1.005308e-06
-3.132015e-07
8.831553e-07
8.831553e-07
1.581980e-06
1.581980e-06
1.829369e-06
2.002610e-06
1.829369e-06
2.002610e-06
2.010410e-06
2.010410e-06
1.519901e-06
1.519901e-06
1.316996e-06
9.741941e-07
1.316996e-06
9.741941e-07
1.003235e-06
1.003235e-06
1.106090e-06
1.106090e-06
9.852447e-07
8.602529e-07
9.852447e-07
8.602529e-07
1.286466e-06
1.286466e-06
-1.448689e-08
-1.448689e-08
-1.430724e-06
3.331265e-07
-1.430724e-06
3.331265e-07
-9.755564e-07
-9.755564e-07
-5.481737e-07
-5.481737e-07
-3.564029e-07
-9.520447e-07
-3.564029e-07
-9.520447e-07
-7.001852e-07
-7.001852e-07
-9.892657e-07
-9.892657e-07
-8.996943e-07
-6.547223e-07
-8.996943e-07
-6.547223e-07
1.194132e-07
1.194132e-07
-1.738810e-07
-1.738810e-07
1.749953e-06
2.525028e-07
1.749953e-06
2.525028e-07
-1.379605e-06
-1.379605e-06
-4.057110e-07
-4.057110e-07
-4.151445e-07
5.502214e-07
-4.151445e-07
5.502214e-07
8.282749e-08
8.282749e-08
-2.472766e-07
-2.472766e-07
6.953357e-07
3.847564e-07
6.953357e-07
3.847564e-07
-1.815077e-06
-1.815077e-06
-2.083231e-06
-2.083231e-06
-1.870008e-06
-1.308610e-06
-1.870008e-06
-1.308610e-06
-8.523759e-07
-8.523759e-07
-7.796934e-07
-7.796934e-07
-1.508954e-06
-1.359802e-06
-1.508954e-06
-1.359802e-06
-7.159522e-07
-7.159522e-07
-1.174166e-07
-1.174166e-07
3.730935e-07
-8.472014e-07
3.730935e-07
-8.472014e-07
1.222724e-07
1.222724e-07
-2.478264e-07
-2.478264e-07
-1.559096e-06
-5.590248e-07
-1.559096e-06
-5.590248e-07
-3.282225e-07
-3.282225e-07
-9.104143e-08
-9.104143e-08
-6.487885e-07
-2.316958e-07
-6.487885e-07
-2.316958e-07
1.232750e-06
1.232750e-06
9.418589e-07
9.418589e-07
1.240123e-06
-6.175281e-07
1.240123e-06
-6.175281e-07
-6.604054e-07
-6.604054e-07
9.606101e-07
9.606101e-07
1.455558e-06
1.399503e-06
1.455558e-06
1.399503e-06
1.706849e-06
1.706849e-06
2.368804e-07
2.368804e-07
-6.409582e-07
1.415905e-06
-6.409582e-07
1.415905e-06
-1.659419e-06
-1.659419e-06
-2.430749e-06
-2.430749e-06
-2.196133e-06
-2.519706e-06
-2.196133e-06
-2.519706e-06
-9.596713e-07
-9.596713e-07
6.024918e-07
6.024918e-07
1.070745e-06
-1.628337e-07
1.070745e-06
-1.628337e-07
9.356173e-07
9.356173e-07
-3.310423e-07
-3.310423e-07
-7.184174e-07
8.996194e-07
-7.184174e-07
8.996194e-07
-1.024636e-06
-1.024636e-06
9.290778e-07
9.290778e-07
1.659154e-07
-1.632918e-06
1.659154e-07
-1.632918e-06
1.016197e-06
1.016197e-06
-1.454340e-07
-1.454340e-07
-1.390032e-07
5.187682e-09
-1.390032e-07
5.187682e-09
4.536529e-07
4.536529e-07
6.880949e-07
6.880949e-07
-5.024481e-07
2.650211e-07
-5.024481e-07
2.650211e-07
-2.189128e-07
-2.189128e-07
-6.327140e-07
-6.327140e-07
1.450809e-07
9.047066e-07
1.450809e-07
9.047066e-07
2.603913e-07
2.603913e-07
-6.623806e-08
-6.623806e-08
4.347812e-07
4.828912e-07
4.347812e-07
4.828912e-07
-7.125495e-07
-7.125495e-07
2.051651e-07
2.051651e-07
2.650613e-07
-5.633748e-07
2.650613e-07
-5.633748e-07
-1.021483e-07
-1.021483e-07
-1.724385e-06
-1.724385e-06
-4.594191e-07
1.492601e-06
-4.594191e-07
1.492601e-06
-1.141123e-06
-1.141123e-06
-2.067906e-07
-2.067906e-07
6.009506e-07
-1.299552e-06
6.009506e-07
-1.299552e-06
5.537559e-07
5.537559e-07
2.667562e-06
2.667562e-06
2.924300e-06
1.628582e-06
2.924300e-06
1.628582e-06
2.550610e-06
2.550610e-06
8.617596e-08
8.617596e-08
-1.929255e-06
1.316669e-06
-1.929255e-06
1.316669e-06
-1.331481e-06
-1.331481e-06
-1.885412e-06
-1.885412e-06
-3.621993e-06
-3.864281e-06
-3.621993e-06
-3.864281e-06
-1.835215e-06
-1.835215e-06
-1.001430e-06
-1.001430e-06
-3.315195e-07
-1.473708e-06
-3.315195e-07
-1.473708e-06
6.427752e-07
6.427752e-07
7.357766e-07
7.357766e-07
4.431075e-07
3.973879e-07
4.431075e-07
3.973879e-07
-4.161128e-07
-4.161128e-07
-5.889230e-07
-5.889230e-07
-1.032066e-06
-1.080336e-06
-1.032066e-06
-1.080336e-06
-1.503304e-07
-1.503304e-07
-2.981444e-07
-2.981444e-07
-4.260644e-07
6.517010e-07
-4.260644e-07
6.517010e-07
-1.032023e-06
-1.032023e-06
-3.929878e-07
-3.929878e-07
-2.477297e-07
-1.060354e-06
-2.477297e-07
-1.060354e-06
2.391631e-07
2.391631e-07
4.765106e-08
4.765106e-08
2.717805e-06
1.213177e-06
2.717805e-06
1.213177e-06
1.016166e-06
6.281866e-07
1.016166e-06
6.281866e-07
-4.321060e-07
-4.321060e-07
-1.169736e-07
5.045804e-07
-1.169736e-07
5.045804e-07
1.444487e-06
1.444487e-06
-8.924742e-07
-8.924742e-07
1.593955e-07
1.593955e-07
6.441357e-07
-1.387898e-07
6.441357e-07
-1.387898e-07
1.164503e-06
1.164503e-06
6.989309e-07
6.989309e-07
-2.114971e-06
-1.080603e-06
-2.114971e-06
-1.080603e-06
-2.079930e-06
-2.079930e-06
-2.829360e-06
-2.829360e-06
3.092272e-07
-4.133768e-07
3.092272e-07
-4.133768e-07
-2.662734e-07
-2.662734e-07
7.341845e-07
7.341845e-07
1.107508e-06
3.092889e-07
1.107508e-06
3.092889e-07
3.030976e-07
3.030976e-07
9.815654e-07
9.815654e-07
8.841793e-07
1.452224e-06
8.841793e-07
1.452224e-06
1.895760e-07
1.895760e-07
-2.675552e-06
-2.675552e-06
-2.050635e-06
-3.383484e-07
-2.050635e-06
-3.383484e-07
-3.952229e-06
-3.952229e-06
-3.890605e-06
-3.890605e-06
-4.594522e-06
-3.639721e-06
-4.594522e-06
-3.639721e-06
-8.217743e-08
1.737749e-06
-8.217743e-08
1.737749e-06
2.121029e-08
2.121029e-08
-5.190388e-07
3.694804e-07
-5.190388e-07
3.694804e-07
1.715293e-06
1.715293e-06
-1.313123e-07
-1.313123e-07
2.695589e-08
2.695589e-08
7.778429e-07
-7.770822e-08
7.778429e-07
-7.770822e-08
-1.319380e-06
-1.319380e-06
-2.524857e-06
-2.524857e-06
-3.106256e-08
4.409650e-07
-3.106256e-08
4.409650e-07
-5.661250e-07
-5.661250e-07
1.331175e-06
1.331175e-06
3.715425e-07
-5.753564e-07
3.715425e-07
-5.753564e-07
1.313889e-06
1.313889e-06
6.755442e-07
6.755442e-07
-3.745381e-08
1.272240e-06
-3.745381e-08
1.272240e-06
5.508797e-07
5.508797e-07
1.004471e-06
1.004471e-06
3.827447e-07
-1.871698e-07
3.827447e-07
-1.871698e-07
1.463309e-06
1.463309e-06
5.400999e-07
5.400999e-07
1.590773e-06
1.467654e-06
1.590773e-06
1.467654e-06
-1.625520e-06
-1.625520e-06
-2.736716e-06
-2.736716e-06
-3.882280e-08
2.688805e-07
-3.882280e-08
2.688805e-07
2.307069e-06
5.840826e-06
2.307069e-06
5.840826e-06
-2.081277e-07
-2.081277e-07
6.320749e-07
4.004986e-06
6.320749e-07
4.004986e-06
9.566919e-06
9.566919e-06
1.667912e-06
1.667912e-06
1.353999e-06
1.353999e-06
4.781330e-07
1.587861e-06
4.781330e-07
1.587861e-06
4.077002e-07
4.077002e-07
1.356986e-06
1.356986e-06
1.810822e-06
-5.615346e-07
1.810822e-06
-5.615346e-07
-3.027573e-09
-3.027573e-09
-7.369776e-07
-7.369776e-07
6.374708e-08
2.227558e-06
6.374708e-08
2.227558e-06
-1.176915e-06
-1.176915e-06
-6.633713e-07
-6.633713e-07
-2.080519e-06
-2.592401e-06
-2.080519e-06
-2.592401e-06
9.301866e-07
9.301866e-07
6.877297e-08
6.877297e-08
2.873869e-07
3.724721e-07
2.873869e-07
3.724721e-07
-5.710250e-07
-5.710250e-07
1.185247e-06
1.185247e-06
1.010810e-06
-1.182477e-06
1.010810e-06
-1.182477e-06
1.813242e-06
1.813242e-06
1.164359e-06
1.164359e-06
2.476207e-06
3.018068e-06
2.476207e-06
3.018068e-06
3.945324e-06
9.609030e-06
3.945324e-06
9.609030e-06
2.290548e-07
2.290548e-07
-9.525728e-07
2.377613e-06
-9.525728e-07
2.377613e-06
7.788441e-06
7.788441e-06
-1.273189e-06
-1.273189e-06
-1.447886e-06
-1.447886e-06
-3.435291e-06
-3.176961e-06
-3.435291e-06
-3.176961e-06
-1.502835e-06
-1.502835e-06
3.343207e-08
3.343207e-08
-2.026812e-06
-2.650903e-06
-2.026812e-06
-2.650903e-06
2.273437e-06
2.273437e-06
1.246988e-06
1.246988e-06
9.409279e-07
2.558327e-07
9.409279e-07
2.558327e-07
-1.998671e-06
-1.998671e-06
-2.417552e-06
-2.417552e-06
-3.118447e-07
-6.135154e-07
-3.118447e-07
-6.135154e-07
1.035795e-07
1.035795e-07
2.769934e-07
2.769934e-07
3.769380e-08
9.407769e-07
3.769380e-08
9.407769e-07
-8.443037e-07
-8.443037e-07
9.975527e-07
9.975527e-07
7.220543e-07
-4.385364e-07
7.220543e-07
-4.385364e-07
3.158701e-06
3.158701e-06
3.918438e-06
3.918438e-06
2.243316e-06
1.578424e-06
2.243316e-06
1.578424e-06
2.670823e-06
6.500060e-06
2.670823e-06
6.500060e-06
-1.634950e-06
-1.634950e-06
-5.671821e-07
3.957851e-06
-5.671821e-07
3.957851e-06
7.063993e-06
7.063993e-06
-3.165711e-06
-3.165711e-06
-1.192532e-06
-1.192532e-06
2.464827e-06
-9.873548e-07
2.464827e-06
-9.873548e-07
-5.431280e-07
-5.431280e-07
-8.411110e-07
-8.411110e-07
9.062786e-07
1.985457e-06
9.062786e-07
1.985457e-06
2.848200e-07
2.848200e-07
-6.588332e-07
-6.588332e-07
-6.651388e-07
1.661589e-06
-6.651388e-07
1.661589e-06
-9.598809e-07
-9.598809e-07
5.473929e-08
5.473929e-08
-4.476057e-09
-1.452866e-06
-4.476057e-09
-1.452866e-06
7.426807e-07
7.426807e-07
3.248907e-08
3.248907e-08
8.095533e-07
9.054994e-07
8.095533e-07
9.054994e-07
-5.298050e-07
-5.298050e-07
1.264301e-06
1.264301e-06
1.430738e-06
8.957767e-07
1.430738e-06
8.957767e-07
3.884331e-07
3.884331e-07
-1.412920e-06
-1.412920e-06
-1.753145e-06
-3.046227e-07
-1.753145e-06
-3.046227e-07
2.888099e-06
5.355964e-06
2.888099e-06
5.355964e-06
8.334089e-07
8.334089e-07
1.896096e-06
3.179921e-07
1.896096e-06
3.179921e-07
1.173949e-06
1.173949e-06
-2.862573e-07
-2.862573e-07
2.330097e-06
2.330097e-06
-3.275381e-07
-1.376027e-06
-3.275381e-07
-1.376027e-06
2.607884e-06
2.607884e-06
8.611251e-07
8.611251e-07
6.390712e-07
3.092396e-06
6.390712e-07
3.092396e-06
1.202149e-06
1.202149e-06
3.177400e-07
3.177400e-07
2.083708e-07
-9.091330e-07
2.083708e-07
-9.091330e-07
-7.075122e-07
-7.075122e-07
6.442345e-08
6.442345e-08
2.591019e-08
3.663180e-07
2.591019e-08
3.663180e-07
-3.169397e-07
-3.169397e-07
-7.145700e-08
-7.145700e-08
-1.119736e-06
-1.938962e-06
-1.119736e-06
-1.938962e-06
9.796677e-07
9.796677e-07
-3.685887e-08
-3.685887e-08
1.811431e-07
1.318246e-06
1.811431e-07
1.318246e-06
-2.612636e-07
-2.612636e-07
5.590860e-07
5.590860e-07
1.274247e-06
1.184108e-07
1.274247e-06
1.184108e-07
6.694141e-07
1.241675e-06
7.044785e-07
-8.007815e-07
6.694141e-07
1.241675e-06
7.044785e-07
-8.007815e-07
5.097867e-08
-2.348122e-07
5.097867e-08
-2.348122e-07
4.869261e-09
-7.308730e-07
4.869261e-09
-7.308730e-07
-4.973641e-07
-4.973641e-07
-1.030179e-06
-2.221105e-07
-1.030179e-06
-2.221105e-07
2.624550e-07
2.624550e-07
-4.319549e-07
1.120888e-07
-4.319549e-07
1.120888e-07
1.210159e-07
1.210159e-07
2.487618e-06
1.142042e-06
2.487618e-06
1.142042e-06
-3.799655e-08
-3.799655e-08
2.886746e-06
2.965553e-06
2.886746e-06
2.965553e-06
4.842386e-08
4.842386e-08
2.103143e-07
-8.430741e-07
2.103143e-07
-8.430741e-07
2.338874e-06
2.338874e-06
-7.526241e-08
1.252431e-06
-7.526241e-08
1.252431e-06
1.169372e-06
1.169372e-06
3.119360e-06
3.004485e-06
3.119360e-06
3.004485e-06
-3.281011e-07
-3.281011e-07
6.165228e-07
1.130259e-06
6.165228e-07
1.130259e-06
5.253966e-07
5.253966e-07
1.224656e-06
3.564802e-08
1.224656e-06
3.564802e-08
1.122304e-06
1.122304e-06
-7.200066e-08
1.326967e-06
-7.200066e-08
1.326967e-06
1.950512e-06
1.950512e-06
5.931679e-07
-1.521158e-07
5.931679e-07
-1.521158e-07
-8.747822e-07
-8.747822e-07
-3.015571e-06
-2.761914e-06
-3.015571e-06
-2.761914e-06
-2.780437e-06
-2.780437e-06
-1.479546e-06
-9.219180e-07
-1.479546e-06
-9.219180e-07
-3.849867e-07
-3.716051e-07
-3.849867e-07
-3.716051e-07
-6.151771e-07
3.393254e-07
-6.151771e-07
3.393254e-07
1.398195e-06
8.230782e-07
1.398195e-06
8.230782e-07
-6.947317e-07
-6.947317e-07
4.255547e-07
4.255547e-07
-1.188930e-06
-1.188930e-06
-1.500291e-06
-6.821979e-07
-1.500291e-06
-6.821979e-07
-2.259848e-06
-2.259848e-06
-2.884922e-06
-2.884922e-06
-9.252484e-07
-9.252484e-07
-6.911492e-07
-6.911492e-07
-9.238603e-07
6.181089e-07
-9.238603e-07
6.181089e-07
-1.595627e-06
-1.595627e-06
-1.504577e-06
-1.504577e-06
1.102692e-06
1.102692e-06
-1.740560e-06
-1.740560e-06
-2.526714e-06
-1.661967e-06
-2.526714e-06
-1.661967e-06
-2.311597e-06
-2.311597e-06
-1.163322e-06
-1.163322e-06
-2.289883e-06
-2.289883e-06
-1.669044e-06
-1.669044e-06
1.861770e-07
1.493400e-06
1.861770e-07
1.493400e-06
-6.291213e-07
-6.291213e-07
-1.833376e-06
-1.833376e-06
-8.339346e-07
-8.339346e-07
-1.847735e-06
-1.847735e-06
-6.015147e-07
-2.323007e-06
-6.015147e-07
-2.323007e-06
-1.819576e-06
-1.819576e-06
2.222854e-07
2.222854e-07
-9.132850e-07
-9.132850e-07
2.289395e-06
2.289395e-06
3.223613e-06
-1.251322e-06
3.223613e-06
-1.251322e-06
1.005866e-06
1.005866e-06
4.006174e-07
4.006174e-07
2.252196e-06
2.252196e-06
1.461138e-06
1.461138e-06
3.901867e-07
3.389406e-06
3.901867e-07
3.389406e-06
-2.085497e-06
-2.085497e-06
-2.567981e-06
-2.567981e-06
-2.494130e-07
-2.494130e-07
-1.073821e-06
-1.073821e-06
5.496623e-08
-4.737583e-07
5.496623e-08
-4.737583e-07
-1.315060e-06
-1.315060e-06
6.157496e-07
6.157496e-07
4.819310e-07
-2.905023e-07
4.819310e-07
-2.905023e-07
5.058715e-07
5.058715e-07
2.005734e-07
2.005734e-07
-6.362638e-07
1.317032e-07
-6.362638e-07
1.317032e-07
1.961242e-07
1.961242e-07
7.323395e-07
7.323395e-07
1.005529e-07
-2.574183e-08
1.005529e-07
-2.574183e-08
3.186112e-07
3.186112e-07
-6.916999e-07
-6.916999e-07
-1.597687e-06
1.713582e-07
-1.597687e-06
1.713582e-07
-4.700410e-07
-4.700410e-07
-7.234153e-07
-7.234153e-07
-7.395046e-07
-1.682695e-06
-7.395046e-07
-1.682695e-06
-3.634862e-07
-3.634862e-07
-9.492115e-07
-9.492115e-07
-1.424713e-06
-1.204410e-06
-1.424713e-06
-1.204410e-06
-4.209941e-07
-4.209941e-07
-4.564359e-07
-4.564359e-07
1.297358e-06
-1.298303e-07
1.297358e-06
-1.298303e-07
-4.675841e-07
-4.675841e-07
-5.374174e-07
-5.374174e-07
1.171820e-07
1.855115e-06
1.171820e-07
1.855115e-06
-2.172523e-06
-2.172523e-06
-9.289208e-07
-9.289208e-07
-5.084662e-07
-1.377867e-06
-5.084662e-07
-1.377867e-06
2.180172e-06
2.180172e-06
2.460508e-06
2.460508e-06
1.505083e-06
1.650405e-06
1.505083e-06
1.650405e-06
1.642969e-06
1.642969e-06
7.347165e-07
7.347165e-07
1.168099e-06
7.808431e-07
1.168099e-06
7.808431e-07
4.632636e-07
4.632636e-07
1.471790e-07
1.471790e-07
1.533904e-07
8.456619e-07
1.533904e-07
8.456619e-07
-1.215716e-06
-1.215716e-06
-1.522005e-06
-1.522005e-06
-1.069363e-06
-3.578451e-07
-1.069363e-06
-3.578451e-07
6.022449e-07
6.022449e-07
4.958419e-07
4.958419e-07
-6.507396e-07
1.187927e-08
-6.507396e-07
1.187927e-08
1.152659e-06
1.152659e-06
1.870069e-07
1.870069e-07
4.793538e-07
1.525475e-06
4.793538e-07
1.525475e-06
1.049768e-06
1.049768e-06
-9.343415e-08
-9.343415e-08
-9.951987e-07
4.622456e-07
-9.951987e-07
4.622456e-07
-7.852598e-07
-7.852598e-07
1.468803e-08
1.468803e-08
3.680087e-07
-1.339289e-06
3.680087e-07
-1.339289e-06
4.674328e-07
2.191465e-06
4.674328e-07
2.191465e-06
2.226386e-06
2.012747e-06
2.226386e-06
2.012747e-06
9.657272e-07
6.175078e-07
9.657272e-07
6.175078e-07
2.860475e-06
-4.711801e-07
2.860475e-06
-4.711801e-07
1.515283e-06
-2.389521e-06
1.515283e-06
-2.389521e-06
-9.444540e-08
3.976081e-08
-9.444540e-08
3.976081e-08
2.520094e-06
-1.188634e-06
2.520094e-06
-1.188634e-06
1.057522e-06
-5.660891e-07
1.057522e-06
-5.660891e-07
8.942734e-08
5.492139e-07
8.942734e-08
5.492139e-07
-8.691878e-08
-8.524728e-07
-8.691878e-08
-8.524728e-07
1.462512e-06
-7.782783e-07
1.462512e-06
-7.782783e-07
-1.631079e-06
-1.892175e-06
-1.631079e-06
-1.892175e-06
7.287607e-07
-6.300473e-07
7.287607e-07
-6.300473e-07
1.596815e-06
3.408715e-07
1.596815e-06
3.408715e-07
-1.409375e-06
-8.504607e-07
-1.409375e-06
-8.504607e-07
8.089237e-07
-3.968041e-07
8.089237e-07
-3.968041e-07
1.280700e-07
1.280700e-07
-4.333752e-07
-4.333752e-07
1.486394e-06
1.486394e-06
1.900257e-06
1.202069e-06
1.900257e-06
1.202069e-06
1.827227e-07
1.827227e-07
7.859368e-07
7.859368e-07
-1.553749e-06
-8.003071e-07
-1.553749e-06
-8.003071e-07
2.636041e-06
2.636041e-06
1.126990e-06
1.126990e-06
9.049129e-07
7.461669e-07
9.049129e-07
7.461669e-07
-1.384943e-06
-1.384943e-06
-5.270542e-09
-5.270542e-09
2.573396e-07
5.370844e-07
2.573396e-07
5.370844e-07
-2.119391e-07
-2.119391e-07
-1.013735e-06
-1.013735e-06
-9.631924e-07
-3.643369e-07
-9.631924e-07
-3.643369e-07
-9.323823e-07
-9.323823e-07
-1.479249e-06
-1.479249e-06
4.038372e-07
4.038372e-07
-8.979436e-07
-8.979436e-07
-1.467258e-06
-1.100592e-06
-1.467258e-06
-1.100592e-06
-1.610379e-06
-1.610379e-06
-1.417360e-06
-1.417360e-06
1.841657e-06
5.846822e-07
1.841657e-06
5.846822e-07
-1.769588e-06
-1.769588e-06
-7.213409e-07
-7.213409e-07
-1.433431e-06
-2.491503e-07
-1.433431e-06
-2.491503e-07
7.352437e-07
7.352437e-07
-1.084953e-06
-1.084953e-06
-1.189127e-07
-8.502702e-07
-1.189127e-07
-8.502702e-07
-1.026917e-06
-1.026917e-06
-1.036136e-06
-1.036136e-06
-1.287706e-06
-4.904033e-07
-1.287706e-06
-4.904033e-07
5.087555e-07
5.087555e-07
-2.385611e-07
-2.385611e-07
-1.018158e-06
-1.018158e-06
1.280864e-07
1.280864e-07
2.024976e-07
-2.278091e-08
2.024976e-07
-2.278091e-08
1.703350e-06
1.703350e-06
2.622730e-06
2.622730e-06
3.878612e-07
-3.166776e-07
3.878612e-07
-3.166776e-07
1.956353e-06
1.956353e-06
-2.132790e-07
-2.132790e-07
1.718374e-06
1.266577e-06
1.718374e-06
1.266577e-06
-1.429958e-06
-1.429958e-06
7.658163e-07
7.658163e-07
7.236357e-07
7.561763e-07
7.236357e-07
7.561763e-07
1.449693e-06
1.449693e-06
-7.265755e-07
-7.265755e-07
4.537634e-07
1.698265e-06
4.537634e-07
1.698265e-06
-1.647759e-06
-1.647759e-06
-8.109349e-08
-8.109349e-08
-3.589824e-07
-3.589824e-07
4.563460e-07
4.563460e-07
-3.718850e-07
-1.220319e-06
-3.718850e-07
-1.220319e-06
-5.770977e-07
-5.770977e-07
-1.324319e-06
-1.324319e-06
-3.505229e-07
-4.442059e-07
-3.505229e-07
-4.442059e-07
8.106376e-07
8.106376e-07
1.647383e-06
1.647383e-06
-7.365085e-07
6.136575e-08
-7.365085e-07
6.136575e-08
2.557166e-07
2.557166e-07
7.669336e-07
7.669336e-07
-7.643271e-07
-1.113546e-06
-7.643271e-07
-1.113546e-06
2.885068e-07
2.885068e-07
2.220904e-07
2.220904e-07
-2.186572e-07
-1.577048e-06
-2.186572e-07
-1.577048e-06
1.465897e-06
1.465897e-06
1.218524e-06
1.218524e-06
-9.284475e-07
-9.284475e-07
-8.722148e-07
-8.722148e-07
-1.385416e-06
-6.039703e-07
-1.385416e-06
-6.039703e-07
-4.008932e-07
-4.008932e-07
1.323378e-07
1.323378e-07
-1.444917e-06
-1.273491e-06
-1.444917e-06
-1.273491e-06
-2.054663e-07
-2.054663e-07
-1.747741e-07
-1.747741e-07
1.331521e-06
3.124585e-07
1.331521e-06
3.124585e-07
1.359916e-07
1.359916e-07
-6.728103e-07
-6.728103e-07
1.232165e-06
5.170803e-07
1.232165e-06
5.170803e-07
-5.309572e-07
-5.309572e-07
5.779136e-07
5.779136e-07
1.486971e-06
2.109931e-06
1.486971e-06
2.109931e-06
-7.308938e-07
-7.308938e-07
-1.083011e-07
-1.083011e-07
-2.198487e-06
-2.198487e-06
-2.222102e-06
-2.222102e-06
4.853448e-07
-1.487185e-06
4.853448e-07
-1.487185e-06
-1.170100e-06
-1.170100e-06
-1.105269e-06
-1.105269e-06
2.598271e-07
1.148378e-06
2.598271e-07
1.148378e-06
1.132333e-07
1.132333e-07
-1.017995e-07
-1.017995e-07
-7.170061e-07
2.625869e-07
-7.170061e-07
2.625869e-07
-6.130993e-07
-6.130993e-07
8.369759e-07
8.369759e-07
2.412833e-07
-1.110427e-06
2.412833e-07
-1.110427e-06
5.113358e-07
5.113358e-07
4.273740e-07
4.273740e-07
-1.147464e-06
-7.385529e-07
-1.147464e-06
-7.385529e-07
2.331081e-06
2.331081e-06
7.383317e-07
7.383317e-07
2.065807e-06
2.065807e-06
2.998128e-06
2.998128e-06
3.120645e-06
3.389542e-06
3.120645e-06
3.389542e-06
6.436954e-07
6.436954e-07
-1.183172e-07
-1.183172e-07
-5.868092e-07
-1.028335e-06
-5.868092e-07
-1.028335e-06
1.159235e-07
1.159235e-07
-5.973486e-07
-5.973486e-07
-8.933018e-07
1.869835e-07
-8.933018e-07
1.869835e-07
-8.147056e-07
-8.147056e-07
1.017695e-06
1.017695e-06
1.432404e-06
-8.324069e-07
1.432404e-06
-8.324069e-07
1.374380e-06
1.374380e-06
-7.617186e-07
-7.617186e-07
1.203254e-07
2.686960e-06
1.203254e-07
2.686960e-06
-9.066260e-07
-9.066260e-07
-3.611829e-07
-3.611829e-07
-6.956065e-07
-6.956065e-07
2.147003e-06
2.147003e-06
3.394972e-06
6.530670e-08
3.394972e-06
6.530670e-08
3.921256e-06
3.921256e-06
4.067664e-06
4.067664e-06
6.769747e-06
5.247200e-06
6.769747e-06
5.247200e-06
7.133223e-06
7.133223e-06
1.113990e-05
1.113990e-05
5.753286e-06
6.645755e-06
5.753286e-06
6.645755e-06
1.138198e-05
1.138198e-05
1.011243e-05
1.011243e-05
6.013189e-06
4.838976e-06
6.013189e-06
4.838976e-06
9.386879e-06
9.386879e-06
8.003618e-06
8.003618e-06
6.197838e-06
7.464611e-06
6.197838e-06
7.464611e-06
7.424139e-06
7.424139e-06
4.369834e-06
4.369834e-06
-2.805972e-07
4.542690e-06
-2.805972e-07
4.542690e-06
2.239679e-06
2.239679e-06
5.538139e-06
5.538139e-06
7.126808e-06
7.190994e-06
7.126808e-06
7.190994e-06
6.729265e-06
6.729265e-06
6.294109e-06
6.294109e-06
6.319248e-06
8.774312e-06
6.319248e-06
8.774312e-06
2.242649e-06
2.242649e-06
-5.307258e-07
-5.307258e-07
1.347662e-06
2.103203e-06
1.347662e-06
2.103203e-06
1.390300e-07
1.390300e-07
3.960175e-07
3.960175e-07
8.059621e-07
1.956321e-06
8.059621e-07
1.956321e-06
3.734053e-07
3.734053e-07
1.282138e-06
1.282138e-06
-1.740442e-07
-2.402154e-07
-1.740442e-07
-2.402154e-07
1.674606e-08
1.674606e-08
-2.810404e-06
-2.810404e-06
-1.426798e-06
-5.165342e-07
-1.426798e-06
-5.165342e-07
1.096836e-05
1.096836e-05
9.878245e-06
9.878245e-06
1.239021e-05
1.021646e-05
1.239021e-05
1.021646e-05
9.512130e-06
9.512130e-06
8.455736e-06
8.455736e-06
9.561758e-06
9.860929e-06
9.561758e-06
9.860929e-06
9.689138e-06
9.689138e-06
9.711148e-06
9.711148e-06
1.332831e-05
1.361463e-05
1.332831e-05
1.361463e-05
7.071380e-06
7.071380e-06
6.318983e-06
6.318983e-06
5.907219e-06
8.286557e-06
5.907219e-06
8.286557e-06
2.669634e-06
2.669634e-06
-1.124755e-06
-1.124755e-06
-2.130636e-06
3.185379e-06
-2.130636e-06
3.185379e-06
-8.265050e-07
-8.265050e-07
-2.028293e-06
-2.028293e-06
-1.366431e-06
-2.221795e-06
-1.366431e-06
-2.221795e-06
8.312939e-06
8.312939e-06
1.081466e-05
1.081466e-05
4.610345e-06
2.104820e-06
4.610345e-06
2.104820e-06
1.031182e-05
1.031182e-05
8.754331e-06
8.754331e-06
4.156784e-06
6.131107e-06
4.156784e-06
6.131107e-06
1.055807e-05
1.055807e-05
8.954285e-06
8.954285e-06
-4.884536e-07
1.108629e-06
-4.884536e-07
1.108629e-06
4.034695e-06
4.034695e-06
3.652462e-06
3.652462e-06
-3.111163e-07
-1.152589e-06
-3.111163e-07
-1.152589e-06
3.761465e-06
3.761465e-06
3.812181e-07
3.812181e-07
-1.515432e-06
-5.521587e-07
-1.515432e-06
-5.521587e-07
-1.902620e-06
-1.902620e-06
-1.062497e-06
-1.062497e-06
-5.347352e-06
-4.901721e-06
-5.347352e-06
-4.901721e-06
-3.583637e-06
-3.583637e-06
-1.823068e-06
-1.823068e-06
-1.959599e-06
-2.054854e-07
-1.959599e-06
-2.054854e-07
4.819221e-07
4.819221e-07
1.901534e-06
1.901534e-06
4.975843e-06
6.103662e-07
4.975843e-06
6.103662e-07
-1.928109e-06
-1.928109e-06
-6.095363e-06
-6.095363e-06
5.308171e-07
4.226931e-06
5.308171e-07
4.226931e-06
-5.576267e-06
-5.576267e-06
-6.670374e-06
-6.670374e-06
-3.225110e-06
-1.903295e-06
-3.225110e-06
-1.903295e-06
-6.815872e-06
-6.815872e-06
-4.572275e-06
-4.572275e-06
-2.054720e-06
-3.538640e-06
-2.054720e-06
-3.538640e-06
-5.810962e-06
-5.810962e-06
-6.415854e-06
-6.415854e-06
-2.284294e-06
-6.926401e-07
-2.284294e-06
-6.926401e-07
4.919842e-06
4.919842e-06
5.703748e-06
5.703748e-06
1.257418e-05
9.299767e-06
1.257418e-05
9.299767e-06
6.830878e-06
6.830878e-06
9.749655e-06
9.749655e-06
1.408788e-05
1.171890e-05
1.408788e-05
1.171890e-05
1.094606e-05
1.094606e-05
1.077753e-05
1.077753e-05
1.899680e-05
1.829377e-05
1.899680e-05
1.829377e-05
9.087401e-06
9.087401e-06
7.362605e-06
7.362605e-06
1.640267e-05
1.835614e-05
1.640267e-05
1.835614e-05
6.414266e-06
6.414266e-06
3.870433e-06
3.870433e-06
5.450608e-06
1.204510e-05
5.450608e-06
1.204510e-05
2.015959e-06
2.015959e-06
-1.417361e-07
-1.417361e-07
-6.925966e-07
-2.110808e-07
-6.925966e-07
-2.110808e-07
1.085861e-05
1.085861e-05
1.158815e-05
1.158815e-05
6.989258e-06
7.497200e-06
6.989258e-06
7.497200e-06
1.182085e-05
1.182085e-05
1.588248e-05
1.588248e-05
1.217510e-05
8.911880e-06
1.217510e-05
8.911880e-06
2.031023e-05
2.031023e-05
2.245327e-05
2.245327e-05
1.582171e-05
1.412465e-05
1.582171e-05
1.412465e-05
2.271942e-05
2.271942e-05
2.041881e-05
2.041881e-05
1.940464e-05
1.871706e-05
1.940464e-05
1.871706e-05
1.340111e-05
1.340111e-05
3.362160e-06
3.362160e-06
6.094369e-06
1.386322e-05
6.094369e-06
1.386322e-05
-2.174534e-06
-2.174534e-06
-3.042955e-06
-3.042955e-06
-1.144217e-06
8.891247e-07
-1.144217e-06
8.891247e-07
4.775724e-06
4.775724e-06
6.199358e-06
6.199358e-06
5.341806e-06
3.921149e-06
5.341806e-06
3.921149e-06
5.440826e-06
5.440826e-06
3.747451e-06
3.747451e-06
-2.880780e-06
2.988914e-06
-2.880780e-06
2.988914e-06
2.994563e-06
2.994563e-06
5.567888e-06
5.567888e-06
-2.660969e-06
-6.662531e-06
-2.660969e-06
-6.662531e-06
1.058804e-05
1.058804e-05
1.499008e-05
1.499008e-05
1.667840e-05
6.047163e-06
1.667840e-05
6.047163e-06
1.608204e-05
1.608204e-05
1.159112e-05
1.159112e-05
1.796253e-05
2.229086e-05
1.796253e-05
2.229086e-05
4.741761e-06
4.741761e-06
2.752791e-06
2.752791e-06
3.238889e-06
9.085730e-06
3.238889e-06
9.085730e-06
4.584363e-06
4.584363e-06
3.884347e-06
3.884347e-06
2.903595e-06
4.720193e-06
2.903595e-06
4.720193e-06
4.181318e-06
4.181318e-06
-6.714310e-07
-6.714310e-07
7.380323e-06
4.970947e-06
7.380323e-06
4.970947e-06
-6.884907e-06
-6.884907e-06
-8.465804e-06
-8.465804e-06
-1.154810e-05
1.726923e-06
-1.154810e-05
1.726923e-06
-7.156887e-07
-7.156887e-07
1.665897e-05
1.665897e-05
-2.369422e-06
-1.765288e-05
-2.369422e-06
-1.765288e-05
2.708018e-05
2.708018e-05
2.517076e-05
2.517076e-05
3.335583e-05
2.282004e-05
3.335583e-05
2.282004e-05
1.483218e-05
1.483218e-05
5.730758e-06
5.730758e-06
4.883668e-06
1.994556e-05
4.883668e-06
1.994556e-05
8.004601e-06
8.004601e-06
5.020303e-06
5.020303e-06
1.254627e-05
1.369856e-05
1.254627e-05
1.369856e-05
2.892152e-06
2.892152e-06
8.815780e-06
8.815780e-06
7.558554e-06
8.076568e-06
7.558554e-06
8.076568e-06
8.089755e-06
8.089755e-06
-1.208587e-05
-1.208587e-05
2.877984e-06
1.380928e-05
2.877984e-06
1.380928e-05
-3.729817e-05
-3.729817e-05
-3.381527e-05
-3.381527e-05
-6.325541e-05
-3.416358e-05
-6.325541e-05
-3.416358e-05
4.867654e-06
4.867654e-06
3.081833e-05
3.081833e-05
1.973702e-05
-3.839697e-05
1.973702e-05
-3.839697e-05
1.874626e-05
1.874626e-05
2.235935e-06
2.235935e-06
4.182604e-05
4.522540e-05
4.182604e-05
4.522540e-05
1.781509e-05
1.781509e-05
2.149713e-05
2.149713e-05
3.223456e-05
1.830724e-05
3.223456e-05
1.830724e-05
2.507631e-05
2.507631e-05
2.490983e-05
2.490983e-05
6.153589e-05
4.765390e-05
6.153589e-05
4.765390e-05
2.883163e-05
2.883163e-05
3.031372e-05
3.031372e-05
3.118567e-05
5.369095e-05
3.118567e-05
5.369095e-05
-7.644015e-06
-7.644015e-06
-7.960800e-05
-7.960800e-05
-8.384172e-05
-6.096694e-06
-8.384172e-05
-6.096694e-06
-9.305430e-05
-9.305430e-05
1.291480e-05
1.291480e-05
-3.378322e-05
-1.385351e-04
-3.378322e-05
-1.385351e-04
1.461157e-04
1.461157e-04
1.690712e-04
1.690712e-04
2.643271e-04
1.980792e-04
2.643271e-04
1.980792e-04
2.149089e-05
2.149089e-05
4.030942e-05
4.030942e-05
4.602062e-05
3.540640e-05
4.602062e-05
3.540640e-05
6.164428e-05
6.164428e-05
8.130846e-05
8.130846e-05
6.679890e-05
6.337632e-05
6.679890e-05
6.337632e-05
6.905674e-05
6.905674e-05
2.375639e-06
2.375639e-06
-2.938082e-05
4.296752e-05
-2.938082e-05
4.296752e-05
-5.545059e-05
-5.545059e-05
-8.078886e-05
-8.078886e-05
-7.182028e-05
-1.012379e-04
-7.182028e-05
-1.012379e-04
-1.283630e-04
-1.283630e-04
-1.475125e-04
-1.475125e-04
-2.314866e-04
-6.525112e-05
-2.314866e-04
-6.525112e-05
-2.876595e-05
-2.876595e-05
4.758510e-05
4.758510e-05
-3.467552e-04
-3.503411e-04
-3.467552e-04
-3.503411e-04
6.005070e-05
6.005070e-05
5.553133e-05
5.553133e-05
6.491766e-05
8.076071e-05
6.491766e-05
8.076071e-05
5.285003e-05
5.285003e-05
3.050240e-05
3.050240e-05
-1.349080e-05
2.751872e-05
-1.349080e-05
2.751872e-05
-1.606459e-05
-1.606459e-05
-4.892561e-05
-4.892561e-05
-2.031002e-05
-3.851791e-05
-2.031002e-05
-3.851791e-05
-8.118515e-05
-8.118515e-05
-1.147355e-04
-1.147355e-04
-9.957972e-05
1.153240e-05
-9.957972e-05
1.153240e-05
-1.601302e-04
-1.601302e-04
-2.750506e-04
-2.750506e-04
-4.695218e-04
-3.377179e-04
-4.695218e-04
-3.377179e-04
-4.012159e-04
-4.012159e-04
-4.540855e-04
-4.540855e-04
-5.149487e-04
-5.261281e-04
-5.149487e-04
-5.261281e-04
7.363474e-05
7.363474e-05
5.387852e-05
5.387852e-05
2.563341e-05
4.898166e-05
2.563341e-05
4.898166e-05
-6.194076e-07
-6.194076e-07
-3.284565e-05
-3.284565e-05
-9.142340e-06
-2.773824e-05
-9.142340e-06
-2.773824e-05
2.796664e-05
2.796664e-05
1.103384e-04
1.103384e-04
2.729904e-04
1.461310e-04
2.729904e-04
1.461310e-04
8.099248e-05
8.099248e-05
-1.213249e-04
-1.213249e-04
-3.098532e-04
1.192253e-04
-3.098532e-04
1.192253e-04
-4.025464e-04
-4.025464e-04
-5.781839e-04
-5.781839e-04
-9.159607e-04
-7.169743e-04
-9.159607e-04
-7.169743e-04
-6.805060e-04
-6.805060e-04
-6.175168e-04
-6.175168e-04
-8.371523e-04
-1.063557e-03
-8.371523e-04
-1.063557e-03
3.756554e-05
3.756554e-05
-1.614939e-06
-1.614939e-06
-3.096005e-05
4.279985e-05
-3.096005e-05
4.279985e-05
-4.346921e-05
-4.346921e-05
4.169070e-05
4.169070e-05
9.014805e-05
-4.845953e-05
9.014805e-05
-4.845953e-05
2.478746e-04
2.478746e-04
3.409605e-04
3.409605e-04
3.576444e-04
3.165382e-04
3.576444e-04
3.165382e-04
1.210790e-04
1.210790e-04
-4.583606e-04
-4.583606e-04
-7.725564e-04
6.871758e-05
-7.725564e-04
6.871758e-05
-9.984026e-04
-9.984026e-04
-6.624131e-04
-6.624131e-04
2.269004e-03
-4.595093e-04
2.269004e-03
-4.595093e-04
-4.827790e-04
-4.827790e-04
-6.638934e-04
-6.638934e-04
-1.868961e-04
2.327007e-03
-1.868961e-04
2.327007e-03
4.594017e-05
4.594017e-05
-3.365039e-05
-3.365039e-05
-2.844198e-05
5.669857e-05
-2.844198e-05
5.669857e-05
-2.974025e-05
-2.974025e-05
1.148606e-04
1.148606e-04
1.250703e-04
-2.423886e-05
1.250703e-04
-2.423886e-05
3.120848e-04
3.120848e-04
2.909492e-04
2.909492e-04
1.420324e-04
2.472367e-04
1.420324e-04
2.472367e-04
-1.528195e-04
-1.528195e-04
-9.932978e-04
-9.932978e-04
-4.583203e-04
-5.816284e-04
-4.583203e-04
-5.816284e-04
-2.462747e-03
-2.462747e-03
-1.418685e-03
-1.418685e-03
-2.654157e-03
-2.028667e-03
-2.654157e-03
-2.028667e-03
1.106104e-03
1.106104e-03
7.654821e-04
7.654821e-04
3.471000e-03
1.423985e-03
3.471000e-03
1.423985e-03
4.013824e-05
4.013824e-05
-3.510657e-05
-3.510657e-05
-1.510402e-05
-2.835827e-05
-1.510402e-05
-2.835827e-05
2.529073e-05
2.529073e-05
1.078988e-04
1.078988e-04
9.028305e-05
1.441144e-04
9.028305e-05
1.441144e-04
7.313061e-05
7.313061e-05
-1.623016e-04
-1.623016e-04
-4.613342e-04
-1.189594e-04
-4.613342e-04
-1.189594e-04
-1.216070e-03
-1.216070e-03
-8.258106e-04
-8.258106e-04
-1.371300e-03
-1.391824e-03
-1.371300e-03
-1.391824e-03
2.376131e-04
2.376131e-04
2.948189e-03
2.948189e-03
2.609942e-03
-1.171411e-04
2.609942e-03
-1.171411e-04
6.421206e-03
6.421206e-03
5.938978e-03
5.938978e-03
4.051408e-03
4.620546e-03
4.051408e-03
4.620546e-03
-2.406934e-05
-2.406934e-05
-1.388336e-05
-1.388336e-05
6.369437e-06
1.069566e-05
6.369437e-06
1.069566e-05
8.791925e-05
8.791925e-05
1.013829e-04
1.013829e-04
5.321794e-05
1.177386e-05
5.321794e-05
1.177386e-05
5.769363e-05
5.769363e-05
-1.715184e-04
-1.715184e-04
1.821217e-04
1.780901e-04
1.821217e-04
1.780901e-04
-7.912734e-04
-7.912734e-04
-1.489611e-03
-1.489611e-03
-1.018911e-03
-1.358705e-04
-1.018911e-03
-1.358705e-04
-2.941596e-04
-2.941596e-04
2.153893e-03
2.153893e-03
1.485547e-03
-4.843475e-04
1.485547e-03
-4.843475e-04
1.227211e-03
1.227211e-03
-1.204349e-04
-1.204349e-04
-1.324936e-03
2.288289e-04
-1.324936e-03
2.288289e-04
9.154659e-07
9.154659e-07
2.758206e-05
2.758206e-05
9.564276e-06
8.195306e-07
9.564276e-06
8.195306e-07
4.778593e-05
4.778593e-05
3.009015e-05
3.009015e-05
9.086895e-05
5.928212e-05
9.086895e-05
5.928212e-05
1.147180e-04
1.147180e-04
2.389002e-04
2.389002e-04
1.652689e-04
1.258277e-04
1.652689e-04
1.258277e-04
1.298291e-04
1.298291e-04
-2.818680e-04
-2.818680e-04
-3.642021e-04
3.670508e-05
-3.642021e-04
3.670508e-05
-5.784560e-04
-5.784560e-04
-6.554964e-04
-6.554964e-04
-1.079412e-03
-8.037612e-04
-1.079412e-03
-8.037612e-04
-1.265154e-03
-1.265154e-03
-1.027022e-03
-1.027022e-03
-9.312177e-04
-1.277022e-03
-9.312177e-04
-1.277022e-03
1.341169e-05
1.341169e-05
1.463824e-05
1.463824e-05
4.013762e-05
3.976022e-05
4.013762e-05
3.976022e-05
6.581203e-05
6.581203e-05
1.068038e-04
1.068038e-04
9.257867e-05
6.989591e-05
9.257867e-05
6.989591e-05
5.839123e-05
5.839123e-05
-2.753754e-05
-2.753754e-05
-5.529559e-05
4.083451e-05
-5.529559e-05
4.083451e-05
-7.681720e-05
-7.681720e-05
-2.142774e-04
-2.142774e-04
-1.403065e-04
-9.319072e-05
-1.403065e-04
-9.319072e-05
-4.878293e-04
-4.878293e-04
-7.592240e-04
-7.592240e-04
-6.488892e-04
-3.480141e-04
-6.488892e-04
-3.480141e-04
-9.621140e-04
-9.621140e-04
-8.563972e-04
-8.563972e-04
-7.807012e-04
-8.540374e-04
-7.807012e-04
-8.540374e-04
5.462441e-05
5.462441e-05
5.825775e-05
5.825775e-05
4.582583e-05
4.165199e-05
4.582583e-05
4.165199e-05
7.521066e-05
7.521066e-05
8.154023e-05
8.154023e-05
6.405943e-05
6.215393e-05
6.405943e-05
6.215393e-05
3.808833e-05
3.808833e-05
-3.638106e-05
-3.638106e-05
-4.483257e-05
2.024674e-05
-4.483257e-05
2.024674e-05
-6.890952e-05
-6.890952e-05
-1.122090e-04
-1.122090e-04
-6.298820e-05
-6.084728e-05
-6.298820e-05
-6.084728e-05
-3.279349e-04
-3.279349e-04
-5.816667e-04
-5.816667e-04
-5.056469e-04
-2.465532e-04
-5.056469e-04
-2.465532e-04
-6.140755e-04
-6.140755e-04
-5.242771e-04
-5.242771e-04
-4.935623e-04
-5.984916e-04
-4.935623e-04
-5.984916e-04
1.748694e-05
1.748694e-05
2.002402e-05
2.002402e-05
6.288888e-06
7.038778e-06
6.288888e-06
7.038778e-06
3.592481e-05
3.592481e-05
4.653602e-05
4.653602e-05
3.678185e-05
2.268698e-05
3.678185e-05
2.268698e-05
1.949714e-05
1.949714e-05
-2.417048e-05
-2.417048e-05
-1.150597e-05
1.587534e-05
-1.150597e-05
1.587534e-05
-4.016908e-05
-4.016908e-05
-3.485507e-05
-3.485507e-05
-3.061100e-05
-2.489081e-05
-3.061100e-05
-2.489081e-05
-1.107254e-04
-1.107254e-04
-1.913203e-04
-1.913203e-04
-7.594047e-05
-5.182658e-05
-7.594047e-05
-5.182658e-05
-9.909149e-07
-9.909149e-07
-2.520500e-07
-2.520500e-07
3.028916e-06
2.185593e-06
3.028916e-06
2.185593e-06
2.203601e-06
2.203601e-06
3.587460e-06
3.587460e-06
5.086743e-06
4.604972e-06
5.086743e-06
4.604972e-06
1.713158e-06
1.713158e-06
-1.847746e-06
-1.847746e-06
1.729580e-07
2.904444e-06
1.729580e-07
2.904444e-06
-5.345396e-07
-5.345396e-07
2.679184e-06
2.679184e-06
3.532211e-06
8.299644e-07
3.532211e-06
8.299644e-07
9.917219e-07
9.917219e-07
-2.043331e-06
-2.043331e-06
-3.888343e-06
1.801239e-06
-3.888343e-06
1.801239e-06
-2.059776e-06
-2.059776e-06
-1.065645e-06
-1.065645e-06
-2.043668e-06
-3.865871e-06
-2.043668e-06
-3.865871e-06
-3.183493e-07
-3.183493e-07
2.334007e-06
2.334007e-06
2.573925e-06
-3.533768e-08
2.573925e-06
-3.533768e-08
3.897706e-06
3.897706e-06
1.735013e-06
1.735013e-06
-7.709485e-07
4.674604e-07
-7.709485e-07
4.674604e-07
-6.612327e-07
-6.612327e-07
-1.582376e-06
-1.582376e-06
-3.362952e-06
-2.403368e-06
-3.362952e-06
-2.403368e-06
-1.056735e-06
-1.056735e-06
-4.188524e-08
-4.188524e-08
-1.926635e-06
-1.874093e-06
-1.926635e-06
-1.874093e-06
-3.661036e-08
-3.661036e-08
2.058441e-06
2.058441e-06
-3.487022e-06
-3.330659e-06
-3.487022e-06
-3.330659e-06
2.939586e-06
2.939586e-06
-8.776412e-06
-8.776412e-06
-7.583648e-06
-1.192338e-06
-7.583648e-06
-1.192338e-06
-2.582379e-05
-2.582379e-05
-2.390908e-05
-2.390908e-05
-3.967298e-05
-2.418989e-05
-3.967298e-05
-2.418989e-05
-7.393862e-06
-7.393862e-06
-5.220024e-06
-5.220024e-06
-1.427879e-05
-3.965896e-05
-1.427879e-05
-3.965896e-05
-1.028756e-05
-1.028756e-05
1.905094e-07
1.905094e-07
-8.708301e-06
-5.425034e-06
-8.708301e-06
-5.425034e-06
3.974048e-06
3.974048e-06
-1.355215e-05
-1.355215e-05
4.194476e-05
2.016549e-05
4.194476e-05
2.016549e-05
-2.443150e-05
-2.443150e-05
-3.299240e-05
-3.299240e-05
4.894398e-06
2.572267e-05
4.894398e-06
2.572267e-05
-3.196378e-05
-3.196378e-05
-1.357379e-05
-1.357379e-05
1.376542e-05
4.734873e-06
1.376542e-05
4.734873e-06
-6.145001e-06
-6.145001e-06
-4.980689e-06
-4.980689e-06
-3.539058e-06
5.767242e-06
-3.539058e-06
5.767242e-06
3.836876e-06
3.836876e-06
1.379434e-05
1.379434e-05
3.335230e-05
1.428966e-05
3.335230e-05
1.428966e-05
1.479299e-05
1.479299e-05
9.107426e-06
9.107426e-06
1.954433e-05
3.196648e-05
1.954433e-05
3.196648e-05
3.734054e-06
3.734054e-06
1.816027e-06
1.816027e-06
7.540531e-06
9.965864e-06
7.540531e-06
9.965864e-06
7.851851e-06
7.851851e-06
7.445145e-06
7.445145e-06
8.402007e-06
9.539076e-06
8.402007e-06
9.539076e-06
4.197105e-06
4.197105e-06
4.325306e-06
4.325306e-06
3.453427e-06
2.554906e-06
3.453427e-06
2.554906e-06
5.668263e-06
5.668263e-06
3.769631e-06
3.769631e-06
4.268026e-06
5.880765e-06
4.268026e-06
5.880765e-06
1.883020e-06
1.883020e-06
2.786568e-06
2.786568e-06
2.852623e-06
2.593930e-06
2.852623e-06
2.593930e-06
1.143677e-06
1.143677e-06
-3.514368e-06
-3.514368e-06
-1.137143e-06
2.053728e-06
-1.137143e-06
2.053728e-06
-4.899959e-06
-4.899959e-06
-3.213509e-06
-3.213509e-06
-3.544413e-06
-3.798981e-06
-3.544413e-06
-3.798981e-06
-1.317483e-06
-1.317483e-06
-4.704577e-07
-4.704577e-07
-3.333936e-06
-3.808080e-06
-3.333936e-06
-3.808080e-06
-1.283799e-06
-1.283799e-06
-1.864409e-06
-1.864409e-06
-4.192179e-06
-2.657990e-06
-4.192179e-06
-2.657990e-06
-4.528128e-06
-4.528128e-06
-5.056567e-06
-5.056567e-06
-5.438556e-06
-4.774115e-06
-5.438556e-06
-4.774115e-06
-2.963600e-06
-2.963600e-06
-7.171377e-06
-7.171377e-06
-9.511204e-06
-6.357594e-06
-9.511204e-06
-6.357594e-06
-1.360367e-05
-1.360367e-05
-1.439519e-05
-1.439519e-05
-2.287249e-05
-1.788270e-05
-2.287249e-05
-1.788270e-05
-9.075762e-06
-9.075762e-06
-7.263890e-06
-7.263890e-06
5.665740e-07
-1.427424e-05
5.665740e-07
-1.427424e-05
-2.039297e-05
-2.039297e-05
-4.509067e-05
-4.509067e-05
-1.639001e-05
2.419310e-06
-1.639001e-05
2.419310e-06
-6.086996e-05
-6.086996e-05
-2.596810e-05
-2.596810e-05
-1.507705e-05
-3.446876e-05
-1.507705e-05
-3.446876e-05
4.144410e-05
4.144410e-05
3.455389e-05
3.455389e-05
9.779068e-05
6.981387e-05
9.779068e-05
6.981387e-05
2.048044e-05
2.048044e-05
7.385704e-05
7.385704e-05
-5.207049e-05
-6.627015e-06
-5.207049e-05
-6.627015e-06
9.862096e-05
9.862096e-05
9.186858e-05
9.186858e-05
-2.968158e-05
-3.560195e-05
-2.968158e-05
-3.560195e-05
6.019222e-05
6.019222e-05
1.890535e-05
1.890535e-05
-2.210097e-05
-2.066239e-05
-2.210097e-05
-2.066239e-05
-4.922207e-07
-4.922207e-07
9.357673e-06
9.357673e-06
9.406338e-06
-1.413870e-05
9.406338e-06
-1.413870e-05
4.640603e-05
4.640603e-05
7.255172e-05
7.255172e-05
1.180557e-04
6.073581e-05
1.180557e-04
6.073581e-05
6.765320e-05
6.765320e-05
4.346775e-05
4.346775e-05
8.826863e-05
1.262292e-04
8.826863e-05
1.262292e-04
2.475994e-05
2.475994e-05
1.801764e-05
1.801764e-05
3.310756e-05
5.058104e-05
3.310756e-05
5.058104e-05
7.110227e-06
7.110227e-06
5.996354e-06
5.996354e-06
4.922677e-06
3.625981e-06
4.922677e-06
3.625981e-06
3.832677e-06
3.832677e-06
3.745091e-06
3.745091e-06
4.748541e-06
5.399488e-06
4.748541e-06
5.399488e-06
3.309848e-06
3.309848e-06
2.726746e-06
2.726746e-06
2.397355e-06
2.590172e-06
2.397355e-06
2.590172e-06
2.906973e-06
2.906973e-06
3.252254e-06
3.252254e-06
-1.034295e-06
1.686823e-06
-1.034295e-06
1.686823e-06
1.792888e-06
1.792888e-06
-7.651603e-07
-7.651603e-07
-2.018776e-06
-1.842733e-06
-2.018776e-06
-1.842733e-06
-3.073529e-06
-3.073529e-06
-4.943457e-06
-4.943457e-06
-4.948977e-06
-3.537671e-06
-4.948977e-06
-3.537671e-06
-4.236379e-06
-4.236379e-06
-1.713858e-06
-1.713858e-06
-2.115157e-06
-3.463539e-06
-2.115157e-06
-3.463539e-06
-2.296000e-06
-2.296000e-06
-5.190510e-06
-5.190510e-06
-2.245754e-06
-2.376179e-06
-2.245754e-06
-2.376179e-06
-3.818897e-06
-3.818897e-06
-3.778749e-06
-3.778749e-06
-3.944401e-06
-2.245727e-06
-3.944401e-06
-2.245727e-06
-6.260969e-06
-6.260969e-06
-8.480860e-06
-8.480860e-06
-8.128835e-06
-4.616398e-06
-8.128835e-06
-4.616398e-06
-1.658665e-05
-1.658665e-05
-2.311470e-05
-2.311470e-05
-2.405852e-05
-1.912741e-05
-2.405852e-05
-1.912741e-05
-1.262259e-05
-1.262259e-05
2.492016e-05
2.492016e-05
7.692863e-05
1.597938e-06
7.692863e-05
1.597938e-06
6.995829e-05
6.995829e-05
7.480354e-05
7.480354e-05
1.847186e-04
1.723521e-04
1.847186e-04
1.723521e-04
3.083870e-05
3.083870e-05
-1.926919e-05
-1.926919e-05
-1.377881e-04
4.865814e-05
-1.377881e-04
4.865814e-05
-5.364608e-06
-5.364608e-06
8.383144e-05
8.383144e-05
-3.629249e-05
-1.917248e-04
-3.629249e-05
-1.917248e-04
2.473048e-05
2.473048e-05
-7.405618e-05
-7.405618e-05
3.892567e-05
6.536807e-05
3.892567e-05
6.536807e-05
-6.495472e-05
-6.495472e-05
-9.119074e-05
-9.119074e-05
7.422324e-05
8.325989e-05
7.422324e-05
8.325989e-05
-8.410028e-05
-8.410028e-05
-4.134667e-05
-4.134667e-05
-1.102112e-05
7.928018e-06
-1.102112e-05
7.928018e-06
-4.549956e-05
-4.549956e-05
-7.843408e-05
-7.843408e-05
-2.285498e-04
-9.623167e-05
-2.285498e-04
-9.623167e-05
-3.014599e-05
-3.014599e-05
1.049708e-04
1.049708e-04
-1.520939e-06
-1.997996e-04
-1.520939e-06
-1.997996e-04
1.747938e-04
1.747938e-04
1.382408e-04
1.382408e-04
1.523708e-04
1.502019e-04
1.523708e-04
1.502019e-04
7.611197e-05
7.611197e-05
4.625670e-05
4.625670e-05
5.075694e-05
8.461231e-05
5.075694e-05
8.461231e-05
3.063714e-06
3.063714e-06
5.728141e-06
5.728141e-06
2.875121e-06
2.521167e-06
2.875121e-06
2.521167e-06
4.342299e-06
4.342299e-06
3.276499e-06
3.276499e-06
-4.981880e-07
1.323297e-06
-4.981880e-07
1.323297e-06
2.497613e-06
2.497613e-06
8.258677e-07
8.258677e-07
5.468926e-07
6.742012e-07
5.468926e-07
6.742012e-07
-1.183757e-06
-1.183757e-06
-4.454840e-06
-4.454840e-06
-4.948797e-06
-2.397640e-06
-4.948797e-06
-2.397640e-06
-6.232131e-06
-6.232131e-06
-5.044936e-06
-5.044936e-06
-7.142599e-06
-6.901713e-06
-7.142599e-06
-6.901713e-06
-3.027509e-06
-3.027509e-06
-3.670837e-06
-3.670837e-06
-2.843330e-06
-5.157096e-06
-2.843330e-06
-5.157096e-06
-3.653302e-06
-3.653302e-06
-1.838743e-06
-1.838743e-06
1.418502e-06
-4.639513e-07
1.418502e-06
-4.639513e-07
-4.443320e-07
-4.443320e-07
3.054860e-07
3.054860e-07
1.838226e-06
2.767852e-06
1.838226e-06
2.767852e-06
-1.082320e-06
-1.082320e-06
-3.556791e-06
-3.556791e-06
-2.176393e-07
1.063662e-06
-2.176393e-07
1.063662e-06
-5.398573e-06
-5.398573e-06
-1.240079e-05
-1.240079e-05
-1.781337e-05
-7.600087e-06
-1.781337e-05
-7.600087e-06
-2.378988e-05
-2.378988e-05
-1.316674e-05
-1.316674e-05
2.989630e-05
-1.672020e-05
2.989630e-05
-1.672020e-05
4.995391e-05
4.995391e-05
1.609983e-04
1.609983e-04
2.260417e-04
1.330213e-04
2.260417e-04
1.330213e-04
2.484022e-04
2.484022e-04
1.918117e-04
1.918117e-04
3.207909e-05
2.021385e-04
3.207909e-05
2.021385e-04
-5.697352e-05
-5.697352e-05
-3.309851e-04
-3.309851e-04
-4.361195e-04
-2.090090e-04
-4.361195e-04
-2.090090e-04
-3.935375e-04
-3.935375e-04
-1.978257e-04
-1.978257e-04
-3.986434e-04
-5.460904e-04
-3.986434e-04
-5.460904e-04
4.764984e-05
4.764984e-05
8.097054e-05
8.097054e-05
4.812585e-06
-1.009885e-04
4.812585e-06
-1.009885e-04
5.544576e-05
5.544576e-05
1.293021e-04
1.293021e-04
2.351514e-05
-4.174763e-05
2.351514e-05
-4.174763e-05
1.157196e-04
1.157196e-04
4.114230e-06
4.114230e-06
-1.907908e-04
-9.767943e-06
-1.907908e-04
-9.767943e-06
-1.549209e-04
-1.549209e-04
-2.835246e-04
-2.835246e-04
-2.450379e-04
-3.007601e-04
-2.450379e-04
-3.007601e-04
-2.616482e-04
-2.616482e-04
-1.286129e-04
-1.286129e-04
-2.016065e-04
-1.705400e-04
-2.016065e-04
-1.705400e-04
3.755139e-05
3.755139e-05
1.025730e-04
1.025730e-04
-1.967720e-05
-1.245010e-04
-1.967720e-05
-1.245010e-04
5.835688e-05
5.835688e-05
3.191684e-05
3.191684e-05
-1.218627e-05
-8.000790e-06
-1.218627e-05
-8.000790e-06
4.536926e-08
4.536926e-08
-5.472394e-07
-5.472394e-07
-2.654482e-06
-1.138296e-06
-2.654482e-06
-1.138296e-06
-5.061451e-07
-5.061451e-07
-2.247789e-06
-2.247789e-06
-2.087975e-06
-6.276994e-07
-2.087975e-06
-6.276994e-07
-1.709802e-06
-1.709802e-06
-2.392651e-07
-2.392651e-07
-3.050009e-06
-4.728694e-06
-3.050009e-06
-4.728694e-06
-2.621088e-06
-2.621088e-06
-5.127299e-06
-5.127299e-06
-4.829797e-06
-2.860093e-06
-4.829797e-06
-2.860093e-06
-5.114484e-06
-5.114484e-06
-6.049066e-06
-6.049066e-06
-4.713743e-06
-4.959653e-06
-4.713743e-06
-4.959653e-06
-6.099849e-06
-6.099849e-06
-1.132774e-06
-1.132774e-06
-2.421047e-07
-3.427638e-06
-2.421047e-07
-3.427638e-06
2.017768e-06
2.017768e-06
2.390837e-06
2.390837e-06
6.760970e-07
1.018761e-06
6.760970e-07
1.018761e-06
3.625208e-06
3.625208e-06
3.277719e-06
3.277719e-06
4.918253e-06
3.003797e-06
4.918253e-06
3.003797e-06
4.875406e-06
4.875406e-06
1.471728e-06
1.471728e-06
9.709362e-07
5.038242e-06
9.709362e-07
5.038242e-06
-1.182858e-05
-1.182858e-05
-1.583780e-05
-1.583780e-05
-3.220605e-06
-1.107014e-05
-3.220605e-06
-1.107014e-05
1.323610e-05
1.323610e-05
9.736773e-05
9.736773e-05
1.673434e-04
6.064218e-05
1.673434e-04
6.064218e-05
1.980064e-04
1.980064e-04
1.820192e-04
1.820192e-04
2.197741e-06
1.907795e-04
2.197741e-06
1.907795e-04
4.644096e-06
4.644096e-06
-1.937717e-04
-1.937717e-04
-3.408665e-04
-2.410599e-04
-3.408665e-04
-2.410599e-04
-2.828172e-04
-2.828172e-04
-4.171725e-04
-4.171725e-04
-4.161398e-04
-3.391353e-04
-4.161398e-04
-3.391353e-04
-6.675424e-04
-6.675424e-04
-6.444971e-04
-6.444971e-04
-1.056616e-03
-7.578132e-04
-1.056616e-03
-7.578132e-04
-3.756920e-04
-3.756920e-04
-1.982364e-04
-1.982364e-04
-2.234139e-04
-9.756877e-04
-2.234139e-04
-9.756877e-04
-1.988133e-04
-1.988133e-04
-2.065784e-04
-2.065784e-04
-5.578701e-04
1.558901e-04
-5.578701e-04
1.558901e-04
-3.350014e-04
-3.350014e-04
-5.268517e-04
-5.268517e-04
-8.471260e-04
-1.093387e-03
-8.471260e-04
-1.093387e-03
-4.454117e-04
-4.454117e-04
-2.125381e-04
-2.125381e-04
-2.201804e-04
-3.762173e-04
-2.201804e-04
-3.762173e-04
-1.244213e-04
-1.244213e-04
-2.493811e-04
-2.493811e-04
-3.520785e-04
-2.638850e-04
-3.520785e-04
-2.638850e-04
-2.876678e-04
-2.876678e-04
-1.847889e-04
-1.847889e-04
-3.314754e-04
-4.037098e-04
-3.314754e-04
-4.037098e-04
-8.109759e-05
-8.109759e-05
-4.411996e-05
-4.411996e-05
-5.156794e-05
-1.132113e-04
-5.156794e-05
-1.132113e-04
-6.460927e-07
-6.460927e-07
-4.248412e-06
-4.248412e-06
-2.287591e-06
-2.287591e-06
-2.007512e-06
-2.007512e-06
-5.252527e-06
-5.252527e-06
-3.076063e-06
-3.076063e-06
-8.666853e-07
-8.666853e-07
-3.858513e-06
-3.858513e-06
-5.253092e-06
-5.253092e-06
-4.341600e-06
-4.341600e-06
-1.945329e-06
-1.945329e-06
1.683276e-07
1.683276e-07
-1.009632e-06
-1.009632e-06
-5.595623e-07
-5.595623e-07
3.108875e-06
3.108875e-06
4.133467e-06
4.133467e-06
3.668455e-06
3.668455e-06
1.198411e-06
1.198411e-06
-4.365851e-06
-4.365851e-06
2.274898e-05
2.274898e-05
1.140819e-04
1.140819e-04
2.039699e-04
2.039699e-04
9.291853e-05
9.291853e-05
-2.325005e-04
-2.325005e-04
-4.080852e-04
-4.080852e-04
-4.201673e-04
-4.201673e-04
-4.400914e-04
-4.400914e-04
-4.777097e-04
-4.777097e-04
-6.586109e-04
-6.586109e-04
-1.155712e-03
-1.155712e-03
-7.662055e-04
-7.662055e-04
1.490832e-03
1.490832e-03
2.770458e-03
2.770458e-03
1.455040e-03
1.455040e-03
-6.201552e-04
-6.201552e-04
-9.082529e-04
-9.082529e-04
-2.479441e-04
-2.479441e-04
-3.633351e-04
-3.633351e-04
-5.238513e-04
-5.238513e-04
-5.381624e-04
-5.381624e-04
-4.651971e-04
-4.651971e-04
-4.656132e-04
-4.656132e-04
-1.715709e-06
-1.116370e-06
-1.187665e-06
-1.938356e-06
-1.817226e-06
-1.616038e-06
-1.342193e-06
-1.483255e-06
-2.238053e-06
-3.263809e-06
-3.484180e-06
-3.292531e-06
-4.592972e-07
-1.748061e-06
-3.725787e-06
-5.139449e-06
-6.063060e-06
-6.261971e-06
-2.760800e-07
-1.869593e-06
-4.212009e-06
-5.644673e-06
-7.041629e-06
-7.754825e-06
-6.524866e-07
-2.272880e-06
-4.216688e-06
-5.115713e-06
-6.755907e-06
-7.820493e-06
-9.178028e-07
-2.266819e-06
-3.602313e-06
-4.177357e-06
-5.850167e-06
-6.934410e-06
2.848861e-08
-1.203754e-06
-2.425453e-06
-3.297452e-06
-4.653796e-06
-5.127596e-06
1.254046e-06
1.640559e-07
-1.457043e-06
-2.521208e-06
-3.243555e-06
-3.432845e-06
6.993943e-07
4.696509e-07
-7.393858e-07
-1.632749e-06
-1.822833e-06
-2.098847e-06
-1.607650e-07
-1.038533e-07
-3.346767e-07
-4.535044e-07
-4.588559e-07
-6.331150e-07
-4.020773e-07
-4.924692e-07
-2.858978e-07
1.879767e-07
2.516441e-07
1.384002e-07
-6.932270e-07
-5.042331e-08
-6.224284e-08
-1.101491e-06
-1.957891e-06
-2.429665e-06
-2.092957e-07
2.255633e-07
-3.747284e-08
-1.741476e-06
-3.508345e-06
-4.269105e-06
2.307075e-06
1.142147e-06
-1.321966e-07
-2.114692e-06
-5.555595e-06
-7.123418e-06
3.605686e-06
1.437057e-06
-6.317418e-08
-1.373807e-06
-5.775920e-06
-8.199003e-06
2.665257e-06
8.371257e-07
1.119009e-07
-7.096326e-07
-5.297204e-06
-7.960336e-06
2.100569e-06
4.769321e-07
-2.078108e-07
-8.361375e-07
-4.852331e-06
-7.301305e-06
5.380451e-07
5.170005e-08
-5.409131e-07
-1.538083e-06
-4.188319e-06
-5.947653e-06
2.210005e-07
9.616104e-08
-5.866463e-07
-1.828629e-06
-3.334085e-06
-4.155526e-06
8.062710e-07
4.721504e-07
-4.076153e-07
-1.424917e-06
-2.342478e-06
-2.788382e-06
-8.357779e-08
1.202450e-08
-1.852506e-07
-5.479059e-07
-9.978396e-07
-1.377995e-06
-6.713054e-07
-4.603476e-07
-1.608184e-07
2.022914e-08
-2.119599e-07
-5.366249e-07
1.996290e-06
1.241640e-06
1.226859e-06
4.633501e-07
-2.211073e-06
-3.382119e-06
3.109192e-06
2.791403e-06
2.610994e-06
2.994069e-07
-3.659797e-06
-5.170034e-06
6.454492e-06
5.471298e-06
4.736382e-06
8.736506e-07
-5.326489e-06
-7.415620e-06
7.766500e-06
6.273375e-06
5.683579e-06
2.467527e-06
-4.841136e-06
-8.030417e-06
5.505738e-06
5.102603e-06
5.427398e-06
2.959508e-06
-3.825001e-06
-7.413690e-06
5.703876e-06
3.769303e-06
3.443344e-06
2.010185e-06
-3.760626e-06
-6.489664e-06
4.348077e-06
2.054448e-06
1.100414e-06
3.872366e-07
-4.013311e-06
-6.361084e-06
3.442230e-07
3.684020e-07
1.063596e-07
-1.301685e-06
-4.002214e-06
-5.580920e-06
1.387237e-07
2.772387e-07
-2.040482e-07
-1.892211e-06
-3.523350e-06
-4.086128e-06
1.799089e-07
1.232921e-07
-3.478845e-07
-1.236506e-06
-2.134050e-06
-2.557533e-06
-6.829500e-07
-4.012637e-07
-3.543661e-07
-6.418633e-07
-1.208272e-06
-1.721973e-06
1.352762e-06
1.025026e-06
2.852946e-06
2.302596e-06
-1.452894e-06
-2.502375e-06
1.713778e-06
2.487546e-06
3.972250e-06
1.393559e-06
-2.762956e-06
-3.629844e-06
7.475405e-07
4.208759e-06
5.851906e-06
-7.802324e-07
-5.447000e-06
-5.299700e-06
2.843575e-06
4.587880e-06
5.176198e-06
-1.063965e-06
-6.476920e-06
-6.805701e-06
1.490717e-06
2.560767e-06
3.163867e-06
-1.059568e-07
-4.839497e-06
-6.770163e-06
-3.719012e-06
2.472823e-08
3.097595e-06
9.665631e-08
-3.362460e-06
-4.491511e-06
1.432920e-06
1.273389e-06
2.141955e-06
1.966527e-07
-3.446006e-06
-4.115265e-06
4.009138e-06
1.879087e-06
2.407820e-07
-1.142634e-06
-4.260372e-06
-5.502949e-06
8.931150e-07
5.590719e-07
-6.626636e-07
-2.790446e-06
-4.565700e-06
-5.100864e-06
3.277794e-07
2.230177e-08
-1.002611e-06
-2.463082e-06
-3.219655e-06
-3.235193e-06
-1.308294e-07
-2.259114e-07
-8.746501e-07
-1.701561e-06
-2.115427e-06
-2.256037e-06
2.867509e-06
3.458264e-06
6.738022e-06
6.673852e-06
1.915064e-06
-9.055071e-08
5.201852e-06
4.706506e-06
5.040894e-06
5.027474e-06
2.426945e-06
6.695696e-07
-9.518883e-06
-4.115429e-06
-2.048806e-06
-2.972402e-06
9.361763e-07
2.431518e-06
-2.918752e-05
-2.094472e-05
-1.275702e-05
-9.415836e-06
-1.372746e-06
3.274075e-06
-1.876087e-05
-1.806244e-05
-1.492013e-05
-7.442428e-06
2.379695e-07
2.884543e-06
-3.571174e-06
-2.079050e-06
-4.399428e-06
-2.809329e-06
2.527180e-06
2.461090e-06
1.694433e-06
3.129107e-06
2.583969e-06
1.337490e-06
1.237780e-06
4.047366e-07
2.705185e-06
1.068251e-06
1.416369e-06
8.326265e-07
-2.560661e-06
-3.385154e-06
2.606668e-07
-9.997959e-08
-6.820423e-07
-2.923763e-06
-4.976265e-06
-5.008462e-06
5.251260e-07
1.174501e-07
-1.565514e-06
-3.700938e-06
-4.085329e-06
-3.609583e-06
1.128747e-06
5.760931e-07
-1.133390e-06
-2.803654e-06
-2.915606e-06
-2.514124e-06
6.692817e-06
6.334234e-06
9.160691e-06
9.933840e-06
4.412326e-06
1.302703e-06
1.227093e-05
8.086346e-06
5.196168e-06
8.085787e-06
6.592719e-06
3.504440e-06
-1.269731e-05
-9.738135e-06
-9.790055e-06
-3.547102e-06
7.161505e-06
8.616063e-06
-5.601664e-05
-4.326217e-05
-2.858493e-05
-1.466575e-05
5.036287e-06
1.274190e-05
-3.547470e-05
-3.498835e-05
-2.975370e-05
-1.245037e-05
6.343434e-06
1.258221e-05
6.584487e-06
1.103666e-07
-1.129405e-05
-4.296683e-06
8.112525e-06
8.594074e-06
8.171577e-06
6.513177e-06
1.741231e-06
2.834863e-06
5.063791e-06
3.085543e-06
-1.107414e-06
-9.131341e-07
2.280144e-06
2.483201e-06
-1.180391e-06
-2.048043e-06
-1.900597e-06
-1.238275e-06
-3.710091e-07
-2.833971e-06
-5.005706e-06
-4.509535e-06
7.609017e-07
3.089786e-07
-1.785750e-06
-4.306417e-06
-4.462623e-06
-3.740969e-06
2.093787e-06
1.229708e-06
-1.190472e-06
-3.340393e-06
-3.341340e-06
-2.748468e-06
SCALARS E12 float 1
LOOKUP_TABLE default
-4.585405e-05
-8.731061e-06
1.637999e-05
-3.202631e-05
-4.585405e-05
-8.731061e-06
1.637999e-05
-3.202631e-05
-1.958063e-06
7.789674e-05
-1.958063e-06
7.789674e-05
3.161232e-04
1.563386e-04
3.161232e-04
1.563386e-04
8.555141e-05
8.555141e-05
-7.187679e-06
-8.326691e-06
2.578892e-07
-3.653041e-06
-7.187679e-06
-8.326691e-06
2.578892e-07
-3.653041e-06
7.658494e-06
1.862330e-06
7.658494e-06
1.862330e-06
-1.818048e-06
1.184040e-05
-1.818048e-06
1.184040e-05
6.922686e-06
6.922686e-06
2.368765e-05
-2.171574e-06
-1.016973e-05
2.368765e-05
-2.171574e-06
-1.016973e-05
1.045572e-05
4.608660e-06
1.045572e-05
4.608660e-06
-2.695156e-06
-1.171527e-05
-2.695156e-06
-1.171527e-05
-1.027427e-05
-1.027427e-05
3.585559e-06
1.215133e-06
-2.702894e-07
2.158606e-06
3.585559e-06
1.215133e-06
-2.702894e-07
2.158606e-06
-3.511303e-06
-5.417946e-07
-3.511303e-06
-5.417946e-07
-8.588754e-06
-5.699037e-06
-8.588754e-06
-5.699037e-06
-2.870921e-06
-2.870921e-06
4.926053e-06
-6.487417e-06
3.275387e-06
1.588313e-05
4.926053e-06
-6.487417e-06
3.275387e-06
1.588313e-05
-4.664573e-06
-4.664573e-06
-6.103747e-06
-6.103747e-06
2.883612e-06
3.024989e-06
4.741394e-06
7.559511e-06
2.883612e-06
3.024989e-06
4.741394e-06
7.559511e-06
2.991095e-06
2.991095e-06
4.291710e-06
4.291710e-06
8.870176e-07
1.788561e-06
1.319495e-05
1.326188e-05
8.870176e-07
1.788561e-06
1.319495e-05
1.326188e-05
2.446184e-06
1.169711e-05
2.446184e-06
1.169711e-05
-8.766843e-07
4.782412e-06
-8.766843e-07
4.782412e-06
3.901615e-06
3.901615e-06
-7.416748e-07
1.913722e-06
1.417369e-06
-2.586106e-06
-7.416748e-07
1.913722e-06
1.417369e-06
-2.586106e-06
-3.430331e-06
3.825317e-07
-3.430331e-06
3.825317e-07
1.124702e-06
-3.481200e-06
1.124702e-06
-3.481200e-06
4.464813e-07
4.464813e-07
5.715605e-05
1.260714e-04
9.341625e-05
8.887319e-05
5.715605e-05
1.260714e-04
9.341625e-05
8.887319e-05
2.982412e-04
1.002293e-04
2.982412e-04
1.002293e-04
2.615317e-05
6.590024e-05
2.615317e-05
6.590024e-05
6.644461e-05
6.644461e-05
-2.221524e-05
-5.623335e-06
3.815354e-05
-2.221524e-05
-5.623335e-06
3.815354e-05
1.110903e-05
9.063929e-06
1.110903e-05
9.063929e-06
-4.050629e-08
-4.050629e-08
1.311105e-05
1.311105e-05
4.666890e-07
2.959888e-06
4.666890e-07
2.959888e-06
-8.488033e-06
-2.646948e-05
-5.772999e-06
-3.017160e-05
-8.488033e-06
-2.646948e-05
-5.772999e-06
-3.017160e-05
1.200733e-06
1.200733e-06
1.236945e-05
-2.441000e-07
-7.501851e-06
8.081935e-06
1.236945e-05
-2.441000e-07
-7.501851e-06
8.081935e-06
5.763672e-06
5.763672e-06
-1.288387e-05
-1.288387e-05
1.137101e-06
1.137101e-06
-3.970476e-05
-3.970476e-05
-2.462878e-06
-2.462878e-06
1.069531e-05
1.069531e-05
-9.386799e-06
2.415902e-06
-9.386799e-06
2.415902e-06
-2.034390e-05
-2.034390e-05
7.024617e-06
-3.459226e-06
7.024617e-06
-3.459226e-06
6.814428e-06
6.814428e-06
4.255310e-06
3.668660e-06
4.255310e-06
3.668660e-06
-9.624130e-06
6.566618e-06
-9.624130e-06
6.566618e-06
4.040131e-06
-1.672348e-07
4.040131e-06
-1.672348e-07
-6.672937e-06
-6.672937e-06
3.295394e-06
3.295394e-06
1.956604e-06
-5.858613e-07
1.956604e-06
-5.858613e-07
-4.026837e-06
-4.026837e-06
2.579418e-06
3.049502e-07
2.579418e-06
3.049502e-07
-3.945295e-06
5.912233e-07
6.465723e-06
9.408941e-06
-3.945295e-06
5.912233e-07
6.465723e-06
9.408941e-06
7.230589e-07
2.173499e-06
7.230589e-07
2.173499e-06
-5.508523e-06
-4.538817e-06
-5.508523e-06
-4.538817e-06
5.800189e-06
3.993142e-06
2.026868e-07
1.104866e-06
5.800189e-06
3.993142e-06
2.026868e-07
1.104866e-06
2.429366e-06
1.907995e-06
2.429366e-06
1.907995e-06
-9.605590e-08
-2.848672e-07
-9.605590e-08
-2.848672e-07
-3.596624e-07
-3.596624e-07
-7.462162e-06
-3.335432e-06
-7.462162e-06
-3.335432e-06
-4.572074e-06
-4.572074e-06
-2.863633e-08
-2.863633e-08
9.748582e-07
3.847252e-06
2.494086e-06
2.404913e-06
9.748582e-07
3.847252e-06
2.494086e-06
2.404913e-06
1.077629e-06
1.077629e-06
7.555870e-06
7.555870e-06
5.618347e-06
5.019231e-06
4.931598e-06
3.488759e-06
5.618347e-06
5.019231e-06
4.931598e-06
3.488759e-06
-3.495439e-06
-3.495439e-06
-7.742896e-06
-5.037329e-06
-2.468165e-07
-1.703262e-06
-7.742896e-06
-5.037329e-06
-2.468165e-07
-1.703262e-06
4.951391e-06
4.951391e-06
1.373128e-06
6.130746e-06
1.373128e-06
6.130746e-06
9.489058e-06
1.056251e-05
9.489058e-06
1.056251e-05
7.033458e-06
7.033458e-06
-8.933905e-07
-8.933905e-07
-5.482932e-06
-5.482932e-06
-3.599096e-06
-6.191207e-06
-3.599096e-06
-6.191207e-06
-2.764514e-06
-9.478303e-06
-2.764514e-06
-9.478303e-06
-2.585728e-06
-2.585728e-06
-1.861616e-06
-3.469600e-06
-1.226748e-05
-1.050611e-05
-1.861616e-06
-3.469600e-06
-1.226748e-05
-1.050611e-05
-7.074054e-06
-7.074054e-06
-2.730169e-06
-2.730169e-06
1.449596e-05
2.606411e-05
7.000380e-05
4.524801e-05
1.449596e-05
2.606411e-05
7.000380e-05
4.524801e-05
1.975058e-06
1.975058e-06
1.342790e-06
1.342790e-06
3.364697e-06
3.364697e-06
-1.919807e-05
-2.359885e-05
-1.919807e-05
-2.359885e-05
-3.794566e-05
-3.794566e-05
-3.668128e-05
-3.668128e-05
2.299397e-06
2.964834e-05
2.299397e-06
2.964834e-05
-2.254044e-06
-2.254044e-06
-1.799457e-06
-1.799457e-06
-5.655602e-06
-4.827375e-06
-5.655602e-06
-4.827375e-06
-9.233013e-07
-1.593424e-06
-9.233013e-07
-1.593424e-06
5.572808e-05
1.931411e-05
-4.813782e-05
-5.198978e-05
5.572808e-05
1.931411e-05
-4.813782e-05
-5.198978e-05
-8.089239e-06
-8.089239e-06
-8.315894e-06
-8.315894e-06
8.210877e-05
-4.700996e-05
8.210877e-05
-4.700996e-05
1.172156e-04
4.212253e-04
1.172156e-04
4.212253e-04
-1.996358e-06
-1.996358e-06
8.837929e-06
8.837929e-06
-3.331476e-06
1.032850e-05
-3.331476e-06
1.032850e-05
1.134512e-06
1.134512e-06
-8.780133e-07
-1.893117e-06
-8.780133e-07
-1.893117e-06
1.950345e-06
1.950345e-06
1.309008e-07
1.309008e-07
1.270169e-07
1.270169e-07
-4.486377e-07
-3.832421e-06
-4.486377e-07
-3.832421e-06
1.740031e-06
1.740031e-06
-1.184951e-06
-1.184951e-06
-1.181521e-06
4.526873e-07
-1.181521e-06
4.526873e-07
-2.231521e-06
-2.231521e-06
-6.184490e-07
-6.184490e-07
-8.108838e-07
7.534952e-07
-8.108838e-07
7.534952e-07
-3.853795e-07
-3.853795e-07
-2.453245e-07
-2.453245e-07
-7.035836e-06
-5.003680e-06
-7.035836e-06
-5.003680e-06
2.557280e-06
3.338297e-06
2.557280e-06
3.338297e-06
1.874028e-06
1.874028e-06
2.342624e-06
1.370635e-07
2.342624e-06
1.370635e-07
5.306345e-06
5.306345e-06
-3.093254e-06
-3.093254e-06
-1.820650e-06
-1.820650e-06
-1.561384e-06
1.576220e-06
-1.561384e-06
1.576220e-06
-8.788964e-07
-8.788964e-07
1.575008e-06
1.575008e-06
7.488471e-07
-1.495083e-06
7.488471e-07
-1.495083e-06
5.062173e-06
5.062173e-06
1.442101e-06
1.442101e-06
4.782350e-08
1.190511e-06
4.782350e-08
1.190511e-06
-1.748742e-06
-1.748742e-06
-1.979249e-06
-1.979249e-06
1.362683e-06
5.702069e-07
1.362683e-06
5.702069e-07
-3.681134e-06
4.526155e-06
-3.681134e-06
4.526155e-06
-3.007267e-07
-3.007267e-07
-1.306880e-06
-3.086982e-06
-1.306880e-06
-3.086982e-06
1.543798e-06
1.543798e-06
3.515571e-06
3.515571e-06
1.143603e-06
1.143603e-06
-2.978786e-07
-4.459092e-08
-2.978786e-07
-4.459092e-08
-1.571353e-07
-1.571353e-07
-1.190957e-06
-1.190957e-06
-8.824436e-07
-9.077341e-07
-8.824436e-07
-9.077341e-07
-2.130451e-06
-2.130451e-06
-1.199118e-08
-1.199118e-08
-1.990610e-07
-5.567389e-07
-1.990610e-07
-5.567389e-07
2.965850e-07
2.965850e-07
-9.279156e-07
-9.279156e-07
-2.825423e-07
-3.908619e-08
-2.825423e-07
-3.908619e-08
-1.675019e-06
-3.858458e-06
-1.675019e-06
-3.858458e-06
-1.601836e-06
-1.601836e-06
2.440590e-07
8.254693e-07
2.440590e-07
8.254693e-07
-2.962188e-06
-2.962188e-06
-2.798691e-06
-2.798691e-06
-1.522443e-06
-1.522443e-06
-2.494082e-07
-1.578315e-06
-2.494082e-07
-1.578315e-06
-1.059391e-06
-1.059391e-06
-1.341293e-06
-1.341293e-06
-1.540819e-06
1.161355e-07
-1.540819e-06
1.161355e-07
-1.116270e-08
-1.116270e-08
4.275032e-07
4.275032e-07
1.257816e-06
8.447592e-08
1.257816e-06
8.447592e-08
-7.571012e-07
-7.571012e-07
-1.450621e-06
-1.450621e-06
-3.003518e-06
-1.449036e-06
-3.003518e-06
-1.449036e-06
1.276963e-06
-7.464726e-07
1.276963e-06
-7.464726e-07
1.357282e-06
1.357282e-06
-2.359735e-06
1.485458e-08
-2.359735e-06
1.485458e-08
-2.127463e-06
-2.127463e-06
-1.464596e-06
-1.464596e-06
-2.766294e-06
-2.766294e-06
-2.862830e-06
-4.385039e-06
-2.862830e-06
-4.385039e-06
-1.035611e-06
-1.035611e-06
6.281414e-07
6.281414e-07
1.644021e-06
-3.966274e-07
1.644021e-06
-3.966274e-07
6.200516e-07
6.200516e-07
5.264208e-07
5.264208e-07
1.296323e-06
7.040664e-07
1.296323e-06
7.040664e-07
-2.303939e-07
-2.303939e-07
-1.334563e-06
-1.334563e-06
-2.095232e-06
7.299497e-07
-2.095232e-06
7.299497e-07
-9.860316e-07
-2.932974e-06
-9.860316e-07
-2.932974e-06
-6.610914e-06
-6.610914e-06
-6.158711e-06
-1.670660e-06
-6.158711e-06
-1.670660e-06
-8.908177e-07
-8.908177e-07
-9.276722e-06
-9.276722e-06
-2.084758e-06
-2.084758e-06
-2.817799e-06
-8.730261e-06
-2.817799e-06
-8.730261e-06
1.313014e-06
1.313014e-06
-5.135809e-07
-5.135809e-07
1.284299e-06
2.436752e-06
1.284299e-06
2.436752e-06
-1.444230e-06
-1.444230e-06
1.074162e-06
1.074162e-06
-5.323943e-07
-1.579349e-06
-5.323943e-07
-1.579349e-06
9.547996e-07
9.547996e-07
-1.876282e-06
-1.876282e-06
1.217307e-06
1.585752e-06
1.217307e-06
1.585752e-06
-8.488087e-07
2.135566e-06
-8.488087e-07
2.135566e-06
-3.530024e-06
-3.530024e-06
-3.754796e-06
-1.518315e-06
-3.754796e-06
-1.518315e-06
2.894778e-06
2.894778e-06
-4.279403e-06
-4.279403e-06
3.796747e-07
3.796747e-07
5.185864e-07
-3.044256e-06
5.185864e-07
-3.044256e-06
3.864106e-06
3.864106e-06
2.519935e-06
2.519935e-06
8.979865e-07
1.537007e-06
8.979865e-07
1.537007e-06
2.768448e-07
2.768448e-07
-2.796058e-07
-2.796058e-07
-4.725217e-07
4.648870e-07
-4.725217e-07
4.648870e-07
1.464696e-06
1.464696e-06
1.989619e-06
1.989619e-06
4.304956e-06
2.153518e-06
4.304956e-06
2.153518e-06
-1.772167e-06
2.644089e-07
-1.772167e-06
2.644089e-07
-5.271029e-06
-5.271029e-06
-4.413587e-06
-1.350676e-06
-4.413587e-06
-1.350676e-06
-2.631144e-06
-2.631144e-06
-4.557989e-06
-4.557989e-06
-1.517861e-06
-1.517861e-06
1.760744e-07
-3.897413e-06
1.760744e-07
-3.897413e-06
-4.759664e-07
-4.759664e-07
-1.291998e-06
-1.291998e-06
-2.433255e-06
-2.897656e-07
-2.433255e-06
-2.897656e-07
-2.814982e-06
-2.814982e-06
-3.684890e-06
-3.684890e-06
-2.700438e-06
-2.459882e-06
-2.700438e-06
-2.459882e-06
9.239807e-08
9.239807e-08
3.928216e-06
3.928216e-06
-2.602345e-07
-1.959112e-06
-2.602345e-07
-1.959112e-06
6.775012e-07
-2.483368e-06
6.775012e-07
-2.483368e-06
8.622388e-08
8.622388e-08
3.904309e-06
3.113809e-06
3.904309e-06
3.113809e-06
-3.685322e-06
-3.685322e-06
1.867267e-06
1.867267e-06
5.746681e-07
5.746681e-07
-6.276497e-07
3.686132e-06
-6.276497e-07
3.686132e-06
-3.671265e-06
-3.671265e-06
9.315072e-07
9.315072e-07
-1.837033e-06
-6.057553e-06
-1.837033e-06
-6.057553e-06
3.729426e-06
3.729426e-06
5.472183e-07
5.472183e-07
-2.566536e-07
2.490558e-06
-2.566536e-07
2.490558e-06
4.905834e-07
4.905834e-07
1.928864e-06
1.928864e-06
1.835085e-06
-6.180136e-07
1.835085e-06
-6.180136e-07
5.205616e-07
-3.391674e-06
5.205616e-07
-3.391674e-06
2.692712e-06
2.692712e-06
2.689233e-06
-5.025770e-07
2.689233e-06
-5.025770e-07
-3.777560e-07
-3.777560e-07
3.284993e-06
3.284993e-06
7.859415e-07
7.859415e-07
4.382957e-06
8.003636e-06
4.382957e-06
8.003636e-06
-2.924794e-06
-2.924794e-06
-4.945583e-06
-4.945583e-06
3.987208e-07
1.243720e-06
3.987208e-07
1.243720e-06
-1.254176e-06
-1.254176e-06
-9.401432e-07
-9.401432e-07
-1.351105e-06
-7.023184e-07
-1.351105e-06
-7.023184e-07
-4.358150e-06
-4.358150e-06
-4.235245e-06
-4.235245e-06
-3.582048e-06
-2.855801e-06
-3.582048e-06
-2.855801e-06
1.089002e-06
2.342580e-07
1.089002e-06
2.342580e-07
4.467360e-06
4.467360e-06
6.406874e-06
3.189898e-06
6.406874e-06
3.189898e-06
2.094675e-06
2.094675e-06
9.153966e-06
9.153966e-06
5.502745e-06
5.502745e-06
4.043149e-06
7.381853e-06
4.043149e-06
7.381853e-06
3.070264e-06
3.070264e-06
4.123807e-06
4.123807e-06
9.604604e-07
1.544360e-06
9.604604e-07
1.544360e-06
3.140581e-07
3.140581e-07
-1.316682e-06
-1.316682e-06
7.764617e-07
1.209941e-07
7.764617e-07
1.209941e-07
7.601084e-07
7.601084e-07
1.255580e-06
1.255580e-06
3.840651e-07
1.135146e-06
3.840651e-07
1.135146e-06
1.961264e-06
2.631741e-06
1.961264e-06
2.631741e-06
4.360868e-06
4.360868e-06
1.949567e-07
-1.815748e-06
1.949567e-07
-1.815748e-06
1.856270e-06
1.856270e-06
4.374762e-06
4.374762e-06
2.547167e-06
2.547167e-06
2.099557e-06
1.481099e-06
2.099557e-06
1.481099e-06
5.872589e-07
5.872589e-07
-7.601358e-08
-7.601358e-08
4.958395e-06
3.912962e-06
4.958395e-06
3.912962e-06
1.413877e-06
1.413877e-06
2.161710e-06
2.161710e-06
1.011251e-06
4.017247e-06
1.011251e-06
4.017247e-06
7.298216e-08
7.298216e-08
-1.881987e-06
-1.881987e-06
-3.449300e-06
-2.197417e-06
-3.449300e-06
-2.197417e-06
-2.493680e-06
2.644114e-06
-2.493680e-06
2.644114e-06
-9.928695e-07
-9.928695e-07
-2.110258e-06
-2.414543e-06
-2.110258e-06
-2.414543e-06
6.989486e-07
6.989486e-07
6.233070e-07
6.233070e-07
5.692965e-07
5.692965e-07
-9.891638e-07
-1.096155e-06
-9.891638e-07
-1.096155e-06
3.241235e-06
3.241235e-06
3.752799e-06
3.752799e-06
-1.247077e-06
-1.145625e-06
-1.247077e-06
-1.145625e-06
2.442717e-06
2.442717e-06
2.721139e-07
2.721139e-07
-2.929563e-07
-4.828607e-07
-2.929563e-07
-4.828607e-07
-3.617389e-06
-3.617389e-06
-5.498132e-06
-5.498132e-06
-3.986487e-06
-2.022427e-06
-3.986487e-06
-2.022427e-06
-1.168545e-06
8.789167e-07
-1.168545e-06
8.789167e-07
-6.822369e-07
-6.822369e-07
1.260553e-06
-4.184768e-08
1.260553e-06
-4.184768e-08
2.985040e-06
2.985040e-06
2.073741e-06
2.073741e-06
6.955036e-07
6.955036e-07
2.236236e-06
6.121541e-06
2.236236e-06
6.121541e-06
-3.234135e-06
-3.234135e-06
-1.811989e-06
-1.811989e-06
-1.227182e-06
-3.968819e-06
-1.227182e-06
-3.968819e-06
3.840276e-07
3.840276e-07
-1.187488e-07
-1.187488e-07
9.876057e-07
2.045667e-06
9.876057e-07
2.045667e-06
9.568093e-07
9.568093e-07
1.461238e-06
1.461238e-06
4.965879e-06
2.839227e-06
4.965879e-06
2.839227e-06
3.456705e-06
3.992557e-06
8.202307e-06
4.273432e-06
3.456705e-06
3.992557e-06
8.202307e-06
4.273432e-06
1.704674e-06
3.204652e-06
1.704674e-06
3.204652e-06
4.901526e-06
9.627799e-06
4.901526e-06
9.627799e-06
5.667396e-06
5.667396e-06
2.834202e-07
-6.129297e-07
2.834202e-07
-6.129297e-07
9.516393e-07
8.154071e-07
9.516393e-07
8.154071e-07
-1.553830e-06
5.492579e-07
-1.553830e-06
5.492579e-07
-1.673878e-06
-1.675556e-06
-1.673878e-06
-1.675556e-06
-6.163569e-06
-6.163569e-06
8.649455e-06
6.357033e-06
8.649455e-06
6.357033e-06
5.350843e-06
5.350843e-06
6.356011e-06
6.234153e-06
6.356011e-06
6.234153e-06
4.724129e-06
4.724129e-06
9.615553e-07
9.615553e-07
-2.609704e-06
-2.609704e-06
-2.279311e-06
2.563515e-06
-2.279311e-06
2.563515e-06
-6.287731e-06
-6.287731e-06
-4.074159e-06
-4.074159e-06
5.412831e-06
4.072016e-06
5.412831e-06
4.072016e-06
6.522796e-06
6.522796e-06
6.919686e-06
7.239506e-06
6.919686e-06
7.239506e-06
2.920973e-06
2.920973e-06
4.853715e-06
4.853715e-06
1.343350e-06
1.343350e-06
8.380735e-07
2.367450e-06
8.380735e-07
2.367450e-06
-1.524998e-06
-1.524998e-06
1.332630e-06
1.332630e-06
5.482344e-06
1.023078e-06
5.482344e-06
1.023078e-06
7.811891e-06
7.811891e-06
3.232477e-06
1.281207e-06
3.232477e-06
1.281207e-06
1.115126e-06
1.115126e-06
-3.459124e-07
-3.459124e-07
-3.862072e-06
-3.862072e-06
-4.233480e-07
4.237209e-07
-4.233480e-07
4.237209e-07
1.350278e-06
1.350278e-06
3.805239e-06
3.805239e-06
8.144943e-07
2.790976e-06
8.144943e-07
2.790976e-06
-4.481906e-07
-4.481906e-07
-3.134422e-07
1.673555e-06
-3.134422e-07
1.673555e-06
1.259926e-06
1.259926e-06
2.820739e-06
2.820739e-06
4.663416e-06
4.663416e-06
2.974742e-06
2.281084e-06
2.974742e-06
2.281084e-06
5.324620e-06
5.324620e-06
1.677788e-06
1.677788e-06
1.114458e-06
-2.566201e-06
1.114458e-06
-2.566201e-06
-5.506012e-07
-5.506012e-07
-5.705890e-07
5.092491e-07
-5.705890e-07
5.092491e-07
-4.058443e-06
-4.058443e-06
-1.263587e-06
-1.263587e-06
-5.512401e-07
-5.512401e-07
-1.867781e-06
-2.739170e-06
-1.867781e-06
-2.739170e-06
2.137727e-07
2.137727e-07
1.201903e-06
1.201903e-06
-2.334995e-06
-8.025521e-07
-2.334995e-06
-8.025521e-07
6.805780e-06
6.805780e-06
3.338148e-06
2.687285e-06
3.338148e-06
2.687285e-06
6.917822e-06
6.917822e-06
7.102523e-06
7.102523e-06
2.906267e-06
2.906267e-06
-1.098735e-06
1.800560e-06
-1.098735e-06
1.800560e-06
-4.250483e-06
-4.250483e-06
-4.714027e-06
-4.714027e-06
-2.605912e-06
-2.137600e-06
-2.605912e-06
-2.137600e-06
-2.973546e-06
-2.973546e-06
-4.135515e-06
-4.135515e-06
-4.175485e-07
-3.173436e-06
-4.175485e-07
-3.173436e-06
-5.144584e-06
-5.144584e-06
-4.025722e-06
-4.025722e-06
-3.160708e-06
-1.037645e-06
-3.160708e-06
-1.037645e-06
5.089932e-07
5.089932e-07
3.468868e-06
3.468868e-06
9.760946e-07
-6.765250e-07
9.760946e-07
-6.765250e-07
-3.184165e-07
-3.184165e-07
-1.536192e-07
-1.536192e-07
-5.972400e-06
1.682158e-05
-5.972400e-06
1.682158e-05
-1.825661e-06
-1.825661e-06
-2.293125e-05
-5.892008e-06
-2.293125e-05
-5.892008e-06
3.938164e-05
3.938164e-05
-7.623351e-07
-7.623351e-07
-8.571057e-07
-8.571057e-07
2.850283e-07
-5.305843e-06
2.850283e-07
-5.305843e-06
-1.330082e-06
-1.330082e-06
-1.591989e-06
-1.591989e-06
3.468322e-06
3.033764e-06
3.468322e-06
3.033764e-06
-2.213958e-06
-2.213958e-06
1.201546e-06
1.201546e-06
-6.012860e-06
-7.974002e-07
-6.012860e-06
-7.974002e-07
1.979308e-06
1.979308e-06
2.300264e-07
2.300264e-07
-4.138595e-06
-5.913294e-06
-4.138595e-06
-5.913294e-06
1.061681e-06
1.061681e-06
8.734374e-07
8.734374e-07
2.751712e-06
-5.700814e-08
2.751712e-06
-5.700814e-08
5.287584e-07
5.287584e-07
1.799077e-06
1.799077e-06
1.620315e-06
1.620315e-06
5.134954e-07
5.134954e-07
-2.986400e-07
1.992638e-06
-2.986400e-07
1.992638e-06
-5.869500e-07
-5.869500e-07
1.134812e-06
1.134812e-06
-2.463378e-06
-6.276887e-06
-2.463378e-06
-6.276887e-06
-1.268882e-05
-1.268882e-05
-8.893942e-06
-8.893942e-06
-6.629560e-06
-1.080211e-05
-6.629560e-06
-1.080211e-05
2.296862e-06
2.296862e-06
2.288386e-06
2.288386e-06
1.030818e-05
1.286419e-05
1.030818e-05
1.286419e-05
1.426247e-05
1.426247e-05
1.270676e-05
1.270676e-05
6.648848e-06
6.037526e-06
6.648848e-06
6.037526e-06
-2.813773e-06
-2.813773e-06
-2.840230e-07
-2.840230e-07
-5.140594e-06
-2.185293e-05
-5.140594e-06
-2.185293e-05
-1.378042e-05
-1.378042e-05
-2.491622e-05
-2.491622e-05
-2.454221e-05
2.012350e-05
-2.454221e-05
2.012350e-05
-5.502378e-06
1.865820e-05
-5.502378e-06
1.865820e-05
-2.481392e-06
5.430921e-06
-2.481392e-06
5.430921e-06
9.099445e-06
1.491788e-05
9.099445e-06
1.491788e-05
-4.047588e-06
-3.312602e-06
-9.745087e-07
-3.659413e-06
-4.047588e-06
-3.312602e-06
-9.745087e-07
-3.659413e-06
-5.160116e-06
-4.954881e-06
-5.160116e-06
-4.954881e-06
1.666285e-06
1.828703e-06
1.666285e-06
1.828703e-06
-3.986715e-06
-3.986715e-06
-3.936250e-06
-3.582099e-06
-2.035010e-07
-8.349563e-07
-3.936250e-06
-3.582099e-06
-2.035010e-07
-8.349563e-07
-1.660557e-06
-1.408101e-06
-1.660557e-06
-1.408101e-06
1.852084e-07
-3.582993e-07
1.852084e-07
-3.582993e-07
-2.889017e-06
-2.889017e-06
8.852641e-07
-5.026835e-06
1.526052e-06
-1.476811e-06
8.852641e-07
-5.026835e-06
1.526052e-06
-1.476811e-06
-3.403330e-06
4.890330e-06
-3.403330e-06
4.890330e-06
8.971268e-06
4.068394e-06
8.971268e-06
4.068394e-06
-2.416183e-06
-2.416183e-06
1.282331e-06
-1.517334e-06
2.135105e-06
1.282331e-06
-1.517334e-06
2.135105e-06
-1.549010e-06
-3.931434e-06
-1.549010e-06
-3.931434e-06
-3.518855e-06
5.644796e-07
-3.518855e-06
5.644796e-07
7.818471e-06
7.818471e-06
1.126428e-05
9.630387e-06
5.491581e-06
1.036599e-05
1.126428e-05
9.630387e-06
5.491581e-06
1.036599e-05
1.318843e-06
1.318843e-06
6.895524e-06
6.895524e-06
-3.199201e-06
2.221549e-06
1.771349e-06
-2.846198e-06
-3.199201e-06
2.221549e-06
1.771349e-06
-2.846198e-06
1.677565e-06
5.510591e-06
1.677565e-06
5.510591e-06
6.121550e-06
3.446657e-06
6.121550e-06
3.446657e-06
1.228253e-07
1.228253e-07
-9.767123e-06
-9.996655e-07
1.479755e-05
-1.808254e-06
-9.767123e-06
-9.996655e-07
1.479755e-05
-1.808254e-06
7.330805e-06
7.330805e-06
2.593696e-05
2.593696e-05
5.642311e-06
5.642311e-06
2.594545e-06
1.778768e-06
2.594545e-06
1.778768e-06
1.880649e-06
1.880649e-06
8.962732e-07
7.084769e-09
8.962732e-07
7.084769e-09
-5.234163e-06
-5.234163e-06
-1.836152e-06
-6.751456e-07
3.926792e-06
4.201337e-06
-1.836152e-06
-6.751456e-07
3.926792e-06
4.201337e-06
-3.946848e-06
-3.946848e-06
-2.312990e-06
5.018812e-06
-2.312990e-06
5.018812e-06
4.516479e-06
4.516479e-06
-3.235381e-07
-2.125124e-06
-3.012857e-06
-4.043829e-06
-3.235381e-07
-2.125124e-06
-3.012857e-06
-4.043829e-06
1.351929e-07
-4.141362e-07
1.351929e-07
-4.141362e-07
2.463522e-07
2.463522e-07
-1.866708e-06
7.852811e-07
-1.866708e-06
7.852811e-07
2.737566e-06
2.737566e-06
3.403009e-06
1.235937e-05
6.697411e-06
-2.202172e-06
3.403009e-06
1.235937e-05
6.697411e-06
-2.202172e-06
9.242341e-06
9.242341e-06
-1.881842e-05
-1.881842e-05
1.373236e-05
5.799638e-06
1.373236e-05
5.799638e-06
5.780315e-06
5.780315e-06
7.957812e-06
1.275820e-05
7.957812e-06
1.275820e-05
2.965458e-06
3.956866e-07
3.259482e-06
2.965458e-06
3.956866e-07
3.259482e-06
-1.383047e-06
-1.383047e-06
6.414482e-06
6.414482e-06
-3.414584e-06
6.487832e-07
-1.096980e-06
-5.109389e-06
-3.414584e-06
6.487832e-07
-1.096980e-06
-5.109389e-06
-5.043746e-06
3.270556e-06
-5.043746e-06
3.270556e-06
-3.688928e-06
-3.688928e-06
-1.232327e-05
-1.232327e-05
-6.626487e-06
-8.323488e-06
-1.014019e-06
-1.372117e-06
-6.626487e-06
-8.323488e-06
-1.014019e-06
-1.372117e-06
-3.987542e-06
1.320956e-06
-3.987542e-06
1.320956e-06
-3.425276e-06
-1.593103e-06
-3.425276e-06
-1.593103e-06
-1.240288e-06
-1.240288e-06
3.312202e-06
4.760647e-06
5.587606e-06
1.305209e-07
3.312202e-06
4.760647e-06
5.587606e-06
1.305209e-07
3.833376e-06
3.833376e-06
-6.885318e-07
-6.885318e-07
-1.152738e-06
-1.152738e-06
-4.382549e-06
-4.382549e-06
-1.486911e-06
-4.672547e-06
-1.486911e-06
-4.672547e-06
-1.428364e-05
-3.744239e-06
-1.088572e-05
-2.079555e-07
-1.428364e-05
-3.744239e-06
-1.088572e-05
-2.079555e-07
6.242062e-06
-8.998434e-06
6.242062e-06
-8.998434e-06
-5.780016e-06
-8.153399e-06
-5.780016e-06
-8.153399e-06
-2.145841e-05
-2.145841e-05
-4.260286e-06
-6.211496e-06
-4.260286e-06
-6.211496e-06
1.664035e-06
1.664035e-06
3.436387e-07
-5.514957e-06
3.436387e-07
-5.514957e-06
-4.607471e-06
-4.607471e-06
6.254931e-06
3.723754e-06
6.254931e-06
3.723754e-06
5.107834e-06
5.107834e-06
1.077670e-05
1.077670e-05
-9.987954e-07
-9.987954e-07
1.834154e-05
-4.048212e-06
1.834154e-05
-4.048212e-06
-3.096134e-05
-3.096134e-05
-4.671001e-06
-7.782346e-06
-4.671001e-06
-7.782346e-06
1.638747e-06
-2.786707e-06
1.638747e-06
-2.786707e-06
1.196381e-06
1.384572e-06
2.215408e-06
1.417689e-06
1.196381e-06
1.384572e-06
2.215408e-06
1.417689e-06
-2.721489e-06
-4.730692e-06
-2.721489e-06
-4.730692e-06
-1.360278e-06
-1.360278e-06
1.320950e-06
1.994181e-06
1.320950e-06
1.994181e-06
4.076903e-06
4.076903e-06
-1.476344e-06
-1.476344e-06
2.816031e-06
2.816031e-06
-6.173404e-06
-5.202226e-06
-6.173404e-06
-5.202226e-06
-7.764843e-07
1.344909e-06
-7.764843e-07
1.344909e-06
2.236292e-05
2.236292e-05
7.342938e-06
7.342938e-06
4.226280e-06
4.226280e-06
4.948463e-06
4.948463e-06
-5.106924e-06
-5.106924e-06
1.648986e-06
1.648986e-06
2.756252e-06
-2.931068e-06
2.756252e-06
-2.931068e-06
-1.277652e-05
-9.254763e-06
-1.277652e-05
-9.254763e-06
1.605839e-06
1.605839e-06
-9.275654e-06
-9.275654e-06
1.241275e-06
1.241275e-06
-9.596593e-07
-9.596593e-07
-3.805178e-06
-7.887909e-06
-3.805178e-06
-7.887909e-06
-4.345234e-07
-4.345234e-07
-1.075272e-06
-1.027241e-06
-1.075272e-06
-1.027241e-06
2.296686e-06
2.296686e-06
3.641496e-07
9.731755e-07
3.641496e-07
9.731755e-07
-2.650563e-06
-4.590848e-07
-2.650563e-06
-4.590848e-07
2.594186e-08
3.731154e-06
2.594186e-08
3.731154e-06
9.432044e-07
7.143028e-07
9.432044e-07
7.143028e-07
4.291794e-07
-1.438708e-06
4.291794e-07
-1.438708e-06
-6.702050e-08
-5.163810e-07
-6.702050e-08
-5.163810e-07
-3.188636e-06
-3.072697e-06
-3.188636e-06
-3.072697e-06
-4.121370e-07
-6.321165e-07
-4.121370e-07
-6.321165e-07
4.516281e-07
3.272636e-07
4.516281e-07
3.272636e-07
-1.712498e-06
3.736556e-07
-1.712498e-06
3.736556e-07
-2.639196e-06
8.291704e-07
-2.639196e-06
8.291704e-07
1.312119e-06
-2.135212e-07
1.312119e-06
-2.135212e-07
-1.345262e-07
-5.427915e-08
-1.345262e-07
-5.427915e-08
8.378265e-07
1.491341e-07
8.378265e-07
1.491341e-07
-1.478399e-06
-5.752147e-07
-1.478399e-06
-5.752147e-07
-1.526094e-06
1.062471e-06
-1.526094e-06
1.062471e-06
-4.688611e-06
-1.157115e-06
-4.688611e-06
-1.157115e-06
2.377280e-06
3.038909e-06
2.377280e-06
3.038909e-06
-1.504609e-06
-7.504442e-08
-1.504609e-06
-7.504442e-08
1.655279e-06
1.289644e-06
1.655279e-06
1.289644e-06
2.511806e-06
1.286513e-06
2.511806e-06
1.286513e-06
1.338723e-06
-3.129251e-07
1.338723e-06
-3.129251e-07
2.641350e-07
-1.302181e-06
2.641350e-07
-1.302181e-06
-2.642355e-06
-3.530427e-07
-2.642355e-06
-3.530427e-07
9.911228e-07
8.697913e-07
9.911228e-07
8.697913e-07
1.274134e-06
2.556924e-06
1.274134e-06
2.556924e-06
2.167618e-06
-1.069036e-06
2.167618e-06
-1.069036e-06
-1.047420e-06
6.390179e-07
-1.047420e-06
6.390179e-07
-2.763750e-07
4.832200e-08
-2.763750e-07
4.832200e-08
-6.883607e-07
2.808880e-06
-6.883607e-07
2.808880e-06
2.624796e-06
2.779328e-06
2.624796e-06
2.779328e-06
3.411826e-06
4.050864e-06
3.411826e-06
4.050864e-06
3.259941e-06
1.422444e-07
3.259941e-06
1.422444e-07
-1.147023e-07
1.946679e-07
-1.147023e-07
1.946679e-07
-2.689376e-06
-8.645157e-07
-2.689376e-06
-8.645157e-07
-3.625021e-07
7.714538e-07
-3.625021e-07
7.714538e-07
9.156160e-07
9.213897e-07
9.156160e-07
9.213897e-07
2.765544e-06
-9.756353e-08
2.765544e-06
-9.756353e-08
-2.357796e-06
-4.926741e-07
-2.357796e-06
-4.926741e-07
-1.122013e-06
6.327952e-07
-1.122013e-06
6.327952e-07
-3.921359e-06
2.137256e-06
-3.921359e-06
2.137256e-06
1.796662e-06
-4.866973e-07
1.796662e-06
-4.866973e-07
2.038226e-06
2.038226e-06
-2.887318e-06
-2.887318e-06
-3.294846e-06
-4.795026e-08
-3.294846e-06
-4.795026e-08
-2.115190e-06
-2.115190e-06
2.017290e-06
2.017290e-06
2.468950e-06
-9.541294e-07
2.468950e-06
-9.541294e-07
8.666670e-07
8.666670e-07
8.813315e-08
8.813315e-08
-8.034380e-07
-1.454136e-07
-8.034380e-07
-1.454136e-07
-1.437185e-06
-1.437185e-06
-7.525270e-07
-7.525270e-07
-3.010274e-07
2.814393e-07
-3.010274e-07
2.814393e-07
1.863981e-06
1.863981e-06
6.613092e-07
6.613092e-07
-1.743619e-06
-1.191370e-06
-1.743619e-06
-1.191370e-06
6.350390e-07
6.350390e-07
-1.771361e-07
-1.771361e-07
-1.003493e-06
2.821382e-07
-1.003493e-06
2.821382e-07
-1.345858e-06
-1.345858e-06
-1.109258e-07
-1.109258e-07
-2.203843e-06
-3.869461e-06
-2.203843e-06
-3.869461e-06
7.984294e-07
7.984294e-07
6.544814e-07
6.544814e-07
2.513213e-06
1.070901e-06
2.513213e-06
1.070901e-06
-3.229647e-07
-3.229647e-07
2.318248e-06
2.318248e-06
-2.117930e-06
-7.265561e-07
-2.117930e-06
-7.265561e-07
2.718143e-06
2.718143e-06
-2.015946e-06
-2.015946e-06
-2.887772e-06
-1.916261e-06
-2.887772e-06
-1.916261e-06
-1.755160e-06
-1.755160e-06
1.262674e-07
1.262674e-07
-1.211627e-06
-1.417435e-06
-1.211627e-06
-1.417435e-06
-2.269012e-06
-2.269012e-06
-3.091158e-06
-3.091158e-06
-2.313760e-07
-1.894456e-06
-2.313760e-07
-1.894456e-06
-1.051892e-06
-1.051892e-06
-7.897969e-07
-7.897969e-07
1.074983e-06
8.113402e-07
1.074983e-06
8.113402e-07
-1.171679e-06
-1.171679e-06
-8.429817e-07
-8.429817e-07
-1.385613e-06
1.433222e-07
-1.385613e-06
1.433222e-07
1.207099e-06
1.207099e-06
-1.633402e-06
-1.633402e-06
1.663678e-06
2.058653e-06
1.663678e-06
2.058653e-06
-1.852495e-06
-1.852495e-06
1.226692e-06
1.226692e-06
-5.362954e-07
-3.919348e-06
-5.362954e-07
-3.919348e-06
2.295001e-06
2.295001e-06
7.145428e-07
7.145428e-07
4.011605e-07
3.709964e-06
4.011605e-07
3.709964e-06
1.591262e-06
1.591262e-06
-2.901029e-07
-2.901029e-07
-2.050265e-07
-6.627493e-07
-2.050265e-07
-6.627493e-07
-6.235846e-06
-6.235846e-06
-3.193863e-06
-3.193863e-06
-1.356416e-06
-2.656750e-06
-1.356416e-06
-2.656750e-06
3.785987e-06
3.785987e-06
6.582106e-07
6.582106e-07
6.610124e-07
1.743725e-06
6.610124e-07
1.743725e-06
-3.992376e-06
-3.992376e-06
-2.039924e-06
-2.039924e-06
-2.861130e-06
-2.361787e-06
-2.861130e-06
-2.361787e-06
-1.897658e-07
-1.897658e-07
3.168010e-07
3.168010e-07
-9.263025e-07
-1.083861e-06
-9.263025e-07
-1.083861e-06
-1.208823e-06
-1.208823e-06
-3.712110e-06
-3.712110e-06
1.849205e-06
-5.624801e-07
1.849205e-06
-5.624801e-07
-3.504167e-06
-3.504167e-06
-1.943277e-06
-1.943277e-06
-3.223779e-07
2.623077e-06
-3.223779e-07
2.623077e-06
3.513032e-07
3.513032e-07
1.769193e-06
1.769193e-06
3.051049e-06
1.117336e-07
3.051049e-06
1.117336e-07
1.989155e-06
1.989155e-06
1.472946e-06
1.472946e-06
-4.303221e-06
6.331232e-07
-4.303221e-06
6.331232e-07
-1.057141e-06
-1.057141e-06
-4.484162e-07
-4.484162e-07
-4.553299e-07
-4.138541e-06
-4.553299e-07
-4.138541e-06
1.493654e-06
1.493654e-06
1.006463e-06
1.006463e-06
2.796137e-06
1.869519e-06
2.796137e-06
1.869519e-06
4.872568e-07
4.872568e-07
2.306266e-06
2.306266e-06
-6.641838e-07
-1.026650e-06
-6.641838e-07
-1.026650e-06
-1.259059e-06
-1.259059e-06
2.549180e-07
2.549180e-07
3.193738e-07
1.498473e-06
3.193738e-07
1.498473e-06
1.032737e-06
1.032737e-06
-3.046706e-06
-3.046706e-06
-1.959282e-06
-1.088321e-06
-1.959282e-06
-1.088321e-06
-3.718232e-06
-3.718232e-06
-6.585055e-09
-6.585055e-09
-1.123798e-06
-2.767545e-06
-1.123798e-06
-2.767545e-06
9.290221e-07
9.290221e-07
-5.625888e-07
-5.625888e-07
3.088754e-07
-5.004566e-07
3.088754e-07
-5.004566e-07
-4.247377e-07
-4.247377e-07
2.900058e-07
2.900058e-07
6.831451e-07
1.274327e-06
6.831451e-07
1.274327e-06
-1.187019e-06
-1.187019e-06
-4.387241e-06
-4.387241e-06
-4.401426e-06
-1.124861e-06
-4.401426e-06
-1.124861e-06
-1.881026e-06
-1.881026e-06
1.571128e-06
1.571128e-06
4.294940e-06
-8.466171e-07
4.294940e-06
-8.466171e-07
-1.469999e-07
-1.469999e-07
1.993466e-06
1.993466e-06
-3.684189e-06
-9.549707e-07
-3.684189e-06
-9.549707e-07
4.665671e-06
4.665671e-06
6.281730e-07
6.281730e-07
1.239451e-06
9.301952e-07
1.239451e-06
9.301952e-07
-6.578379e-08
-6.578379e-08
2.574725e-06
2.574725e-06
3.746080e-06
1.002871e-06
3.746080e-06
1.002871e-06
-4.836503e-07
-4.836503e-07
-6.348316e-06
-6.348316e-06
-1.344353e-06
1.567037e-06
-1.344353e-06
1.567037e-06
-4.287267e-06
-4.287267e-06
1.518855e-06
1.518855e-06
-8.423562e-08
9.211816e-08
-8.423562e-08
9.211816e-08
4.971069e-07
4.971069e-07
-1.719208e-06
-1.719208e-06
-9.690221e-07
-1.149698e-06
-9.690221e-07
-1.149698e-06
-6.110234e-07
-6.110234e-07
-8.058524e-07
-8.058524e-07
1.580310e-08
2.078220e-08
1.580310e-08
2.078220e-08
5.155695e-08
5.155695e-08
1.753729e-07
1.753729e-07
1.341032e-06
-1.822197e-06
1.341032e-06
-1.822197e-06
-2.586628e-07
-2.586628e-07
-6.933305e-09
-6.933305e-09
-8.315507e-07
8.220324e-07
-8.315507e-07
8.220324e-07
-6.912869e-07
-6.912869e-07
-1.830743e-06
-1.830743e-06
-1.837846e-06
-5.685533e-07
-1.837846e-06
-5.685533e-07
-7.850734e-07
-7.850734e-07
3.965931e-07
3.965931e-07
2.782011e-07
2.600330e-07
2.782011e-07
2.600330e-07
6.672360e-07
6.672360e-07
1.394345e-06
1.394345e-06
1.574063e-06
-5.093720e-07
1.574063e-06
-5.093720e-07
-8.044805e-07
-8.044805e-07
-2.756443e-06
-2.756443e-06
-2.049734e-06
-1.024306e-06
-2.049734e-06
-1.024306e-06
-4.611564e-07
-4.611564e-07
7.846803e-07
7.846803e-07
-2.851904e-06
-1.270425e-06
-2.851904e-06
-1.270425e-06
-1.396874e-06
-1.396874e-06
-1.693377e-06
-1.693377e-06
2.936660e-06
-7.780072e-07
2.936660e-06
-7.780072e-07
6.729559e-07
6.729559e-07
-1.812358e-06
-1.812358e-06
-5.241963e-06
2.033324e-06
-5.241963e-06
2.033324e-06
-2.878449e-06
-2.878449e-06
3.087213e-06
3.087213e-06
1.694620e-06
-6.770363e-06
1.694620e-06
-6.770363e-06
3.762702e-06
3.762702e-06
8.938618e-07
8.938618e-07
-4.917062e-07
4.555887e-06
-4.917062e-07
4.555887e-06
1.641430e-07
1.641430e-07
-2.382324e-06
-2.382324e-06
-2.302159e-06
-3.089945e-06
-2.302159e-06
-3.089945e-06
-4.151609e-07
-4.151609e-07
3.336598e-06
3.336598e-06
3.151074e-06
6.669556e-07
3.151074e-06
6.669556e-07
2.150045e-06
1.646649e-06
2.150045e-06
1.646649e-06
-1.388333e-06
-1.388333e-06
-2.952518e-06
-4.550414e-07
-2.952518e-06
-4.550414e-07
3.430285e-06
3.430285e-06
-4.314926e-07
-4.314926e-07
1.215694e-06
1.215694e-06
2.657704e-06
7.367172e-08
2.657704e-06
7.367172e-08
-1.378869e-06
-1.378869e-06
-4.465757e-07
-4.465757e-07
-1.179212e-06
5.491784e-07
-1.179212e-06
5.491784e-07
2.372082e-06
2.372082e-06
2.619520e-06
2.619520e-06
2.346925e-07
8.529852e-07
2.346925e-07
8.529852e-07
3.117085e-06
3.117085e-06
2.369968e-06
2.369968e-06
2.258092e-06
-1.124604e-07
2.258092e-06
-1.124604e-07
1.404061e-06
1.404061e-06
1.459566e-06
1.459566e-06
-1.592852e-07
1.028703e-06
-1.592852e-07
1.028703e-06
4.410555e-07
4.410555e-07
-1.169723e-06
-1.169723e-06
-6.101425e-07
-8.648099e-07
-6.101425e-07
-8.648099e-07
-4.214934e-06
-4.214934e-06
-6.633125e-06
-6.633125e-06
-5.503619e-06
-2.260516e-06
-5.503619e-06
-2.260516e-06
-2.596745e-06
2.085642e-06
-2.596745e-06
2.085642e-06
-2.857891e-06
-2.857891e-06
-2.059617e-06
-1.564658e-06
-2.059617e-06
-1.564658e-06
2.443519e-06
2.443519e-06
8.265094e-07
8.265094e-07
1.768222e-06
1.768222e-06
-3.608400e-06
-1.781344e-06
-3.608400e-06
-1.781344e-06
2.069080e-06
2.069080e-06
1.821964e-06
1.821964e-06
2.631107e-06
9.162395e-07
2.631107e-06
9.162395e-07
1.058588e-06
1.058588e-06
-8.430688e-07
-8.430688e-07
-3.651035e-06
-2.395226e-06
-3.651035e-06
-2.395226e-06
-2.211941e-06
-2.211941e-06
-3.185412e-07
-3.185412e-07
-8.370747e-07
-2.840460e-06
-8.370747e-07
-2.840460e-06
-2.028057e-07
-2.028057e-07
6.159555e-07
6.159555e-07
2.402091e-08
-5.327544e-07
2.402091e-08
-5.327544e-07
1.770673e-06
1.770673e-06
-9.318930e-08
-9.318930e-08
1.038343e-06
1.756036e-06
1.038343e-06
1.756036e-06
-3.036433e-06
-3.036433e-06
-4.916715e-06
-4.916715e-06
-2.103477e-06
-7.542788e-07
-2.103477e-06
-7.542788e-07
1.142143e-06
3.653022e-06
1.142143e-06
3.653022e-06
1.700898e-07
1.700898e-07
2.937358e-07
2.263590e-06
2.937358e-07
2.263590e-06
3.632000e-06
3.632000e-06
-1.395801e-06
-1.395801e-06
-2.209850e-06
-2.209850e-06
-8.972162e-07
-1.280329e-07
-8.972162e-07
-1.280329e-07
1.263155e-06
1.263155e-06
5.542244e-07
5.542244e-07
1.618685e-06
-9.686120e-07
1.618685e-06
-9.686120e-07
-2.551144e-06
-2.551144e-06
-2.396296e-06
-2.396296e-06
3.618564e-07
2.570616e-06
3.618564e-07
2.570616e-06
-1.691154e-06
-1.691154e-06
1.855845e-06
1.855845e-06
2.316265e-06
2.687556e-07
2.316265e-06
2.687556e-07
2.433215e-06
2.433215e-06
-3.188683e-07
-3.188683e-07
2.678873e-06
3.092095e-06
2.678873e-06
3.092095e-06
-1.161867e-06
-1.161867e-06
-2.147850e-07
-2.147850e-07
-2.498639e-06
1.183930e-07
-2.498639e-06
1.183930e-07
1.150075e-07
1.150075e-07
-8.747743e-07
-8.747743e-07
-3.002989e-06
-2.965302e-06
-3.002989e-06
-2.965302e-06
2.358799e-06
3.720200e-06
2.358799e-06
3.720200e-06
-2.512974e-06
-2.512974e-06
-1.914593e-06
3.427670e-06
-1.914593e-06
3.427670e-06
3.682273e-06
3.682273e-06
-4.181627e-06
-4.181627e-06
-4.811605e-06
-4.811605e-06
-5.827458e-06
-5.315636e-06
-5.827458e-06
-5.315636e-06
-3.813231e-06
-3.813231e-06
3.046287e-07
3.046287e-07
-8.378562e-07
-3.417686e-06
-8.378562e-07
-3.417686e-06
2.625332e-07
2.625332e-07
-4.230507e-07
-4.230507e-07
-1.412743e-06
-2.770885e-06
-1.412743e-06
-2.770885e-06
6.403845e-07
6.403845e-07
-2.126633e-07
-2.126633e-07
-1.941381e-06
-8.740459e-07
-1.941381e-06
-8.740459e-07
1.303872e-06
1.303872e-06
3.572445e-06
3.572445e-06
4.094239e-07
1.409068e-06
4.094239e-07
1.409068e-06
2.570497e-06
2.570497e-06
2.059046e-07
2.059046e-07
2.030229e-06
-7.325801e-07
2.030229e-06
-7.325801e-07
-1.361654e-06
-1.361654e-06
-1.548463e-06
-1.548463e-06
1.915893e-06
2.333004e-06
1.915893e-06
2.333004e-06
8.165919e-07
4.343745e-06
8.165919e-07
4.343745e-06
-3.076865e-06
-3.076865e-06
-4.103608e-06
-2.389054e-06
-4.103608e-06
-2.389054e-06
3.369205e-06
3.369205e-06
-1.379258e-06
-1.379258e-06
-1.472393e-06
-1.472393e-06
-1.125987e-06
-2.702354e-06
-1.125987e-06
-2.702354e-06
-1.621191e-06
-1.621191e-06
2.065424e-06
2.065424e-06
-4.574399e-07
-3.377274e-07
-4.574399e-07
-3.377274e-07
1.433148e-06
1.433148e-06
6.661682e-07
6.661682e-07
2.832379e-06
4.071637e-07
2.832379e-06
4.071637e-07
2.124597e-08
2.124597e-08
-1.330380e-06
-1.330380e-06
-1.651340e-06
2.328222e-06
-1.651340e-06
2.328222e-06
1.226119e-06
1.226119e-06
-8.045846e-09
-8.045846e-09
3.020499e-06
-7.394752e-09
3.020499e-06
-7.394752e-09
-1.713153e-06
-1.713153e-06
1.748365e-06
1.748365e-06
2.626091e-06
3.243505e-06
2.626091e-06
3.243505e-06
1.678925e-06
1.678925e-06
-4.087068e-07
-4.087068e-07
-5.420394e-06
-1.960577e-06
-5.420394e-06
-1.960577e-06
-9.051552e-07
1.551433e-06
-9.051552e-07
1.551433e-06
-1.570278e-06
-1.570278e-06
-6.789112e-07
1.467996e-06
-6.789112e-07
1.467996e-06
-6.006620e-07
-6.006620e-07
-6.201615e-06
-6.201615e-06
-5.218831e-06
-5.218831e-06
-3.703611e-06
-5.388441e-06
-3.703611e-06
-5.388441e-06
-1.494936e-06
-1.494936e-06
-2.440529e-06
-2.440529e-06
-3.350251e-06
-1.899343e-06
-3.350251e-06
-1.899343e-06
-1.359112e-06
-1.359112e-06
1.426039e-06
1.426039e-06
2.378982e-06
-1.868139e-06
2.378982e-06
-1.868139e-06
1.240557e-06
1.240557e-06
-1.569122e-06
-1.569122e-06
-6.007179e-07
2.324748e-06
-6.007179e-07
2.324748e-06
2.329962e-07
2.329962e-07
2.951008e-06
2.951008e-06
5.084358e-07
1.651217e-07
5.084358e-07
1.651217e-07
3.439539e-06
3.439539e-06
2.205656e-06
2.205656e-06
4.084974e-07
-7.705316e-07
4.084974e-07
-7.705316e-07
-2.078376e-06
-2.078376e-06
-4.424328e-06
-4.424328e-06
1.147106e-06
1.482851e-06
1.147106e-06
1.482851e-06
-5.523800e-07
-6.933659e-07
4.070642e-07
1.252575e-06
-5.523800e-07
-6.933659e-07
4.070642e-07
1.252575e-06
-3.097776e-07
-1.869356e-06
-3.097776e-07
-1.869356e-06
7.278314e-07
1.006971e-06
7.278314e-07
1.006971e-06
1.093877e-06
1.093877e-06
2.981333e-07
-7.268016e-08
2.981333e-07
-7.268016e-08
1.311019e-06
1.311019e-06
-9.647900e-07
-4.822869e-07
-9.647900e-07
-4.822869e-07
-1.620789e-06
-1.620789e-06
-5.739254e-07
-1.098315e-06
-5.739254e-07
-1.098315e-06
-1.803693e-06
-1.803693e-06
-8.551145e-07
4.797192e-07
-8.551145e-07
4.797192e-07
2.617548e-06
2.617548e-06
1.289400e-06
3.443269e-06
1.289400e-06
3.443269e-06
-1.003162e-06
-1.003162e-06
-2.218776e-06
-6.776247e-08
-2.218776e-06
-6.776247e-08
3.253823e-07
3.253823e-07
7.754875e-07
-1.011073e-06
7.754875e-07
-1.011073e-06
-2.876155e-07
-2.876155e-07
3.452990e-06
5.686049e-06
3.452990e-06
5.686049e-06
1.931060e-06
1.931060e-06
2.364774e-06
2.558068e-06
2.364774e-06
2.558068e-06
-3.749294e-06
-3.749294e-06
-9.580010e-06
-3.565662e-06
-9.580010e-06
-3.565662e-06
6.318127e-07
6.318127e-07
1.054713e-06
9.159326e-07
1.054713e-06
9.159326e-07
5.036759e-06
5.036759e-06
1.689287e-05
8.006015e-06
1.689287e-05
8.006015e-06
1.952833e-06
1.952833e-06
9.657354e-07
-1.529192e-06
9.657354e-07
-1.529192e-06
-1.595037e-07
6.623445e-07
-1.595037e-07
6.623445e-07
8.696034e-07
4.834711e-07
8.696034e-07
4.834711e-07
-6.493919e-07
2.486384e-06
-6.493919e-07
2.486384e-06
2.345197e-06
2.345197e-06
8.964056e-07
8.964056e-07
-3.377153e-07
-3.377153e-07
-2.532022e-06
-1.466721e-06
-2.532022e-06
-1.466721e-06
-1.112028e-06
-1.112028e-06
-3.752835e-06
-3.752835e-06
-1.699334e-06
-1.699334e-06
-3.161548e-06
-3.161548e-06
-4.901653e-07
1.498950e-06
-4.901653e-07
1.498950e-06
-3.645822e-06
-3.645822e-06
-2.595993e-06
-2.595993e-06
2.777217e-06
2.777217e-06
3.135521e-06
3.135521e-06
1.418112e-06
-1.000443e-06
1.418112e-06
-1.000443e-06
-1.469732e-07
-1.469732e-07
-9.608036e-07
-9.608036e-07
-4.911252e-06
-4.911252e-06
-3.947701e-06
-3.947701e-06
-2.036062e-06
-1.488843e-06
-2.036062e-06
-1.488843e-06
-2.254921e-06
-2.254921e-06
-1.029335e-07
-1.029335e-07
-3.373940e-06
-3.373940e-06
-6.820055e-07
-6.820055e-07
-4.393157e-06
-9.157444e-06
-4.393157e-06
-9.157444e-06
-9.767650e-07
-9.767650e-07
1.007057e-07
1.007057e-07
3.036849e-06
3.036849e-06
-2.409207e-06
-2.409207e-06
2.411682e-06
1.390783e-05
2.411682e-06
1.390783e-05
-1.181955e-06
-1.181955e-06
-2.986806e-06
-2.986806e-06
3.321107e-06
3.321107e-06
3.065694e-06
3.065694e-06
2.906947e-06
5.340317e-06
2.906947e-06
5.340317e-06
8.368499e-06
8.368499e-06
2.272799e-06
2.272799e-06
-2.837630e-06
-2.837630e-06
-1.421334e-06
-1.421334e-06
-1.455390e-06
-1.130047e-06
-1.455390e-06
-1.130047e-06
2.406762e-06
2.406762e-06
7.018408e-07
7.018408e-07
-2.833181e-06
-2.933291e-06
-2.833181e-06
-2.933291e-06
-1.211028e-06
-1.211028e-06
-1.407883e-06
-1.407883e-06
1.311804e-06
-2.299192e-07
1.311804e-06
-2.299192e-07
1.187291e-06
1.187291e-06
6.739186e-07
6.739186e-07
3.002071e-06
4.884648e-07
3.002071e-06
4.884648e-07
-4.225434e-06
-4.225434e-06
-2.496207e-06
-2.496207e-06
9.441251e-07
2.321904e-06
9.441251e-07
2.321904e-06
1.406084e-06
1.406084e-06
1.368569e-06
1.368569e-06
-2.114601e-07
1.259193e-06
-2.114601e-07
1.259193e-06
-4.971449e-08
-4.971449e-08
5.917499e-07
5.917499e-07
-4.266881e-06
2.713050e-07
-4.266881e-06
2.713050e-07
2.416314e-06
2.416314e-06
1.404109e-07
1.404109e-07
-1.634032e-06
-3.122649e-06
-1.634032e-06
-3.122649e-06
-1.516116e-06
-1.516116e-06
5.644154e-07
5.644154e-07
-7.707168e-07
-3.075111e-06
-7.707168e-07
-3.075111e-06
-2.407028e-06
-2.407028e-06
-3.997177e-06
-3.997177e-06
4.280012e-07
-2.029221e-06
4.280012e-07
-2.029221e-06
-9.415451e-07
-9.415451e-07
-4.832485e-07
-4.832485e-07
1.007722e-06
3.100425e-06
1.007722e-06
3.100425e-06
-2.549045e-06
-2.549045e-06
-3.118748e-06
-3.118748e-06
-3.703757e-06
-2.572500e-06
-3.703757e-06
-2.572500e-06
3.310603e-06
3.310603e-06
3.509831e-06
3.509831e-06
1.329583e-06
3.509112e-06
1.329583e-06
3.509112e-06
2.430253e-06
2.430253e-06
1.654506e-06
1.654506e-06
9.112983e-07
-5.528726e-07
9.112983e-07
-5.528726e-07
-8.587467e-07
-8.587467e-07
-2.435778e-06
-2.435778e-06
2.615469e-07
1.909454e-06
2.615469e-07
1.909454e-06
-6.612210e-07
-6.612210e-07
1.137219e-06
1.137219e-06
3.607590e-06
-2.401307e-06
3.607590e-06
-2.401307e-06
-1.131506e-06
-1.131506e-06
3.668902e-07
3.668902e-07
8.066286e-07
2.681019e-07
8.066286e-07
2.681019e-07
4.699981e-06
4.699981e-06
3.546018e-06
3.546018e-06
5.412196e-06
6.560517e-06
5.412196e-06
6.560517e-06
-2.302963e-06
7.203974e-07
-2.302963e-06
7.203974e-07
5.575843e-07
2.596116e-06
5.575843e-07
2.596116e-06
-8.103424e-08
1.281354e-07
-8.103424e-08
1.281354e-07
2.903712e-06
5.791272e-06
2.903712e-06
5.791272e-06
2.820247e-06
6.135153e-06
2.820247e-06
6.135153e-06
2.948865e-06
3.047976e-06
2.948865e-06
3.047976e-06
-5.962667e-07
3.259235e-06
-5.962667e-07
3.259235e-06
-3.722508e-06
8.769019e-07
-3.722508e-06
8.769019e-07
2.534760e-06
2.002826e-06
2.534760e-06
2.002826e-06
-1.583369e-06
-2.094202e-06
-1.583369e-06
-2.094202e-06
-9.978627e-08
-1.826910e-06
-9.978627e-08
-1.826910e-06
-5.583729e-06
-2.742015e-06
-5.583729e-06
-2.742015e-06
-4.664964e-08
5.279313e-07
-4.664964e-08
5.279313e-07
-1.593156e-07
-8.774917e-07
-1.593156e-07
-8.774917e-07
-2.775557e-06
-3.899353e-06
-2.775557e-06
-3.899353e-06
-1.869120e-06
-2.190338e-07
-1.869120e-06
-2.190338e-07
-1.399250e-06
-1.399250e-06
-1.129798e-06
-1.129798e-06
-3.345495e-06
-3.345495e-06
-1.389784e-06
-8.020308e-07
-1.389784e-06
-8.020308e-07
-1.988976e-06
-1.988976e-06
-1.622117e-06
-1.622117e-06
-1.530200e-06
-2.254645e-06
-1.530200e-06
-2.254645e-06
-1.386245e-06
-1.386245e-06
-6.890208e-08
-6.890208e-08
8.161350e-08
-4.589043e-07
8.161350e-08
-4.589043e-07
-8.316349e-07
-8.316349e-07
-2.172801e-06
-2.172801e-06
2.543471e-06
6.669842e-07
2.543471e-06
6.669842e-07
-3.089364e-06
-3.089364e-06
-2.225032e-06
-2.225032e-06
-2.526606e-07
2.306735e-06
-2.526606e-07
2.306735e-06
-2.948800e-06
-2.948800e-06
-1.038475e-06
-1.038475e-06
-7.100121e-07
-7.100121e-07
8.342763e-07
8.342763e-07
-1.900011e-06
1.355891e-07
-1.900011e-06
1.355891e-07
8.424874e-07
8.424874e-07
1.821800e-06
1.821800e-06
-5.397523e-07
-1.745004e-06
-5.397523e-07
-1.745004e-06
1.636089e-06
1.636089e-06
3.575748e-07
3.575748e-07
-7.274956e-07
7.784240e-08
-7.274956e-07
7.784240e-08
-6.454230e-07
-6.454230e-07
1.066402e-06
1.066402e-06
-2.880724e-07
-1.727632e-06
-2.880724e-07
-1.727632e-06
1.934296e-06
1.934296e-06
-6.563450e-07
-6.563450e-07
-5.431546e-07
1.729094e-06
-5.431546e-07
1.729094e-06
-8.993826e-07
-8.993826e-07
-4.290106e-06
-4.290106e-06
-5.569128e-07
-5.569128e-07
-8.243533e-07
-8.243533e-07
2.663012e-06
-4.858514e-07
2.663012e-06
-4.858514e-07
-1.640027e-06
-1.640027e-06
-4.355516e-06
-4.355516e-06
-5.172528e-07
2.847453e-06
-5.172528e-07
2.847453e-06
-2.237043e-06
-2.237043e-06
6.096414e-08
6.096414e-08
-1.022145e-06
-1.673819e-06
-1.022145e-06
-1.673819e-06
-6.143508e-07
-6.143508e-07
-4.398630e-07
-4.398630e-07
2.883981e-09
8.884389e-08
2.883981e-09
8.884389e-08
1.606100e-06
1.606100e-06
1.177294e-06
1.177294e-06
-4.606345e-07
-2.580307e-06
-4.606345e-07
-2.580307e-06
-2.366880e-06
-2.366880e-06
4.209894e-06
4.209894e-06
3.253960e-06
3.253960e-06
1.331451e-06
1.331451e-06
1.440754e-06
2.633970e-06
1.440754e-06
2.633970e-06
-1.475201e-06
-1.475201e-06
-1.590675e-06
-1.590675e-06
-4.852109e-06
-3.329183e-06
-4.852109e-06
-3.329183e-06
-1.578563e-06
-1.578563e-06
-9.110254e-07
-9.110254e-07
1.173193e-06
-1.151741e-06
1.173193e-06
-1.151741e-06
9.714045e-07
9.714045e-07
1.368239e-06
1.368239e-06
6.741448e-07
6.767024e-07
6.741448e-07
6.767024e-07
-1.881241e-06
-1.881241e-06
2.782027e-07
2.782027e-07
2.262455e-06
2.119040e-06
2.262455e-06
2.119040e-06
4.706791e-06
4.706791e-06
9.007432e-08
9.007432e-08
-1.054226e-06
-1.054226e-06
2.079201e-06
2.079201e-06
-1.752080e-07
-1.294145e-06
-1.752080e-07
-1.294145e-06
1.399312e-06
1.399312e-06
1.477417e-06
1.477417e-06
4.966191e-06
5.725127e-07
4.966191e-06
5.725127e-07
1.698669e-06
1.698669e-06
1.178988e-06
1.178988e-06
-8.098518e-07
1.361100e-06
-8.098518e-07
1.361100e-06
2.130508e-06
2.130508e-06
4.069980e-07
4.069980e-07
3.515140e-06
5.175043e-06
3.515140e-06
5.175043e-06
2.382354e-07
2.382354e-07
-1.325332e-06
-1.325332e-06
-1.490421e-06
-4.982597e-07
-1.490421e-06
-4.982597e-07
-2.732341e-06
-2.732341e-06
-1.695004e-06
-1.695004e-06
8.031499e-07
8.031499e-07
8.802503e-07
8.802503e-07
4.908186e-07
3.225589e-07
4.908186e-07
3.225589e-07
-1.145050e-06
-1.145050e-06
1.715775e-06
1.715775e-06
-1.092828e-06
-5.713367e-07
-1.092828e-06
-5.713367e-07
-4.159733e-07
-4.159733e-07
-1.688960e-06
-1.688960e-06
-3.719709e-06
-3.605495e-06
-3.719709e-06
-3.605495e-06
3.152906e-06
3.152906e-06
3.226071e-06
3.226071e-06
-1.024477e-06
-1.319843e-06
-1.024477e-06
-1.319843e-06
1.700881e-06
1.700881e-06
1.902192e-06
1.902192e-06
1.129936e-06
3.788665e-07
1.129936e-06
3.788665e-07
-5.106681e-07
-5.106681e-07
3.586297e-08
3.586297e-08
9.408299e-07
9.408299e-07
9.746250e-07
9.746250e-07
3.881611e-06
3.275158e-06
3.881611e-06
3.275158e-06
1.720441e-06
1.720441e-06
-8.211636e-07
-8.211636e-07
5.617936e-07
4.026224e-06
5.617936e-07
4.026224e-06
-4.547957e-06
-4.547957e-06
-4.580742e-06
-4.580742e-06
-2.948706e-06
-2.541417e-06
-2.948706e-06
-2.541417e-06
-3.745143e-06
-3.745143e-06
-2.698609e-06
-2.698609e-06
-2.698051e-06
-4.146908e-06
-2.698051e-06
-4.146908e-06
-1.334146e-06
-1.334146e-06
-2.294993e-08
-2.294993e-08
3.814334e-07
-1.676460e-06
3.814334e-07
-1.676460e-06
2.231333e-06
2.231333e-06
3.714061e-06
3.714061e-06
-1.835658e-06
-1.835658e-06
1.688240e-06
1.688240e-06
6.261068e-07
1.057574e-07
6.261068e-07
1.057574e-07
5.227776e-07
5.227776e-07
1.595062e-06
1.595062e-06
-7.713363e-07
-2.231361e-06
-7.713363e-07
-2.231361e-06
3.433931e-06
3.433931e-06
1.208596e-06
1.208596e-06
-2.353118e-06
-6.338504e-08
-2.353118e-06
-6.338504e-08
2.793790e-07
2.793790e-07
2.394982e-06
2.394982e-06
1.387934e-06
-1.518378e-06
1.387934e-06
-1.518378e-06
4.381463e-06
4.381463e-06
4.227599e-06
4.227599e-06
-1.355532e-06
2.519668e-07
-1.355532e-06
2.519668e-07
2.671873e-06
2.671873e-06
-6.932358e-07
-6.932358e-07
-6.297526e-07
-6.435787e-07
-6.297526e-07
-6.435787e-07
1.837484e-06
1.837484e-06
1.166737e-06
1.166737e-06
-6.214351e-07
1.748494e-06
-6.214351e-07
1.748494e-06
-6.089041e-07
-6.089041e-07
-6.473431e-07
-6.473431e-07
-1.100134e-06
-1.337876e-06
-1.100134e-06
-1.337876e-06
-2.473203e-06
-2.473203e-06
-2.444149e-06
-2.444149e-06
9.791932e-07
-8.067146e-07
9.791932e-07
-8.067146e-07
-2.415895e-07
-2.415895e-07
-1.693432e-06
-1.693432e-06
-2.368189e-06
1.311032e-06
-2.368189e-06
1.311032e-06
-2.957983e-06
-2.957983e-06
-1.893993e-06
-1.893993e-06
1.588525e-06
-2.089371e-07
1.588525e-06
-2.089371e-07
-2.107232e-06
-2.107232e-06
-1.022047e-06
-1.022047e-06
-6.427312e-07
-2.272185e-06
-6.427312e-07
-2.272185e-06
3.018127e-06
3.018127e-06
1.410171e-06
1.410171e-06
4.932550e-06
2.138912e-06
4.932550e-06
2.138912e-06
1.364832e-06
1.364832e-06
1.290051e-06
1.290051e-06
4.327232e-06
7.473590e-06
4.327232e-06
7.473590e-06
1.996408e-06
1.996408e-06
4.575947e-06
4.575947e-06
4.033600e-06
1.060831e-06
4.033600e-06
1.060831e-06
5.780229e-06
5.780229e-06
1.455825e-06
1.455825e-06
2.133767e-06
6.101600e-06
2.133767e-06
6.101600e-06
4.152282e-07
4.152282e-07
8.568216e-07
8.568216e-07
1.118513e-06
5.714411e-07
1.118513e-06
5.714411e-07
-5.536618e-07
-5.536618e-07
1.228985e-06
1.228985e-06
2.001569e-06
3.523969e-07
2.001569e-06
3.523969e-07
-5.091633e-07
-5.091633e-07
4.743241e-06
4.743241e-06
-5.351970e-07
-3.577115e-06
-5.351970e-07
-3.577115e-06
6.849438e-06
6.849438e-06
3.988679e-06
3.988679e-06
5.148279e-07
7.789430e-07
5.148279e-07
7.789430e-07
4.736982e-07
4.736982e-07
6.468437e-07
6.468437e-07
-2.704639e-06
-1.637057e-07
-2.704639e-06
-1.637057e-07
1.570387e-06
1.570387e-06
-5.364899e-07
-5.364899e-07
-4.672920e-06
-3.719458e-06
-4.672920e-06
-3.719458e-06
-6.467271e-07
-6.467271e-07
-9.748838e-07
-9.748838e-07
-4.243937e-06
-5.036400e-06
-4.243937e-06
-5.036400e-06
-2.972744e-06
-2.972744e-06
-5.795465e-07
-5.795465e-07
-2.629693e-06
-3.883840e-06
-2.629693e-06
-3.883840e-06
-5.540780e-06
-5.540780e-06
-6.999992e-06
-6.999992e-06
-7.480089e-06
-4.017211e-06
-7.480089e-06
-4.017211e-06
-6.869100e-06
-6.869100e-06
-3.592249e-06
-3.592249e-06
-3.987035e-06
-1.026691e-05
-3.987035e-06
-1.026691e-05
-2.513718e-06
-2.513718e-06
-6.877977e-06
-6.877977e-06
-7.931791e-06
-2.793957e-06
-7.931791e-06
-2.793957e-06
-1.010459e-05
-1.010459e-05
-9.337154e-06
-9.337154e-06
-5.832380e-06
-7.919585e-06
-5.832380e-06
-7.919585e-06
-7.057028e-06
-7.057028e-06
-3.923380e-06
-3.923380e-06
-4.755381e-06
-6.248116e-06
-4.755381e-06
-6.248116e-06
-3.232408e-06
-3.232408e-06
-2.357260e-06
-2.357260e-06
-1.697274e-06
-4.427645e-06
-1.697274e-06
-4.427645e-06
-3.254858e-06
-3.254858e-06
-5.578283e-06
-5.578283e-06
-1.788143e-06
-1.727691e-06
-1.788143e-06
-1.727691e-06
-6.414420e-06
-6.414420e-06
-2.053004e-06
-2.053004e-06
1.895257e-06
-1.251235e-06
1.895257e-06
-1.251235e-06
-1.613269e-06
-1.613269e-06
-4.028020e-06
-4.028020e-06
4.480423e-07
1.984416e-06
4.480423e-07
1.984416e-06
-1.703322e-06
-1.703322e-06
9.567366e-08
9.567366e-08
1.606779e-06
1.092067e-06
1.606779e-06
1.092067e-06
-1.865309e-06
-1.865309e-06
-2.307569e-06
-2.307569e-06
-1.646472e-06
9.126631e-08
-1.646472e-06
9.126631e-08
-3.458897e-06
-3.458897e-06
-1.943091e-06
-1.943091e-06
-1.845586e-06
-3.407962e-06
-1.845586e-06
-3.407962e-06
1.762692e-06
1.762692e-06
2.324772e-06
2.324772e-06
4.668820e-07
-1.103552e-06
4.668820e-07
-1.103552e-06
1.824343e-06
1.824343e-06
4.938017e-06
4.938017e-06
2.512845e-06
1.989862e-06
2.512845e-06
1.989862e-06
4.239678e-06
4.239678e-06
3.458669e-06
3.458669e-06
1.693846e-06
9.617064e-07
1.693846e-06
9.617064e-07
5.588474e-06
5.588474e-06
5.665824e-06
5.665824e-06
7.603407e-06
5.611025e-06
7.603407e-06
5.611025e-06
3.789456e-07
3.789456e-07
-5.152294e-06
-5.152294e-06
-4.740329e-06
1.694287e-06
-4.740329e-06
1.694287e-06
-6.979938e-06
-6.979938e-06
-2.705607e-06
-2.705607e-06
-3.214322e-06
-6.445377e-06
-3.214322e-06
-6.445377e-06
-4.327255e-06
-4.327255e-06
-1.539665e-06
-1.539665e-06
-6.328882e-06
-7.365405e-06
-6.328882e-06
-7.365405e-06
-8.441165e-07
-8.441165e-07
-1.866831e-06
-1.866831e-06
-5.889726e-06
-6.725921e-06
-5.889726e-06
-6.725921e-06
-2.545504e-06
-2.545504e-06
-5.604794e-06
-5.604794e-06
-7.002590e-06
-5.061196e-06
-7.002590e-06
-5.061196e-06
-5.142113e-06
-5.142113e-06
-7.943837e-07
-7.943837e-07
-5.363723e-06
-7.201005e-06
-5.363723e-06
-7.201005e-06
-1.482661e-06
-1.482661e-06
-3.911781e-06
-3.911781e-06
-4.132511e-06
-3.185988e-06
-4.132511e-06
-3.185988e-06
-3.406186e-06
-3.406186e-06
-3.109446e-07
-3.109446e-07
1.018901e-07
-5.825485e-06
1.018901e-07
-5.825485e-06
-8.096095e-06
-8.096095e-06
-9.941210e-06
-9.941210e-06
-4.012293e-06
-2.111111e-06
-4.012293e-06
-2.111111e-06
-1.022927e-05
-1.022927e-05
-8.659161e-06
-8.659161e-06
-8.837283e-06
-6.122033e-06
-8.837283e-06
-6.122033e-06
-6.895126e-06
-6.895126e-06
-1.526160e-06
-1.526160e-06
-2.208230e-06
-6.702699e-06
-2.208230e-06
-6.702699e-06
1.522559e-06
1.522559e-06
-5.525071e-07
-5.525071e-07
4.389868e-06
4.758723e-06
4.389868e-06
4.758723e-06
-1.003589e-06
-1.003589e-06
-4.819995e-06
-4.819995e-06
-1.227113e-05
-3.640455e-06
-1.227113e-05
-3.640455e-06
-8.876176e-06
-8.876176e-06
1.635050e-06
1.635050e-06
2.303911e-06
-1.619037e-05
2.303911e-06
-1.619037e-05
-1.189577e-06
-1.189577e-06
-2.264981e-06
-2.264981e-06
-4.406867e-06
-4.780417e-06
-4.406867e-06
-4.780417e-06
-2.018564e-06
-2.018564e-06
-4.958997e-06
-4.958997e-06
-2.584654e-06
-4.849630e-06
-2.584654e-06
-4.849630e-06
-8.888548e-06
-8.888548e-06
-7.255706e-06
-7.255706e-06
-1.042189e-05
-6.739185e-06
-1.042189e-05
-6.739185e-06
2.649045e-06
2.649045e-06
1.422532e-05
1.422532e-05
2.709911e-05
-2.361840e-06
2.709911e-05
-2.361840e-06
4.355041e-06
4.355041e-06
-2.345584e-05
-2.345584e-05
-2.674134e-05
3.730878e-05
-2.674134e-05
3.730878e-05
-3.401597e-05
-3.401597e-05
-1.240447e-06
-1.240447e-06
-1.764716e-06
-6.302317e-05
-1.764716e-06
-6.302317e-05
-3.504162e-06
-3.504162e-06
-6.920083e-07
-6.920083e-07
-1.959137e-07
-1.667153e-06
-1.959137e-07
-1.667153e-06
-4.791655e-06
-4.791655e-06
-4.794762e-06
-4.794762e-06
-6.330775e-07
1.521303e-06
-6.330775e-07
1.521303e-06
5.268413e-06
5.268413e-06
-6.324473e-07
-6.324473e-07
2.685560e-05
1.185805e-05
2.685560e-05
1.185805e-05
-3.936157e-06
-3.936157e-06
2.875978e-05
2.875978e-05
1.323291e-05
5.723281e-06
1.323291e-05
5.723281e-06
6.144116e-05
6.144116e-05
4.917707e-06
4.917707e-06
9.899733e-05
6.593775e-05
9.899733e-05
6.593775e-05
-7.222768e-05
-7.222768e-05
-3.028817e-06
-3.028817e-06
1.806378e-05
1.837066e-05
1.806378e-05
1.837066e-05
-8.500987e-06
-8.500987e-06
-7.673642e-06
-7.673642e-06
-1.476280e-05
-1.893834e-05
-1.476280e-05
-1.893834e-05
-3.848948e-08
-3.848948e-08
1.512365e-05
1.512365e-05
3.370760e-05
-4.634787e-06
3.370760e-05
-4.634787e-06
1.950135e-05
1.950135e-05
4.009318e-05
4.009318e-05
3.990008e-05
5.586822e-05
3.990008e-05
5.586822e-05
3.995547e-05
3.995547e-05
2.769985e-05
2.769985e-05
1.451435e-04
7.474839e-05
1.451435e-04
7.474839e-05
1.045554e-04
1.045554e-04
2.325574e-04
2.325574e-04
2.591447e-04
1.960642e-04
2.591447e-04
1.960642e-04
2.081427e-04
2.081427e-04
7.600811e-05
7.600811e-05
6.793060e-05
3.137253e-04
6.793060e-05
3.137253e-04
-2.869596e-05
-2.869596e-05
-2.110716e-05
-2.110716e-05
-2.217364e-05
-3.797630e-05
-2.217364e-05
-3.797630e-05
3.251397e-06
3.251397e-06
5.581879e-05
5.581879e-05
9.946114e-05
2.992351e-05
9.946114e-05
2.992351e-05
9.228727e-05
9.228727e-05
6.741959e-05
6.741959e-05
1.061132e-04
9.745363e-05
1.061132e-04
9.745363e-05
1.257620e-04
1.257620e-04
3.057624e-04
3.057624e-04
3.827129e-04
2.398527e-04
3.827129e-04
2.398527e-04
2.809024e-04
2.809024e-04
1.375433e-04
1.375433e-04
1.333286e-04
3.326836e-04
1.333286e-04
3.326836e-04
2.297832e-04
2.297832e-04
-5.925210e-05
-5.925210e-05
-1.758789e-04
1.387226e-04
-1.758789e-04
1.387226e-04
-3.858403e-05
-3.858403e-05
-7.673959e-06
-7.673959e-06
1.949824e-05
-1.890108e-05
1.949824e-05
-1.890108e-05
6.630195e-05
6.630195e-05
1.279921e-04
1.279921e-04
1.177726e-04
8.834811e-05
1.177726e-04
8.834811e-05
8.925512e-05
8.925512e-05
1.481592e-04
1.481592e-04
1.953707e-04
7.956362e-05
1.953707e-04
7.956362e-05
3.799207e-04
3.799207e-04
3.977682e-04
3.977682e-04
5.581392e-04
4.764717e-04
5.581392e-04
4.764717e-04
2.530863e-04
2.530863e-04
1.265765e-04
1.265765e-04
3.041462e-04
4.655755e-04
3.041462e-04
4.655755e-04
1.422703e-05
1.422703e-05
-3.205483e-04
-3.205483e-04
-6.372442e-04
-1.286265e-04
-6.372442e-04
-1.286265e-04
2.254782e-05
2.254782e-05
4.680000e-05
4.680000e-05
4.425443e-05
5.563133e-05
4.425443e-05
5.563133e-05
6.958541e-05
6.958541e-05
8.255306e-05
8.255306e-05
7.063309e-06
3.280748e-05
7.063309e-06
3.280748e-05
5.771770e-05
5.771770e-05
2.463443e-04
2.463443e-04
2.392774e-04
3.470733e-05
2.392774e-04
3.470733e-05
5.556868e-04
5.556868e-04
7.973718e-04
7.973718e-04
1.301260e-03
6.032006e-04
1.301260e-03
6.032006e-04
7.395348e-04
7.395348e-04
-2.316441e-04
-2.316441e-04
-5.689740e-04
2.115196e-03
-5.689740e-04
2.115196e-03
-1.210543e-03
-1.210543e-03
-1.730961e-03
-1.730961e-03
-3.913369e-03
-2.286518e-03
-3.913369e-03
-2.286518e-03
6.879809e-05
6.879809e-05
-4.020100e-06
-4.020100e-06
-5.296776e-05
1.311675e-04
-5.296776e-05
1.311675e-04
-1.868077e-06
-1.868077e-06
-1.109741e-04
-1.109741e-04
-7.993260e-05
1.973728e-05
-7.993260e-05
1.973728e-05
2.228474e-06
2.228474e-06
1.199580e-04
1.199580e-04
2.027198e-04
7.181524e-05
2.027198e-04
7.181524e-05
4.283094e-04
4.283094e-04
3.011960e-03
3.011960e-03
3.964335e-03
6.643449e-04
3.964335e-03
6.643449e-04
6.734778e-03
6.734778e-03
9.217687e-05
9.217687e-05
2.669276e-03
5.600228e-03
2.669276e-03
5.600228e-03
-5.757413e-03
-5.757413e-03
-9.987762e-03
-9.987762e-03
-3.149371e-04
4.995625e-03
-3.149371e-04
4.995625e-03
2.011117e-04
2.011117e-04
-5.202204e-05
-5.202204e-05
-1.297013e-04
1.200252e-04
-1.297013e-04
1.200252e-04
9.591751e-05
9.591751e-05
9.321193e-05
9.321193e-05
3.228433e-04
1.407027e-04
3.228433e-04
1.407027e-04
1.903671e-04
1.903671e-04
3.788087e-04
3.788087e-04
3.265211e-04
3.284233e-04
3.265211e-04
3.284233e-04
9.988209e-04
9.988209e-04
4.369189e-03
4.369189e-03
5.540306e-04
3.271122e-04
5.540306e-04
3.271122e-04
7.559039e-03
7.559039e-03
9.247595e-03
9.247595e-03
5.884636e-03
2.277888e-03
5.884636e-03
2.277888e-03
7.140871e-03
7.140871e-03
4.294083e-03
4.294083e-03
5.852590e-03
2.230791e-03
5.852590e-03
2.230791e-03
1.297146e-05
1.297146e-05
-1.778365e-04
-1.778365e-04
-1.352911e-04
2.753756e-05
-1.352911e-04
2.753756e-05
1.779957e-04
1.779957e-04
4.702303e-04
4.702303e-04
4.752279e-04
1.409545e-04
4.752279e-04
1.409545e-04
3.532390e-04
3.532390e-04
1.368056e-04
1.368056e-04
-4.049578e-05
3.638036e-04
-4.049578e-05
3.638036e-04
-4.036600e-04
-4.036600e-04
-3.582461e-03
-3.582461e-03
-2.227554e-03
-6.150388e-04
-2.227554e-03
-6.150388e-04
-8.491805e-03
-8.491805e-03
-3.819069e-03
-3.819069e-03
-3.941877e-03
-4.704749e-03
-3.941877e-03
-4.704749e-03
4.403014e-03
4.403014e-03
1.001122e-02
1.001122e-02
1.401702e-03
-8.850361e-04
1.401702e-03
-8.850361e-04
6.073190e-05
6.073190e-05
-1.294180e-04
-1.294180e-04
-8.208451e-05
5.649448e-05
-8.208451e-05
5.649448e-05
2.428841e-05
2.428841e-05
3.879206e-04
3.879206e-04
1.261668e-04
-6.045000e-05
1.261668e-04
-6.045000e-05
4.155793e-04
4.155793e-04
-1.409614e-04
-1.409614e-04
-1.291670e-04
2.382249e-04
-1.291670e-04
2.382249e-04
-7.168381e-04
-7.168381e-04
-1.064011e-03
-1.064011e-03
-6.013238e-04
-5.640449e-04
-6.013238e-04
-5.640449e-04
-1.219773e-03
-1.219773e-03
-1.109611e-03
-1.109611e-03
-1.714322e-04
-4.585861e-04
-1.714322e-04
-4.585861e-04
-4.588735e-04
-4.588735e-04
3.815401e-05
3.815401e-05
3.626743e-07
1.543588e-04
3.626743e-07
1.543588e-04
5.440298e-05
5.440298e-05
-1.552049e-05
-1.552049e-05
2.563886e-05
5.801864e-05
2.563886e-05
5.801864e-05
-8.197976e-05
-8.197976e-05
-6.745269e-05
-6.745269e-05
-7.552339e-05
-4.826184e-05
-7.552339e-05
-4.826184e-05
6.773043e-05
6.773043e-05
-2.779008e-05
-2.779008e-05
5.172424e-05
2.536357e-05
5.172424e-05
2.536357e-05
-3.094942e-04
-3.094942e-04
-3.342997e-04
-3.342997e-04
-2.515185e-04
-1.410112e-04
-2.515185e-04
-1.410112e-04
-1.545548e-04
-1.545548e-04
-1.763215e-05
-1.763215e-05
4.660199e-05
-8.398691e-05
4.660199e-05
-8.398691e-05
1.503947e-05
1.503947e-05
-3.778435e-05
-3.778435e-05
-3.237759e-05
1.247218e-05
-3.237759e-05
1.247218e-05
4.754298e-05
4.754298e-05
3.628694e-05
3.628694e-05
2.628109e-05
3.825800e-05
2.628109e-05
3.825800e-05
-1.542044e-05
-1.542044e-05
-4.025432e-05
-4.025432e-05
-2.328299e-05
-4.436318e-06
-2.328299e-05
-4.436318e-06
1.483973e-05
1.483973e-05
7.797611e-05
7.797611e-05
5.359707e-05
3.385013e-06
5.359707e-05
3.385013e-06
-2.296527e-05
-2.296527e-05
-1.715436e-04
-1.715436e-04
-9.746475e-05
2.717569e-05
-9.746475e-05
2.717569e-05
-1.116140e-04
-1.116140e-04
3.552423e-05
3.552423e-05
-2.611234e-05
-1.370519e-04
-2.611234e-05
-1.370519e-04
6.973868e-05
6.973868e-05
-1.375084e-06
-1.375084e-06
2.504425e-05
1.169217e-04
2.504425e-05
1.169217e-04
1.962120e-05
1.962120e-05
9.421222e-06
9.421222e-06
1.780251e-07
3.632412e-06
1.780251e-07
3.632412e-06
-4.328077e-06
-4.328077e-06
-1.513284e-05
-1.513284e-05
-1.360061e-05
-6.444576e-06
-1.360061e-05
-6.444576e-06
-5.500553e-07
-5.500553e-07
3.473267e-05
3.473267e-05
2.873072e-05
-3.933575e-06
2.873072e-05
-3.933575e-06
4.390023e-05
4.390023e-05
-3.821122e-05
-3.821122e-05
-1.830971e-05
3.936461e-05
-1.830971e-05
3.936461e-05
-7.782410e-05
-7.782410e-05
-4.182477e-05
-4.182477e-05
-1.453590e-05
-4.156819e-05
-1.453590e-05
-4.156819e-05
-2.938740e-06
-2.938740e-06
1.216912e-06
1.216912e-06
-4.303745e-07
-1.933232e-06
-4.303745e-07
-1.933232e-06
1.554074e-06
1.554074e-06
-1.772869e-06
-1.772869e-06
-2.980896e-06
-3.807712e-07
-2.980896e-06
-3.807712e-07
-3.064464e-06
-3.064464e-06
-1.491142e-06
-1.491142e-06
-1.325963e-06
-4.195018e-06
-1.325963e-06
-4.195018e-06
1.369251e-06
1.369251e-06
1.825165e-06
1.825165e-06
2.466709e-07
2.734070e-06
2.466709e-07
2.734070e-06
1.435324e-06
1.435324e-06
1.779938e-06
1.779938e-06
7.840761e-07
-2.028700e-06
7.840761e-07
-2.028700e-06
1.892310e-06
1.892310e-06
1.798817e-06
1.798817e-06
4.844240e-06
3.546346e-06
4.844240e-06
3.546346e-06
-4.404944e-07
-4.404944e-07
-3.666352e-06
-3.666352e-06
-5.369013e-06
-7.889971e-07
-5.369013e-06
-7.889971e-07
-3.304069e-06
-3.304069e-06
-2.210174e-06
-2.210174e-06
-2.593940e-06
-3.001170e-06
-2.593940e-06
-3.001170e-06
-2.222019e-06
-2.222019e-06
-1.616531e-06
-1.616531e-06
-4.579870e-07
-1.204279e-06
-4.579870e-07
-1.204279e-06
1.890655e-07
1.890655e-07
3.823810e-07
3.823810e-07
3.272134e-06
9.579762e-07
3.272134e-06
9.579762e-07
-1.997419e-06
-1.997419e-06
-1.412092e-06
-1.412092e-06
-4.499954e-06
-1.659269e-06
-4.499954e-06
-1.659269e-06
-5.044146e-07
-5.044146e-07
-9.267780e-07
-9.267780e-07
8.026366e-06
1.953371e-06
8.026366e-06
1.953371e-06
-8.975850e-06
-8.975850e-06
-2.240505e-05
-2.240505e-05
-2.507248e-05
-2.624706e-07
-2.507248e-05
-2.624706e-07
-2.013319e-05
-2.013319e-05
-1.626032e-06
-1.626032e-06
-5.600281e-06
-3.675392e-05
-5.600281e-06
-3.675392e-05
2.157267e-06
2.157267e-06
-2.866198e-06
-2.866198e-06
-3.155107e-06
1.561318e-05
-3.155107e-06
1.561318e-05
2.229029e-06
2.229029e-06
-1.844887e-05
-1.844887e-05
7.608975e-05
1.094575e-05
7.608975e-05
1.094575e-05
-7.386676e-05
-7.386676e-05
-4.960759e-05
-4.960759e-05
5.918740e-05
1.157603e-04
5.918740e-05
1.157603e-04
1.050338e-05
1.050338e-05
2.033316e-05
2.033316e-05
6.212307e-05
1.964472e-05
6.212307e-05
1.964472e-05
2.625708e-05
2.625708e-05
1.591736e-05
1.591736e-05
3.678401e-05
7.945580e-05
3.678401e-05
7.945580e-05
-9.208762e-06
-9.208762e-06
-2.393884e-05
-2.393884e-05
-4.982015e-05
-2.858180e-05
-4.982015e-05
-2.858180e-05
-1.867279e-05
-1.867279e-05
-1.077899e-05
-1.077899e-05
-1.119198e-05
-3.048372e-05
-1.119198e-05
-3.048372e-05
-7.899339e-06
-7.899339e-06
-7.666415e-06
-7.666415e-06
1.590546e-06
-6.624041e-07
1.590546e-06
-6.624041e-07
-9.531199e-07
-9.531199e-07
-1.145647e-06
-1.145647e-06
-3.185618e-06
-2.794071e-06
-3.185618e-06
-2.794071e-06
-1.967539e-06
-1.967539e-06
-2.924841e-06
-2.924841e-06
-2.887212e-06
-1.965639e-06
-2.887212e-06
-1.965639e-06
-1.555158e-06
-1.555158e-06
-3.805230e-07
-3.805230e-07
-3.075774e-07
-1.590012e-06
-3.075774e-07
-1.590012e-06
-8.540841e-08
-8.540841e-08
-2.616091e-06
-2.616091e-06
-1.124023e-06
-4.892159e-07
-1.124023e-06
-4.892159e-07
-3.243336e-06
-3.243336e-06
2.854058e-07
2.854058e-07
-4.531017e-07
-1.683604e-06
-4.531017e-07
-1.683604e-06
3.051220e-06
3.051220e-06
3.230639e-06
3.230639e-06
1.442280e-06
1.321485e-06
1.442280e-06
1.321485e-06
-3.467809e-06
-3.467809e-06
-7.422798e-06
-7.422798e-06
-4.897882e-06
-2.871741e-06
-4.897882e-06
-2.871741e-06
-2.744690e-06
-2.744690e-06
-1.835400e-06
-1.835400e-06
2.950404e-06
9.418344e-07
2.950404e-06
9.418344e-07
-2.558563e-06
-2.558563e-06
-1.985923e-06
-1.985923e-06
-5.381594e-06
-3.263859e-06
-5.381594e-06
-3.263859e-06
-6.651714e-07
-6.651714e-07
1.263489e-06
1.263489e-06
-2.969291e-06
-2.426706e-06
-2.969291e-06
-2.426706e-06
-2.191974e-06
-2.191974e-06
-1.994275e-06
-1.994275e-06
-3.595262e-07
-3.153783e-06
-3.595262e-07
-3.153783e-06
5.675744e-06
5.675744e-06
9.041355e-06
9.041355e-06
2.328549e-05
6.507671e-06
2.328549e-05
6.507671e-06
4.258756e-06
4.258756e-06
-2.129146e-05
-2.129146e-05
2.100693e-05
3.839076e-05
2.100693e-05
3.839076e-05
-5.222720e-05
-5.222720e-05
-3.208625e-05
-3.208625e-05
-8.026034e-05
-3.398746e-05
-8.026034e-05
-3.398746e-05
1.448621e-05
1.448621e-05
-1.139486e-05
-1.139486e-05
-1.746392e-05
-4.833916e-05
-1.746392e-05
-4.833916e-05
-1.096815e-04
-1.096815e-04
-9.970991e-05
-9.970991e-05
-4.541741e-04
-2.139560e-04
-4.541741e-04
-2.139560e-04
4.270275e-05
4.270275e-05
4.779299e-05
4.779299e-05
-1.536776e-04
-4.894692e-04
-1.536776e-04
-4.894692e-04
1.026923e-05
1.026923e-05
1.549751e-04
1.549751e-04
2.809740e-04
1.404957e-04
2.809740e-04
1.404957e-04
2.256369e-04
2.256369e-04
1.057629e-04
1.057629e-04
1.896774e-04
3.740625e-04
1.896774e-04
3.740625e-04
-3.412739e-05
-3.412739e-05
-8.323778e-05
-8.323778e-05
-1.097146e-04
-2.602170e-05
-1.097146e-04
-2.602170e-05
-5.007672e-05
-5.007672e-05
-1.444383e-05
-1.444383e-05
-2.350835e-05
-6.421614e-05
-2.350835e-05
-6.421614e-05
-5.383704e-06
-5.383704e-06
-9.422222e-06
-9.422222e-06
-2.167179e-05
-1.763238e-05
-2.167179e-05
-1.763238e-05
-4.683747e-06
-4.683747e-06
-4.021739e-06
-4.021739e-06
-1.462707e-07
-3.207083e-06
-1.462707e-07
-3.207083e-06
-2.259944e-06
-2.259944e-06
-2.328098e-06
-2.328098e-06
-1.891135e-06
-1.800659e-06
-1.891135e-06
-1.800659e-06
-1.249338e-06
-1.249338e-06
-4.234485e-07
-4.234485e-07
-7.523431e-07
1.028441e-06
-7.523431e-07
1.028441e-06
-5.819766e-07
-5.819766e-07
-6.516385e-07
-6.516385e-07
-7.700854e-07
-2.532083e-06
-7.700854e-07
-2.532083e-06
-3.199802e-06
-3.199802e-06
-3.348794e-06
-3.348794e-06
-4.773285e-06
-4.275941e-06
-4.773285e-06
-4.275941e-06
2.010868e-06
2.010868e-06
3.256069e-06
3.256069e-06
2.014377e-06
2.511079e-06
2.014377e-06
2.511079e-06
2.567823e-07
2.567823e-07
-1.048045e-06
-1.048045e-06
8.475547e-07
5.157310e-07
8.475547e-07
5.157310e-07
2.000273e-06
2.000273e-06
6.156044e-06
6.156044e-06
3.437767e-06
-1.442617e-06
3.437767e-06
-1.442617e-06
3.306533e-07
3.306533e-07
-4.748644e-06
-4.748644e-06
8.606932e-07
5.370162e-06
8.606932e-07
5.370162e-06
-1.007481e-06
-1.007481e-06
-1.081412e-06
-1.081412e-06
8.816309e-07
1.216653e-06
8.816309e-07
1.216653e-06
-3.767698e-06
-3.767698e-06
-7.017369e-06
-7.017369e-06
-1.080307e-05
-5.440995e-06
-1.080307e-05
-5.440995e-06
3.755103e-06
3.755103e-06
4.381493e-05
4.381493e-05
7.127023e-05
6.466520e-06
7.127023e-05
6.466520e-06
9.377713e-05
9.377713e-05
9.966568e-05
9.966568e-05
1.910661e-04
1.679236e-04
1.910661e-04
1.679236e-04
8.398468e-06
8.398468e-06
-1.490638e-04
-1.490638e-04
-3.030937e-04
1.505806e-05
-3.030937e-04
1.505806e-05
-2.161403e-04
-2.161403e-04
-6.996245e-05
-6.996245e-05
-2.370598e-04
-4.864586e-04
-2.370598e-04
-4.864586e-04
-2.360820e-05
-2.360820e-05
-2.843396e-04
-2.843396e-04
3.138890e-04
2.471620e-04
3.138890e-04
2.471620e-04
-4.688851e-04
-4.688851e-04
-4.391584e-06
-4.391584e-06
2.938122e-04
2.553508e-04
2.938122e-04
2.553508e-04
3.714042e-04
3.714042e-04
3.897969e-04
3.897969e-04
4.205492e-04
2.470438e-04
4.205492e-04
2.470438e-04
4.726031e-04
4.726031e-04
3.139169e-04
3.139169e-04
4.185558e-04
5.776428e-04
4.185558e-04
5.776428e-04
4.078991e-05
4.078991e-05
-9.832835e-05
-9.832835e-05
-4.497383e-05
1.093996e-04
-4.497383e-05
1.093996e-04
-7.142600e-05
-7.142600e-05
-4.199417e-05
-4.199417e-05
-5.010224e-05
-5.042589e-05
-5.010224e-05
-5.042589e-05
-2.681435e-05
-2.681435e-05
-2.082289e-05
-2.082289e-05
-1.332870e-05
-2.786232e-05
-1.332870e-05
-2.786232e-05
3.736667e-07
3.736667e-07
2.907036e-06
2.907036e-06
1.728305e-06
-4.641547e-07
1.728305e-06
-4.641547e-07
-3.194199e-07
-3.194199e-07
-1.829168e-06
-1.829168e-06
-1.885650e-06
1.106937e-06
-1.885650e-06
1.106937e-06
-2.216972e-07
-2.216972e-07
-2.031448e-06
-2.031448e-06
-2.499397e-06
-3.045702e-06
-2.499397e-06
-3.045702e-06
-2.174756e-06
-2.174756e-06
1.105165e-06
1.105165e-06
8.565415e-08
-1.156830e-06
8.565415e-08
-1.156830e-06
8.628792e-07
8.628792e-07
-4.342869e-07
-4.342869e-07
4.690791e-06
3.349800e-06
4.690791e-06
3.349800e-06
5.861463e-07
5.861463e-07
-4.417910e-07
-4.417910e-07
-1.032973e-06
1.181253e-06
-1.032973e-06
1.181253e-06
-2.148193e-07
-2.148193e-07
6.319101e-07
6.319101e-07
-1.555138e-06
-6.174496e-07
-1.555138e-06
-6.174496e-07
-2.244581e-06
-2.244581e-06
-1.176582e-06
-1.176582e-06
8.714116e-07
-9.261645e-07
8.714116e-07
-9.261645e-07
1.867077e-06
1.867077e-06
-4.127170e-08
-4.127170e-08
-4.064950e-06
-4.001122e-07
-4.064950e-06
-4.001122e-07
5.263800e-07
5.263800e-07
3.088290e-06
3.088290e-06
7.061718e-06
-1.197750e-06
7.061718e-06
-1.197750e-06
-8.357805e-07
-8.357805e-07
-6.466703e-06
-6.466703e-06
4.576905e-06
5.391205e-06
4.576905e-06
5.391205e-06
1.657005e-05
1.657005e-05
1.087550e-04
1.087550e-04
1.474177e-04
4.488257e-05
1.474177e-04
4.488257e-05
2.302674e-04
2.302674e-04
2.083366e-04
2.083366e-04
8.033103e-05
2.113417e-04
8.033103e-05
2.113417e-04
-9.676204e-05
-9.676204e-05
-5.485236e-04
-5.485236e-04
-7.025490e-04
-2.598317e-04
-7.025490e-04
-2.598317e-04
-8.298680e-04
-8.298680e-04
-5.609051e-04
-5.609051e-04
-1.113103e-03
-1.163611e-03
-1.113103e-03
-1.163611e-03
2.045352e-04
2.045352e-04
6.439331e-04
6.439331e-04
2.241597e-04
-5.339653e-04
2.241597e-04
-5.339653e-04
6.745454e-04
6.745454e-04
1.321484e-04
1.321484e-04
1.792264e-05
4.365609e-04
1.792264e-05
4.365609e-04
-1.766754e-04
-1.766754e-04
4.706078e-04
4.706078e-04
8.662132e-04
1.322198e-04
8.662132e-04
1.322198e-04
7.214240e-04
7.214240e-04
4.136373e-04
4.136373e-04
2.974696e-04
8.599674e-04
2.974696e-04
8.599674e-04
1.324506e-04
1.324506e-04
2.707638e-05
2.707638e-05
6.530048e-05
1.266531e-04
6.530048e-05
1.266531e-04
-3.754890e-06
-3.754890e-06
-3.416721e-05
-3.416721e-05
-7.753934e-06
3.176422e-05
-7.753934e-06
3.176422e-05
-1.892558e-05
-1.892558e-05
-6.070996e-06
-6.070996e-06
-8.063148e-06
-1.038787e-05
-8.063148e-06
-1.038787e-05
-3.723059e-06
-3.723059e-06
-2.041932e-06
-2.041932e-06
-3.868702e-06
-2.999174e-06
-3.868702e-06
-2.999174e-06
-1.012490e-07
-1.012490e-07
-2.848825e-06
-2.848825e-06
-2.838796e-06
-2.944958e-06
-2.838796e-06
-2.944958e-06
-1.868570e-06
-1.868570e-06
-1.691360e-07
-1.691360e-07
4.152524e-06
1.407925e-06
4.152524e-06
1.407925e-06
5.383877e-07
5.383877e-07
2.019494e-06
2.019494e-06
3.961899e-06
3.692998e-06
3.961899e-06
3.692998e-06
3.063221e-06
3.063221e-06
6.012978e-06
6.012978e-06
7.479284e-06
5.304651e-06
7.479284e-06
5.304651e-06
2.700789e-06
2.700789e-06
-3.831113e-06
-3.831113e-06
-5.560997e-06
1.841574e-06
-5.560997e-06
1.841574e-06
-1.395439e-06
-1.395439e-06
2.123203e-08
2.123203e-08
1.427833e-07
-2.425863e-06
1.427833e-07
-2.425863e-06
5.320303e-08
5.320303e-08
2.174033e-06
2.174033e-06
-4.376382e-06
-2.048061e-06
-4.376382e-06
-2.048061e-06
6.922999e-07
6.922999e-07
-2.878957e-06
-2.878957e-06
-5.596086e-06
-4.508060e-06
-5.596086e-06
-4.508060e-06
-2.026806e-06
-2.026806e-06
7.085288e-06
7.085288e-06
3.001298e-06
-9.440074e-06
3.001298e-06
-9.440074e-06
1.222128e-05
1.222128e-05
2.624121e-05
2.624121e-05
6.365093e-05
2.733829e-05
6.365093e-05
2.733829e-05
8.725825e-05
8.725825e-05
1.583670e-04
1.583670e-04
1.245858e-04
1.268778e-04
1.245858e-04
1.268778e-04
9.445043e-05
9.445043e-05
-1.417875e-04
-1.417875e-04
-3.075247e-04
-5.057194e-05
-3.075247e-04
-5.057194e-05
-3.961895e-04
-3.961895e-04
-7.452525e-04
-7.452525e-04
-8.271590e-04
-5.005207e-04
-8.271590e-04
-5.005207e-04
-1.505117e-03
-1.505117e-03
-1.968711e-03
-1.968711e-03
-3.407278e-03
-1.898110e-03
-3.407278e-03
-1.898110e-03
-2.208466e-03
-2.208466e-03
-1.031121e-03
-1.031121e-03
-3.149704e-03
-5.357027e-03
-3.149704e-03
-5.357027e-03
7.565144e-05
7.565144e-05
1.024120e-03
1.024120e-03
3.581471e-03
2.455410e-04
3.581471e-03
2.455410e-04
1.999276e-03
1.999276e-03
1.661904e-03
1.661904e-03
2.510980e-03
5.153768e-03
2.510980e-03
5.153768e-03
9.609762e-04
9.609762e-04
2.266017e-04
2.266017e-04
3.046768e-04
1.044167e-03
3.046768e-04
1.044167e-03
1.369834e-04
1.369834e-04
6.437350e-05
6.437350e-05
8.110596e-05
1.824629e-04
8.110596e-05
1.824629e-04
3.264237e-05
3.264237e-05
1.503545e-06
1.503545e-06
1.056996e-05
2.271140e-05
1.056996e-05
2.271140e-05
-8.178583e-06
-8.178583e-06
-2.618141e-06
-2.618141e-06
6.843248e-06
-7.853952e-06
6.843248e-06
-7.853952e-06
-2.375208e-06
-2.375208e-06
-2.116025e-06
-2.116025e-06
-1.490357e-06
-1.490357e-06
2.115783e-07
2.115783e-07
2.628972e-06
2.628972e-06
5.110201e-06
5.110201e-06
3.524892e-06
3.524892e-06
1.040233e-07
1.040233e-07
2.700479e-06
2.700479e-06
5.420122e-06
5.420122e-06
1.184556e-06
1.184556e-06
-2.171532e-06
-2.171532e-06
-6.711021e-07
-6.711021e-07
-8.425094e-07
-8.425094e-07
-1.247888e-06
-1.247888e-06
-1.514849e-06
-1.514849e-06
1.905911e-06
1.905911e-06
4.851984e-06
4.851984e-06
5.507827e-06
5.507827e-06
2.287927e-05
2.287927e-05
5.822168e-05
5.822168e-05
9.647190e-05
9.647190e-05
8.707785e-05
8.707785e-05
-5.077106e-05
-5.077106e-05
-2.910079e-04
-2.910079e-04
-4.751395e-04
-4.751395e-04
-5.824535e-04
-5.824535e-04
-8.648792e-04
-8.648792e-04
-2.075982e-03
-2.075982e-03
-5.553403e-03
-5.553403e-03
-1.192332e-02
-1.192332e-02
-7.073328e-03
-7.073328e-03
2.699808e-03
2.699808e-03
1.022994e-02
1.022994e-02
1.059692e-02
1.059692e-02
2.746796e-03
2.746796e-03
5.206451e-04
5.206451e-04
4.312449e-05
4.312449e-05
6.043405e-05
6.043405e-05
2.557979e-05
2.557979e-05
-1.459379e-05
-1.459379e-05
-1.509363e-05
-1.509363e-05
3.401988e-06
2.166757e-06
1.178454e-06
3.616516e-07
-3.882971e-06
-7.063864e-06
5.856105e-06
3.907417e-06
1.950020e-06
1.043061e-06
-2.800611e-06
-5.746035e-06
8.389754e-06
5.713211e-06
2.468868e-06
1.292318e-06
-1.201924e-06
-3.087414e-06
5.484004e-06
3.788094e-06
1.545121e-06
6.040276e-07
-5.078734e-07
-1.225744e-06
2.019873e-06
1.998322e-06
8.814660e-07
-4.650094e-07
-6.139465e-07
-5.117133e-07
-4.224099e-07
6.489184e-07
3.897753e-07
-1.051505e-06
-4.641926e-07
2.339297e-07
-3.438776e-06
-1.844885e-06
-2.617088e-07
-7.348325e-07
1.292598e-07
1.455762e-06
-4.110102e-06
-2.636694e-06
-7.559771e-07
-6.425962e-07
6.433639e-07
2.223251e-06
-3.407821e-06
-2.151800e-06
-7.836509e-07
-3.051750e-07
9.999346e-07
1.938696e-06
-1.769447e-06
-9.505566e-07
-1.620875e-07
-9.452424e-08
4.173447e-07
8.312293e-07
-4.517478e-07
-8.209413e-08
1.452989e-07
-2.193282e-07
-1.676147e-07
1.064652e-07
3.034974e-06
2.864141e-06
3.120287e-06
1.969655e-06
-2.644595e-06
-5.681235e-06
6.036978e-06
4.633931e-06
2.982608e-06
1.600299e-06
-2.489286e-06
-5.444838e-06
8.864384e-06
6.742914e-06
3.031142e-06
8.150813e-07
-1.951791e-06
-4.092905e-06
7.355721e-06
5.803553e-06
2.279770e-06
-8.596523e-08
-1.350273e-06
-2.220460e-06
3.184185e-06
2.117121e-06
1.452283e-07
-1.105382e-06
-1.246631e-06
-1.042099e-06
5.414068e-08
-1.769341e-07
-6.216840e-07
-1.419190e-06
-1.194615e-06
-3.862085e-07
-1.779828e-06
-9.425806e-07
-7.110204e-07
-1.824291e-06
-8.345492e-07
6.627755e-07
-4.071205e-06
-3.004895e-06
-2.199652e-06
-2.255213e-06
-2.153822e-09
2.045400e-06
-4.661675e-06
-3.712320e-06
-2.384986e-06
-1.371701e-06
7.916766e-07
2.319749e-06
-2.999479e-06
-2.028059e-06
-9.397875e-07
-5.129148e-07
5.479129e-07
1.298719e-06
-1.496796e-06
-8.192205e-07
-2.785081e-07
-3.430378e-07
1.503562e-07
5.714172e-07
-1.212426e-06
1.445209e-06
4.136372e-06
3.224664e-06
1.202371e-07
-2.038954e-06
1.359619e-06
1.551908e-06
8.623749e-07
1.894147e-07
-1.426454e-06
-3.251183e-06
8.715270e-06
4.900949e-06
-2.408959e-06
-4.396440e-06
-3.851830e-06
-4.815326e-06
7.329778e-06
3.833939e-06
-2.738423e-06
-4.708903e-06
-4.159105e-06
-4.715350e-06
-1.147277e-06
-5.679792e-07
-2.436205e-07
-1.682209e-06
-3.213902e-06
-3.561947e-06
2.847569e-06
2.946213e-06
3.385035e-06
2.294831e-07
-3.033436e-06
-2.800624e-06
7.788059e-06
4.964276e-06
1.572655e-06
-1.369938e-06
-3.113384e-06
-2.482075e-06
-4.390378e-07
-1.493619e-06
-3.229899e-06
-3.931085e-06
-2.427962e-06
-9.053515e-07
-8.064753e-06
-6.746996e-06
-5.056996e-06
-3.920619e-06
-1.124578e-06
9.073277e-07
-6.435184e-06
-4.991002e-06
-3.112256e-06
-1.995633e-06
-1.540667e-07
1.005440e-06
-4.044683e-06
-2.850832e-06
-1.528865e-06
-9.196992e-07
8.510414e-08
6.088564e-07
-6.074866e-06
-1.514176e-06
2.633569e-06
2.788430e-06
1.946730e-06
5.372242e-07
-1.279171e-06
-2.058577e-06
-4.849463e-06
-3.642856e-06
-5.798053e-07
-7.348410e-07
1.555445e-05
4.450022e-06
-1.225662e-05
-1.276765e-05
-5.855494e-06
-4.034526e-06
8.351843e-06
1.689253e-06
-8.274893e-06
-1.016120e-05
-7.794103e-06
-6.842257e-06
-3.785535e-06
-5.828933e-07
2.870040e-06
-1.502006e-08
-5.198639e-06
-7.246907e-06
-2.267562e-06
3.370817e-06
1.025066e-05
5.616417e-06
-3.114649e-06
-5.969998e-06
3.641597e-06
4.602090e-06
7.130555e-06
3.231981e-06
-3.293646e-06
-4.352727e-06
5.099530e-06
2.216888e-06
-8.601338e-07
-2.692839e-06
-3.474400e-06
-2.617637e-06
-8.484891e-06
-7.068008e-06
-5.461922e-06
-4.475214e-06
-2.208759e-06
-7.398094e-07
-8.035935e-06
-5.859669e-06
-3.039856e-06
-1.894612e-06
-5.283557e-07
3.362047e-07
-4.038959e-06
-2.570826e-06
-7.450361e-07
-2.867997e-07
1.837208e-07
5.536618e-07
-2.340392e-05
-1.207269e-05
3.672547e-06
6.570695e-06
2.319455e-06
-4.159244e-07
-8.484879e-06
-4.644794e-06
-1.014706e-06
6.900845e-07
1.449056e-06
2.932409e-07
8.189600e-06
7.328302e-07
-1.059000e-05
-9.052515e-06
-2.210819e-06
-7.726754e-07
-1.671257e-06
-3.028904e-06
-7.690831e-06
-8.977850e-06
-5.550484e-06
-4.140378e-06
1.690826e-06
7.068385e-07
3.390954e-06
2.160727e-06
-4.843809e-06
-6.950015e-06
5.041671e-06
5.489406e-06
8.802128e-06
5.955113e-06
-3.172031e-06
-6.587173e-06
7.168001e-07
3.747626e-06
3.902896e-06
-3.741943e-07
-2.355023e-06
-2.934317e-06
1.084464e-06
-2.165933e-06
-4.553519e-06
-3.574911e-06
-1.844606e-06
-2.300981e-07
-9.476133e-06
-7.943663e-06
-4.781008e-06
-2.722041e-06
-6.818563e-07
9.295471e-07
-6.876387e-06
-4.211160e-06
-8.416169e-07
1.703441e-07
9.923288e-07
1.506668e-06
-6.510384e-07
4.626579e-07
1.884687e-06
1.930913e-06
1.612086e-06
1.555365e-06
-3.975093e-05
-2.178814e-05
5.288579e-06
1.043620e-05
2.392144e-06
-1.685599e-06
-1.791003e-05
-7.429063e-06
5.379067e-06
6.887174e-06
3.382777e-06
6.974373e-07
-6.638165e-06
-5.405102e-06
-5.078096e-06
-1.700452e-06
2.287347e-06
1.991446e-06
-1.461408e-05
-9.587448e-06
-7.323139e-06
-6.275150e-06
-1.638301e-06
-8.117666e-07
4.309669e-06
-7.924151e-07
1.145596e-06
2.732832e-06
-3.838827e-06
-4.957626e-06
1.978291e-05
1.113239e-05
5.506142e-06
2.923233e-06
-4.256600e-06
-5.829252e-06
9.847406e-06
8.259899e-06
-2.149677e-06
-7.038478e-06
-2.551164e-06
-1.997119e-06
-4.875901e-06
-8.379783e-06
-1.020324e-05
-5.758484e-06
-9.486645e-07
1.096825e-06
-1.219646e-05
-9.972465e-06
-4.765844e-06
-1.896664e-06
2.212305e-07
2.452567e-06
-6.321760e-06
-3.579423e-06
-1.105464e-07
1.069952e-06
2.054754e-06
2.585599e-06
1.228318e-06
1.921651e-06
2.904030e-06
3.062775e-06
2.558612e-06
2.184750e-06
SCALARS E23 float 1
LOOKUP_TABLE default
-2.629674e-04
-1.206743e-04
6.532440e-05
-2.560025e-04
-2.629674e-04
-1.206743e-04
6.532440e-05
-2.560025e-04
7.311508e-05
3.505237e-04
7.311508e-05
3.505237e-04
2.847417e-04
1.458287e-04
2.847417e-04
1.458287e-04
-5.675347e-05
-5.675347e-05
5.088522e-05
4.419971e-05
3.507863e-05
4.241432e-05
5.088522e-05
4.419971e-05
3.507863e-05
4.241432e-05
2.457778e-05
1.058277e-05
2.457778e-05
1.058277e-05
-1.204179e-05
6.901545e-06
-1.204179e-05
6.901545e-06
3.217980e-05
3.217980e-05
4.735189e-05
4.056817e-05
3.515259e-05
4.735189e-05
4.056817e-05
3.515259e-05
2.564181e-05
2.436617e-05
2.564181e-05
2.436617e-05
2.269662e-05
2.019484e-05
2.269662e-05
2.019484e-05
8.890097e-06
8.890097e-06
-4.244875e-06
-3.958644e-06
-2.947225e-07
-5.232911e-06
-4.244875e-06
-3.958644e-06
-2.947225e-07
-5.232911e-06
3.132086e-06
8.665410e-06
3.132086e-06
8.665410e-06
4.667397e-06
2.913647e-06
4.667397e-06
2.913647e-06
-7.939502e-06
-7.939502e-06
1.992561e-05
4.717396e-07
1.050349e-05
3.207787e-05
1.992561e-05
4.717396e-07
1.050349e-05
3.207787e-05
3.318331e-06
3.318331e-06
1.238399e-05
1.238399e-05
2.570833e-06
2.765422e-07
-3.623358e-06
8.946644e-07
2.570833e-06
2.765422e-07
-3.623358e-06
8.946644e-07
-5.410183e-06
-5.410183e-06
2.338800e-06
2.338800e-06
-2.331601e-06
-7.353259e-06
3.875952e-06
7.269472e-06
-2.331601e-06
-7.353259e-06
3.875952e-06
7.269472e-06
-3.527254e-06
1.473328e-06
-3.527254e-06
1.473328e-06
7.456376e-06
7.065577e-06
7.456376e-06
7.065577e-06
3.860550e-06
3.860550e-06
1.030770e-05
1.151310e-05
1.127829e-05
3.441000e-06
1.030770e-05
1.151310e-05
1.127829e-05
3.441000e-06
1.221865e-05
1.310283e-05
1.221865e-05
1.310283e-05
1.394445e-05
1.152936e-05
1.394445e-05
1.152936e-05
3.135242e-06
3.135242e-06
9.141860e-05
1.532094e-04
2.798370e-04
1.838623e-04
9.141860e-05
1.532094e-04
2.798370e-04
1.838623e-04
2.344953e-04
3.136341e-04
2.344953e-04
3.136341e-04
6.336983e-05
1.078395e-04
6.336983e-05
1.078395e-04
6.264527e-05
6.264527e-05
-1.492782e-05
-1.877392e-05
4.172251e-05
-1.492782e-05
-1.877392e-05
4.172251e-05
1.596871e-05
1.070364e-05
1.596871e-05
1.070364e-05
-1.180150e-05
-1.180150e-05
2.943384e-05
2.943384e-05
3.988939e-05
4.386086e-05
3.988939e-05
4.386086e-05
-9.696437e-05
-8.748828e-05
-1.856921e-04
-1.782588e-04
-9.696437e-05
-8.748828e-05
-1.856921e-04
-1.782588e-04
9.743096e-06
9.743096e-06
3.555178e-05
4.210041e-05
1.297708e-05
2.855255e-05
3.555178e-05
4.210041e-05
1.297708e-05
2.855255e-05
-2.174180e-05
-2.174180e-05
-3.136019e-05
-3.136019e-05
4.071923e-06
4.071923e-06
-1.019863e-05
-1.019863e-05
3.508738e-05
3.508738e-05
2.322680e-05
2.322680e-05
4.000968e-06
2.154204e-06
4.000968e-06
2.154204e-06
-2.362081e-05
-2.362081e-05
-2.144499e-05
-1.118255e-05
-2.144499e-05
-1.118255e-05
-1.355738e-05
-1.355738e-05
-1.523492e-05
-3.438716e-06
-1.523492e-05
-3.438716e-06
-1.691798e-05
-5.626116e-06
-1.691798e-05
-5.626116e-06
-1.520216e-05
-1.673476e-05
-1.520216e-05
-1.673476e-05
-2.604481e-05
-2.604481e-05
-1.566860e-05
-1.566860e-05
8.915759e-06
7.977783e-06
8.915759e-06
7.977783e-06
1.111034e-05
1.111034e-05
-6.502025e-06
-8.011058e-06
-6.502025e-06
-8.011058e-06
4.173883e-06
-1.454946e-06
1.539204e-06
4.896687e-06
4.173883e-06
-1.454946e-06
1.539204e-06
4.896687e-06
-6.903827e-06
-5.591852e-06
-6.903827e-06
-5.591852e-06
1.995468e-06
2.941266e-07
1.995468e-06
2.941266e-07
-1.996946e-06
-3.420249e-06
-3.794603e-06
-2.422741e-06
-1.996946e-06
-3.420249e-06
-3.794603e-06
-2.422741e-06
-4.783037e-06
-5.553892e-06
-4.783037e-06
-5.553892e-06
-2.254060e-06
-4.390780e-06
-2.254060e-06
-4.390780e-06
-4.418761e-06
-4.418761e-06
3.104943e-06
9.743701e-06
3.104943e-06
9.743701e-06
7.011551e-06
7.011551e-06
7.504022e-06
7.504022e-06
1.179509e-05
1.435289e-05
1.255125e-05
8.884916e-06
1.179509e-05
1.435289e-05
1.255125e-05
8.884916e-06
8.744015e-06
8.744015e-06
7.130412e-06
7.130412e-06
4.917732e-06
8.898268e-06
1.077624e-05
1.023741e-05
4.917732e-06
8.898268e-06
1.077624e-05
1.023741e-05
9.255866e-06
9.255866e-06
-2.453231e-06
-7.521072e-06
-7.157800e-06
4.063265e-07
-2.453231e-06
-7.521072e-06
-7.157800e-06
4.063265e-07
-5.912040e-06
-5.912040e-06
7.073586e-06
1.168654e-05
7.073586e-06
1.168654e-05
7.960133e-06
2.528176e-05
7.960133e-06
2.528176e-05
1.267611e-05
1.267611e-05
6.021345e-06
6.021345e-06
1.056962e-05
1.056962e-05
8.737555e-06
2.453711e-06
8.737555e-06
2.453711e-06
8.396976e-06
1.229729e-05
8.396976e-06
1.229729e-05
1.216234e-05
1.216234e-05
-8.178580e-06
-2.806359e-06
5.611228e-06
-6.723170e-06
-8.178580e-06
-2.806359e-06
5.611228e-06
-6.723170e-06
8.417099e-07
8.417099e-07
7.556782e-06
7.556782e-06
2.647675e-05
5.101099e-05
1.204707e-04
7.069687e-05
2.647675e-05
5.101099e-05
1.204707e-04
7.069687e-05
-9.121949e-07
-9.121949e-07
-1.336442e-06
-1.336442e-06
5.561304e-06
5.561304e-06
-1.084113e-04
-8.806645e-05
-1.084113e-04
-8.806645e-05
-2.673029e-04
-2.673029e-04
-2.252736e-04
-2.252736e-04
8.338802e-06
3.682687e-05
8.338802e-06
3.682687e-05
-8.273305e-06
-8.273305e-06
-1.497790e-05
-1.497790e-05
-1.816922e-05
-9.048948e-06
-1.816922e-05
-9.048948e-06
-4.893637e-06
-5.264243e-06
-4.893637e-06
-5.264243e-06
-1.291715e-04
-5.002765e-05
-1.063268e-04
-2.598740e-04
-1.291715e-04
-5.002765e-05
-1.063268e-04
-2.598740e-04
-1.755083e-05
-1.755083e-05
-1.796135e-05
-1.796135e-05
-1.659738e-04
-3.549258e-04
-1.659738e-04
-3.549258e-04
3.655307e-04
3.063584e-04
3.655307e-04
3.063584e-04
9.599467e-06
9.599467e-06
5.720277e-06
5.720277e-06
6.451033e-06
6.189024e-06
6.451033e-06
6.189024e-06
5.435191e-06
5.435191e-06
4.531981e-06
5.117947e-06
4.531981e-06
5.117947e-06
2.781379e-06
2.781379e-06
4.400407e-06
4.400407e-06
6.196739e-07
6.196739e-07
3.557061e-06
3.688831e-06
3.557061e-06
3.688831e-06
-4.822539e-06
-4.822539e-06
-5.817987e-06
-5.817987e-06
2.571131e-06
4.102681e-06
2.571131e-06
4.102681e-06
-3.339327e-06
-3.339327e-06
-2.020109e-06
-2.020109e-06
-1.455325e-08
6.256225e-07
-1.455325e-08
6.256225e-07
-2.368116e-06
-2.368116e-06
-2.646749e-06
-2.646749e-06
-1.235611e-06
-7.344065e-07
-1.235611e-06
-7.344065e-07
3.605438e-06
2.996737e-06
3.605438e-06
2.996737e-06
4.898901e-06
4.898901e-06
4.567926e-06
3.512497e-06
4.567926e-06
3.512497e-06
3.518593e-06
3.518593e-06
4.827714e-06
4.827714e-06
3.849613e-06
3.849613e-06
3.132085e-06
3.813290e-06
3.132085e-06
3.813290e-06
3.858481e-06
3.858481e-06
3.404169e-06
3.404169e-06
1.896657e-06
2.794388e-06
1.896657e-06
2.794388e-06
2.522040e-06
2.522040e-06
1.527230e-06
1.527230e-06
1.490436e-06
1.985468e-06
1.490436e-06
1.985468e-06
7.203798e-07
7.203798e-07
2.880176e-07
2.880176e-07
5.767237e-07
8.174229e-07
5.767237e-07
8.174229e-07
3.514238e-06
3.718280e-06
3.514238e-06
3.718280e-06
3.504736e-06
3.504736e-06
2.767196e-06
2.763244e-06
2.767196e-06
2.763244e-06
2.918181e-06
2.918181e-06
3.245205e-06
3.245205e-06
2.897304e-06
2.897304e-06
2.879833e-06
3.408358e-06
2.879833e-06
3.408358e-06
2.096322e-06
2.096322e-06
1.521277e-06
1.521277e-06
1.381772e-06
1.457720e-06
1.381772e-06
1.457720e-06
1.510200e-06
1.510200e-06
9.523814e-07
9.523814e-07
7.983567e-07
1.312361e-06
7.983567e-07
1.312361e-06
3.544391e-07
3.544391e-07
1.928909e-07
1.928909e-07
1.651111e-07
3.375423e-07
1.651111e-07
3.375423e-07
2.433987e-06
2.379137e-06
2.433987e-06
2.379137e-06
2.208488e-06
2.208488e-06
1.624630e-06
2.016552e-06
1.624630e-06
2.016552e-06
1.892590e-06
1.892590e-06
2.771413e-06
2.771413e-06
2.126788e-06
2.126788e-06
1.796700e-06
2.023340e-06
1.796700e-06
2.023340e-06
7.827178e-07
7.827178e-07
1.151602e-06
1.151602e-06
1.174122e-06
1.004625e-06
1.174122e-06
1.004625e-06
1.215715e-06
1.215715e-06
8.916705e-07
8.916705e-07
7.597971e-07
9.038874e-07
7.597971e-07
9.038874e-07
6.465930e-07
6.465930e-07
5.142311e-07
5.142311e-07
4.091029e-07
6.344241e-07
4.091029e-07
6.344241e-07
1.548545e-06
1.396607e-06
1.548545e-06
1.396607e-06
8.442122e-07
8.442122e-07
-2.458502e-08
1.272215e-06
-2.458502e-08
1.272215e-06
8.751339e-07
8.751339e-07
6.178743e-07
6.178743e-07
1.415917e-06
1.415917e-06
7.068210e-07
-9.160234e-07
7.068210e-07
-9.160234e-07
1.404537e-06
1.404537e-06
9.195738e-07
9.195738e-07
3.027108e-07
9.613199e-07
3.027108e-07
9.613199e-07
6.876450e-07
6.876450e-07
5.526772e-07
5.526772e-07
4.849530e-07
6.039973e-07
4.849530e-07
6.039973e-07
3.730032e-07
3.730032e-07
2.335045e-07
2.335045e-07
2.176952e-07
2.889724e-07
2.176952e-07
2.889724e-07
1.079642e-06
8.550649e-07
1.079642e-06
8.550649e-07
-1.848061e-07
-1.848061e-07
-1.293586e-07
9.769849e-07
-1.293586e-07
9.769849e-07
8.112055e-07
8.112055e-07
-1.260893e-06
-1.260893e-06
2.033837e-07
2.033837e-07
-6.103817e-07
-1.471376e-06
-6.103817e-07
-1.471376e-06
6.350888e-07
6.350888e-07
3.215100e-08
3.215100e-08
2.387960e-07
4.534233e-07
2.387960e-07
4.534233e-07
4.151576e-07
4.151576e-07
4.505609e-07
4.505609e-07
1.059034e-07
5.632597e-08
1.059034e-07
5.632597e-08
2.526410e-07
2.526410e-07
1.132339e-07
1.132339e-07
6.438683e-08
1.128421e-07
6.438683e-08
1.128421e-07
8.773180e-07
6.135322e-07
8.773180e-07
6.135322e-07
9.376499e-08
9.376499e-08
4.933862e-08
8.258834e-07
4.933862e-08
8.258834e-07
1.140692e-06
1.140692e-06
-1.804711e-06
-1.804711e-06
-9.968218e-07
-9.968218e-07
-3.901979e-07
-2.009844e-06
-3.901979e-07
-2.009844e-06
5.946295e-07
5.946295e-07
1.403664e-07
1.403664e-07
2.186574e-07
1.613175e-06
2.186574e-07
1.613175e-06
-1.591933e-07
-1.591933e-07
-1.524466e-07
-1.524466e-07
-9.761529e-08
-1.866673e-07
-9.761529e-08
-1.866673e-07
-5.888156e-08
-5.888156e-08
-9.241244e-08
-9.241244e-08
-5.332281e-08
-5.647294e-08
-5.332281e-08
-5.647294e-08
4.624638e-07
9.732212e-07
4.624638e-07
9.732212e-07
-9.324547e-07
-9.324547e-07
-1.393894e-06
-1.776540e-07
-1.393894e-06
-1.776540e-07
-4.713330e-07
-4.713330e-07
-2.271942e-06
-2.271942e-06
-1.213597e-07
-1.213597e-07
-1.365193e-07
-1.233897e-06
-1.365193e-07
-1.233897e-06
1.470063e-06
1.470063e-06
3.369578e-07
3.369578e-07
-3.683824e-07
-4.786941e-07
-3.683824e-07
-4.786941e-07
-1.431700e-07
-1.431700e-07
2.436926e-08
2.436926e-08
1.128351e-07
-9.854136e-08
1.128351e-07
-9.854136e-08
1.323911e-07
1.323911e-07
1.310281e-07
1.310281e-07
1.063240e-07
2.060033e-07
1.063240e-07
2.060033e-07
-4.205591e-07
-1.143531e-06
-4.205591e-07
-1.143531e-06
-1.249637e-06
-1.249637e-06
-7.442812e-07
-2.851098e-07
-7.442812e-07
-2.851098e-07
-5.807783e-07
-5.807783e-07
-4.154222e-07
-4.154222e-07
-1.975083e-07
-1.975083e-07
-1.154003e-07
-2.344791e-07
-1.154003e-07
-2.344791e-07
-1.650295e-06
-1.650295e-06
-8.352882e-07
-8.352882e-07
-4.113938e-07
-9.642244e-07
-4.113938e-07
-9.642244e-07
-5.870761e-08
-5.870761e-08
1.550299e-07
1.550299e-07
2.297046e-07
1.250711e-07
2.297046e-07
1.250711e-07
2.450300e-07
2.450300e-07
1.267978e-07
1.267978e-07
1.722471e-07
2.363000e-07
1.722471e-07
2.363000e-07
9.591944e-08
2.984985e-07
9.591944e-08
2.984985e-07
7.607755e-07
7.607755e-07
2.258971e-06
6.982157e-07
2.258971e-06
6.982157e-07
8.805288e-07
8.805288e-07
1.226294e-06
1.226294e-06
3.985625e-07
3.985625e-07
5.281372e-07
2.309001e-06
5.281372e-07
2.309001e-06
-3.325892e-07
-3.325892e-07
-5.783248e-08
-5.783248e-08
1.473899e-07
1.225658e-07
1.473899e-07
1.225658e-07
2.591112e-07
2.591112e-07
2.007669e-07
2.007669e-07
1.083976e-07
2.210098e-07
1.083976e-07
2.210098e-07
1.391409e-07
1.391409e-07
8.504331e-08
8.504331e-08
-4.691886e-08
-1.575481e-08
-4.691886e-08
-1.575481e-08
7.710352e-07
9.126551e-07
7.710352e-07
9.126551e-07
2.821648e-06
2.821648e-06
2.482794e-06
5.287086e-07
2.482794e-06
5.287086e-07
7.586025e-07
7.586025e-07
2.805879e-06
2.805879e-06
9.163888e-07
9.163888e-07
1.108658e-06
2.702392e-06
1.108658e-06
2.702392e-06
8.677508e-07
8.677508e-07
4.703439e-07
4.703439e-07
5.032897e-07
9.345330e-07
5.032897e-07
9.345330e-07
2.262573e-07
2.262573e-07
1.102726e-07
1.102726e-07
1.250732e-07
3.129068e-07
1.250732e-07
3.129068e-07
-2.191456e-08
-2.191456e-08
1.000258e-08
1.000258e-08
-6.445248e-08
-7.698652e-08
-6.445248e-08
-7.698652e-08
4.146585e-07
7.677103e-07
4.146585e-07
7.677103e-07
1.433708e-06
1.433708e-06
1.444233e-07
1.229201e-07
1.444233e-07
1.229201e-07
5.954022e-07
5.954022e-07
1.454838e-06
1.454838e-06
4.582665e-07
4.582665e-07
-1.958302e-07
3.351933e-08
-1.958302e-07
3.351933e-08
5.672197e-07
5.672197e-07
3.072328e-07
3.072328e-07
-7.428017e-08
9.259742e-08
-7.428017e-08
9.259742e-08
3.657599e-09
3.657599e-09
-1.839578e-07
-1.839578e-07
-4.099504e-07
-3.903124e-07
-4.099504e-07
-3.903124e-07
-3.288679e-07
-3.288679e-07
-2.170691e-07
-2.170691e-07
-2.778343e-07
-4.217568e-07
-2.778343e-07
-4.217568e-07
-2.265953e-07
1.320935e-07
-2.265953e-07
1.320935e-07
-5.436618e-07
-5.436618e-07
-4.463360e-07
-3.072638e-07
-4.463360e-07
-3.072638e-07
-1.025946e-07
-1.025946e-07
-6.510840e-07
-6.510840e-07
-3.870076e-07
-3.870076e-07
-2.658049e-07
-4.926488e-07
-2.658049e-07
-4.926488e-07
-5.827804e-08
-5.827804e-08
-1.679165e-07
-1.679165e-07
4.622062e-08
1.379887e-09
4.622062e-08
1.379887e-09
-3.708542e-07
-3.708542e-07
-3.223503e-07
-3.223503e-07
-6.402266e-08
-1.204642e-08
-6.402266e-08
-1.204642e-08
-2.823978e-07
-2.823978e-07
-2.094481e-07
-2.094481e-07
-7.725865e-08
-9.231663e-08
-7.725865e-08
-9.231663e-08
-2.380069e-07
-2.747743e-07
-2.380069e-07
-2.747743e-07
-2.235819e-07
-2.235819e-07
-1.422389e-07
-2.384403e-07
-1.422389e-07
-2.384403e-07
-4.349677e-07
-4.349677e-07
-2.749675e-07
-2.749675e-07
-2.439538e-07
-2.439538e-07
-2.375766e-07
-2.019944e-07
-2.375766e-07
-2.019944e-07
-5.340341e-08
-5.340341e-08
7.930182e-08
7.930182e-08
5.767231e-08
-2.649859e-08
5.767231e-08
-2.649859e-08
1.204098e-07
1.204098e-07
4.282955e-08
4.282955e-08
-6.980334e-08
-3.642423e-08
-6.980334e-08
-3.642423e-08
-3.297328e-08
-3.297328e-08
-4.785544e-08
-4.785544e-08
-6.343555e-09
-2.067533e-08
-6.343555e-09
-2.067533e-08
1.548308e-06
1.149141e-06
1.940651e-06
2.991964e-06
1.548308e-06
1.149141e-06
1.940651e-06
2.991964e-06
8.155607e-07
1.071022e-06
8.155607e-07
1.071022e-06
1.932966e-06
2.865565e-06
1.932966e-06
2.865565e-06
3.379096e-06
3.379096e-06
3.790167e-07
4.408946e-08
3.790167e-07
4.408946e-08
1.342123e-07
-5.662323e-07
1.342123e-07
-5.662323e-07
2.629880e-08
4.521405e-07
2.629880e-08
4.521405e-07
-4.404625e-07
-1.409170e-06
-4.404625e-07
-1.409170e-06
-5.077786e-07
-5.077786e-07
2.721114e-06
2.644507e-07
2.721114e-06
2.644507e-07
1.845350e-06
1.845350e-06
1.830771e-06
3.190037e-06
1.830771e-06
3.190037e-06
-4.160240e-07
-4.160240e-07
4.205104e-07
4.205104e-07
6.000711e-08
6.000711e-08
-1.126201e-07
5.540108e-07
-1.126201e-07
5.540108e-07
2.293091e-07
2.293091e-07
1.188487e-07
1.188487e-07
3.696123e-06
1.878163e-06
3.696123e-06
1.878163e-06
2.575217e-06
2.575217e-06
2.951702e-06
3.504452e-06
2.951702e-06
3.504452e-06
2.958091e-06
2.958091e-06
7.784154e-07
7.784154e-07
-2.850149e-08
-2.850149e-08
-2.158164e-07
6.430359e-07
-2.158164e-07
6.430359e-07
1.493489e-08
1.493489e-08
-7.622951e-08
-7.622951e-08
1.899669e-06
3.130560e-06
1.899669e-06
3.130560e-06
1.600213e-06
1.600213e-06
9.239646e-08
-3.755391e-08
9.239646e-08
-3.755391e-08
2.304546e-07
2.304546e-07
3.007946e-07
3.007946e-07
-1.247699e-07
-1.247699e-07
4.381191e-07
4.129131e-07
4.381191e-07
4.129131e-07
2.975546e-07
2.975546e-07
7.495313e-07
7.495313e-07
3.009097e-07
-3.548280e-07
3.009097e-07
-3.548280e-07
-1.193809e-07
-1.193809e-07
6.617467e-07
1.513736e-06
6.617467e-07
1.513736e-06
-4.798157e-07
-4.798157e-07
6.376116e-07
6.376116e-07
6.485521e-07
6.485521e-07
3.923546e-07
2.691466e-07
3.923546e-07
2.691466e-07
4.742128e-07
4.742128e-07
1.281195e-07
1.281195e-07
1.204994e-06
-3.389790e-06
1.204994e-06
-3.389790e-06
1.105837e-06
1.105837e-06
9.350270e-07
6.125225e-07
9.350270e-07
6.125225e-07
-4.269839e-06
-4.269839e-06
-3.652570e-08
-3.652570e-08
9.524092e-08
9.524092e-08
-9.451752e-09
-2.798608e-08
-9.451752e-09
-2.798608e-08
-2.231513e-07
-2.231513e-07
-3.986638e-07
-3.986638e-07
3.235983e-06
9.413582e-07
3.235983e-06
9.413582e-07
4.026888e-06
4.026888e-06
2.349173e-06
7.065800e-06
2.349173e-06
7.065800e-06
9.397949e-07
9.397949e-07
3.502312e-06
3.502312e-06
2.734031e-06
2.734031e-06
2.420522e-06
3.617602e-06
2.420522e-06
3.617602e-06
2.037533e-06
2.037533e-06
1.817456e-06
1.817456e-06
1.595512e-06
1.605054e-06
1.595512e-06
1.605054e-06
8.839799e-07
8.839799e-07
2.741734e-07
2.741734e-07
8.488651e-07
8.270994e-07
8.488651e-07
8.270994e-07
5.644501e-07
5.644501e-07
4.105013e-07
4.105013e-07
8.717586e-07
1.194845e-06
8.717586e-07
1.194845e-06
5.790172e-07
5.790172e-07
1.175448e-06
1.175448e-06
7.891654e-07
1.017753e-06
7.891654e-07
1.017753e-06
1.154248e-06
1.154248e-06
8.192238e-07
8.192238e-07
-9.919721e-06
-1.049667e-05
-9.919721e-06
-1.049667e-05
6.837033e-06
6.837033e-06
6.785861e-06
-7.151759e-07
6.785861e-06
-7.151759e-07
6.545933e-06
6.545933e-06
3.458678e-06
3.458678e-06
2.702863e-06
2.702863e-06
2.381966e-06
3.079428e-06
2.381966e-06
3.079428e-06
2.289708e-06
2.289708e-06
2.617146e-06
2.617146e-06
4.291292e-06
4.162276e-06
4.291292e-06
4.162276e-06
1.972171e-06
1.972171e-06
1.984341e-06
1.984341e-06
5.282581e-07
1.232036e-06
5.282581e-07
1.232036e-06
2.111205e-06
2.111205e-06
1.913926e-06
1.913926e-06
1.988954e-06
1.470369e-06
1.988954e-06
1.470369e-06
1.445597e-06
1.445597e-06
8.325462e-07
8.325462e-07
2.124576e-06
1.733286e-06
2.124576e-06
1.733286e-06
8.030801e-07
8.030801e-07
1.922472e-06
1.922472e-06
2.087343e-06
2.087343e-06
3.009725e-07
3.009725e-07
1.376134e-06
2.371542e-06
1.376134e-06
2.371542e-06
1.995611e-06
1.995611e-06
3.749415e-06
3.749415e-06
1.271316e-06
1.074705e-06
1.271316e-06
1.074705e-06
-8.808006e-07
-8.808006e-07
-9.810585e-07
-9.810585e-07
-8.149884e-08
-1.773438e-06
-8.149884e-08
-1.773438e-06
2.707302e-07
2.707302e-07
-7.451098e-08
-7.451098e-08
-5.165677e-07
4.020317e-06
-5.165677e-07
4.020317e-06
3.063828e-06
3.063828e-06
-2.096722e-06
-2.096722e-06
-5.641920e-06
-7.141555e-07
-5.641920e-06
-7.141555e-07
-1.480806e-07
-1.480806e-07
-6.072498e-06
-6.072498e-06
-2.858977e-06
-1.042629e-06
-2.858977e-06
-1.042629e-06
6.015280e-06
6.015280e-06
-9.040961e-06
-9.040961e-06
-1.122629e-05
1.561786e-05
-1.122629e-05
1.561786e-05
-2.194500e-06
3.672815e-06
-2.194500e-06
3.672815e-06
4.551276e-07
-3.121426e-06
4.551276e-07
-3.121426e-06
3.215823e-06
3.845185e-06
3.215823e-06
3.845185e-06
-6.338655e-07
-5.537877e-07
-1.672305e-07
7.232982e-07
-6.338655e-07
-5.537877e-07
-1.672305e-07
7.232982e-07
1.597365e-06
-1.182823e-06
1.597365e-06
-1.182823e-06
-1.464474e-06
-2.425934e-10
-1.464474e-06
-2.425934e-10
1.455829e-06
1.455829e-06
2.848725e-07
5.971854e-07
1.193102e-07
-6.812358e-08
2.848725e-07
5.971854e-07
1.193102e-07
-6.812358e-08
6.563744e-07
6.616723e-07
6.563744e-07
6.616723e-07
3.876673e-07
1.670649e-07
3.876673e-07
1.670649e-07
1.939446e-07
1.939446e-07
-8.525751e-06
-6.050412e-06
-4.087420e-06
-1.928705e-06
-8.525751e-06
-6.050412e-06
-4.087420e-06
-1.928705e-06
-2.891925e-06
-3.096045e-06
-2.891925e-06
-3.096045e-06
-2.075098e-06
-3.966835e-06
-2.075098e-06
-3.966835e-06
8.264410e-07
8.264410e-07
-5.648398e-07
-6.206812e-07
2.324209e-06
-5.648398e-07
-6.206812e-07
2.324209e-06
-2.537959e-06
-2.743764e-06
-2.537959e-06
-2.743764e-06
-5.386424e-06
-5.012637e-06
-5.386424e-06
-5.012637e-06
-1.604462e-06
-1.604462e-06
-1.113606e-05
-4.868685e-06
-9.866839e-06
-9.683111e-06
-1.113606e-05
-4.868685e-06
-9.866839e-06
-9.683111e-06
-5.460746e-06
-5.460746e-06
-6.270358e-06
-6.270358e-06
-9.479314e-07
3.354893e-06
-7.184275e-06
-2.638218e-06
-9.479314e-07
3.354893e-06
-7.184275e-06
-2.638218e-06
4.254638e-06
-6.233141e-06
4.254638e-06
-6.233141e-06
-9.843055e-06
-2.297847e-06
-9.843055e-06
-2.297847e-06
2.270289e-06
2.270289e-06
-9.657621e-06
-1.707949e-05
-2.258653e-05
-1.900798e-05
-9.657621e-06
-1.707949e-05
-2.258653e-05
-1.900798e-05
-1.008660e-05
-1.008660e-05
-1.439040e-05
-1.439040e-05
-7.247920e-06
-7.247920e-06
-1.404727e-06
-1.017992e-06
-1.404727e-06
-1.017992e-06
5.844192e-07
5.844192e-07
1.120354e-07
3.639283e-07
1.120354e-07
3.639283e-07
4.918917e-07
4.918917e-07
-2.189829e-07
6.729012e-08
-6.529254e-07
-8.773995e-07
-2.189829e-07
6.729012e-08
-6.529254e-07
-8.773995e-07
1.027695e-06
1.027695e-06
7.731710e-07
-9.523384e-07
7.731710e-07
-9.523384e-07
-8.629471e-07
-8.629471e-07
-1.978936e-08
2.816648e-07
4.140145e-07
7.540917e-08
-1.978936e-08
2.816648e-07
4.140145e-07
7.540917e-08
7.599184e-08
1.082604e-07
7.599184e-08
1.082604e-07
2.632618e-09
2.632618e-09
9.679070e-08
2.458662e-08
9.679070e-08
2.458662e-08
-1.147904e-07
-1.147904e-07
5.903944e-06
-5.711122e-06
-4.812830e-06
-1.344781e-05
5.903944e-06
-5.711122e-06
-4.812830e-06
-1.344781e-05
4.569929e-07
4.569929e-07
-2.377058e-05
-2.377058e-05
-1.365370e-05
-8.117856e-06
-1.365370e-05
-8.117856e-06
-8.163263e-06
-8.163263e-06
-1.400159e-05
-1.415632e-05
-1.400159e-05
-1.415632e-05
4.999979e-07
-6.992266e-07
3.789154e-07
4.999979e-07
-6.992266e-07
3.789154e-07
-9.513257e-07
-9.513257e-07
1.812006e-06
1.812006e-06
-2.499419e-06
-5.030908e-06
-7.877017e-07
-3.546072e-06
-2.499419e-06
-5.030908e-06
-7.877017e-07
-3.546072e-06
-1.739472e-06
1.337417e-06
-1.739472e-06
1.337417e-06
-4.933557e-07
-4.933557e-07
-5.247442e-06
-5.247442e-06
-1.691287e-06
3.400564e-06
7.888341e-06
-3.576373e-06
-1.691287e-06
3.400564e-06
7.888341e-06
-3.576373e-06
3.846768e-06
6.403568e-06
3.846768e-06
6.403568e-06
1.150867e-05
1.163473e-05
1.150867e-05
1.163473e-05
2.130535e-06
2.130535e-06
3.005805e-06
3.560641e-06
8.420719e-06
4.577546e-06
3.005805e-06
3.560641e-06
8.420719e-06
4.577546e-06
8.978603e-06
8.978603e-06
7.346886e-06
7.346886e-06
7.384923e-07
7.384923e-07
1.274031e-06
1.274031e-06
3.186788e-06
2.470217e-06
3.186788e-06
2.470217e-06
1.975540e-05
1.763140e-05
3.542393e-05
4.232985e-05
1.975540e-05
1.763140e-05
3.542393e-05
4.232985e-05
1.255619e-05
2.284360e-05
1.255619e-05
2.284360e-05
2.652721e-05
3.972010e-05
2.652721e-05
3.972010e-05
3.195237e-05
3.195237e-05
1.259748e-06
9.512734e-07
1.259748e-06
9.512734e-07
2.381177e-06
2.381177e-06
-1.107914e-05
-4.338779e-06
-1.107914e-05
-4.338779e-06
-3.997923e-06
-3.997923e-06
3.954074e-06
1.117897e-05
3.954074e-06
1.117897e-05
1.867687e-06
1.867687e-06
6.614616e-06
6.614616e-06
9.175251e-07
9.175251e-07
2.517900e-05
1.437077e-05
2.517900e-05
1.437077e-05
2.161912e-06
2.161912e-06
-2.190717e-06
-7.192328e-06
-2.190717e-06
-7.192328e-06
3.938268e-06
2.495201e-06
3.938268e-06
2.495201e-06
-2.135232e-07
-1.028113e-07
4.916487e-06
2.774225e-06
-2.135232e-07
-1.028113e-07
4.916487e-06
2.774225e-06
-6.719747e-07
2.413394e-07
-6.719747e-07
2.413394e-07
-5.168256e-07
-5.168256e-07
-9.167807e-07
-6.037227e-07
-9.167807e-07
-6.037227e-07
-7.548863e-07
-7.548863e-07
-1.110741e-06
-1.110741e-06
-1.106141e-06
-1.106141e-06
3.482655e-06
-1.235908e-06
3.482655e-06
-1.235908e-06
6.361705e-07
-1.471269e-06
6.361705e-07
-1.471269e-06
-7.418098e-06
-7.418098e-06
5.008012e-06
5.008012e-06
8.920224e-07
8.920224e-07
8.761259e-08
8.761259e-08
1.226717e-06
1.226717e-06
-6.828687e-08
-6.828687e-08
-4.930824e-07
8.944132e-07
-4.930824e-07
8.944132e-07
1.653195e-05
9.030112e-06
1.653195e-05
9.030112e-06
1.269748e-05
1.269748e-05
5.894696e-06
5.894696e-06
1.186802e-05
1.186802e-05
1.692244e-05
1.692244e-05
8.325374e-07
1.128050e-06
8.325374e-07
1.128050e-06
3.740487e-07
3.740487e-07
3.499985e-07
1.930603e-07
3.499985e-07
1.930603e-07
1.578420e-07
1.578420e-07
-1.590942e-06
-1.155651e-06
-1.590942e-06
-1.155651e-06
-6.738224e-07
-6.157097e-07
-6.738224e-07
-6.157097e-07
-1.353343e-06
-1.267837e-06
-1.353343e-06
-1.267837e-06
2.854607e-07
-4.542672e-07
2.854607e-07
-4.542672e-07
-4.398170e-08
-1.627854e-07
-4.398170e-08
-1.627854e-07
-1.815676e-07
-7.889803e-07
-1.815676e-07
-7.889803e-07
-4.886100e-07
-1.025959e-08
-4.886100e-07
-1.025959e-08
-6.678822e-07
-2.219943e-07
-6.678822e-07
-2.219943e-07
-3.047914e-07
-6.160995e-07
-3.047914e-07
-6.160995e-07
-6.060705e-07
-2.728366e-07
-6.060705e-07
-2.728366e-07
2.863740e-07
-1.626073e-07
2.863740e-07
-1.626073e-07
2.037271e-07
2.790628e-07
2.037271e-07
2.790628e-07
4.921368e-07
-1.615282e-07
4.921368e-07
-1.615282e-07
-1.679195e-07
-9.841201e-08
-1.679195e-07
-9.841201e-08
5.034646e-07
5.306858e-07
5.034646e-07
5.306858e-07
-3.958682e-07
-6.616966e-08
-3.958682e-07
-6.616966e-08
2.426192e-07
-6.340166e-08
2.426192e-07
-6.340166e-08
-4.982106e-07
-1.386560e-07
-4.982106e-07
-1.386560e-07
2.603844e-07
-8.620815e-08
2.603844e-07
-8.620815e-08
9.047552e-08
-6.003457e-08
9.047552e-08
-6.003457e-08
5.629738e-07
-1.793406e-07
5.629738e-07
-1.793406e-07
3.703441e-07
4.513102e-08
3.703441e-07
4.513102e-08
-1.293064e-08
7.810156e-09
-1.293064e-08
7.810156e-09
-3.553080e-07
4.432540e-07
-3.553080e-07
4.432540e-07
7.628843e-10
-1.281957e-08
7.628843e-10
-1.281957e-08
7.718028e-08
-2.122200e-08
7.718028e-08
-2.122200e-08
7.238879e-07
-1.683655e-07
7.238879e-07
-1.683655e-07
-4.000901e-07
-1.153816e-08
-4.000901e-07
-1.153816e-08
-3.740455e-07
1.991388e-08
-3.740455e-07
1.991388e-08
-2.245644e-07
7.006039e-07
-2.245644e-07
7.006039e-07
7.040315e-08
-2.426427e-08
7.040315e-08
-2.426427e-08
3.295274e-07
-5.604461e-08
3.295274e-07
-5.604461e-08
-2.093383e-07
-6.820559e-07
-2.093383e-07
-6.820559e-07
1.723846e-07
-2.149220e-08
1.723846e-07
-2.149220e-08
-1.202175e-07
-1.761608e-09
-1.202175e-07
-1.761608e-09
-3.059654e-07
-8.653970e-08
-3.059654e-07
-8.653970e-08
-1.606762e-07
1.596307e-08
-1.606762e-07
1.596307e-08
-4.434153e-08
2.879694e-08
-4.434153e-08
2.879694e-08
-3.330116e-08
-1.063788e-07
-3.330116e-08
-1.063788e-07
1.685381e-07
-1.656811e-09
1.685381e-07
-1.656811e-09
3.464978e-07
-1.019880e-08
3.464978e-07
-1.019880e-08
1.425721e-08
-4.083001e-08
1.425721e-08
-4.083001e-08
-1.119669e-06
-1.119669e-06
-1.270673e-06
-1.270673e-06
-3.426645e-07
-4.806255e-07
-3.426645e-07
-4.806255e-07
-4.272355e-07
-4.272355e-07
-1.878048e-07
-1.878048e-07
-2.160264e-07
2.036544e-08
-2.160264e-07
2.036544e-08
-2.869081e-07
-2.869081e-07
4.972893e-07
4.972893e-07
5.776571e-07
-1.975620e-07
5.776571e-07
-1.975620e-07
6.448772e-07
6.448772e-07
-1.103564e-07
-1.103564e-07
-2.469001e-07
3.950283e-07
-2.469001e-07
3.950283e-07
3.765662e-07
3.765662e-07
7.953224e-07
7.953224e-07
1.054254e-07
-2.621414e-07
1.054254e-07
-2.621414e-07
-4.572209e-07
-4.572209e-07
-1.143231e-06
-1.143231e-06
-8.717826e-07
-1.672228e-07
-8.717826e-07
-1.672228e-07
-4.649175e-07
-4.649175e-07
2.897352e-07
2.897352e-07
3.442636e-07
-4.404893e-07
3.442636e-07
-4.404893e-07
5.836489e-08
5.836489e-08
-6.549248e-07
-6.549248e-07
-3.782090e-07
1.783335e-07
-3.782090e-07
1.783335e-07
-3.615055e-07
-3.615055e-07
9.063009e-07
9.063009e-07
4.666714e-07
-1.178410e-07
4.666714e-07
-1.178410e-07
1.175064e-06
1.175064e-06
-4.314354e-07
-4.314354e-07
-6.439714e-07
1.156883e-07
-6.439714e-07
1.156883e-07
-9.865602e-07
-9.865602e-07
-4.169652e-08
-4.169652e-08
1.244596e-07
-4.549339e-07
1.244596e-07
-4.549339e-07
-2.904202e-07
-2.904202e-07
-4.623579e-07
-4.623579e-07
-3.312901e-07
-2.968609e-07
-3.312901e-07
-2.968609e-07
9.296297e-08
9.296297e-08
3.303268e-08
3.303268e-08
9.521243e-08
1.625240e-07
9.521243e-08
1.625240e-07
-8.235320e-08
-8.235320e-08
-2.191910e-08
-2.191910e-08
-5.603965e-08
-3.222000e-08
-5.603965e-08
-3.222000e-08
-3.949494e-07
-3.949494e-07
-3.183308e-07
-3.183308e-07
-3.172398e-07
-5.274003e-07
-3.172398e-07
-5.274003e-07
-4.404933e-08
-4.404933e-08
-1.806965e-07
-1.806965e-07
-1.795316e-07
1.012799e-07
-1.795316e-07
1.012799e-07
-5.770971e-07
-5.770971e-07
7.725849e-09
7.725849e-09
1.393047e-07
-1.746266e-07
1.393047e-07
-1.746266e-07
-2.560090e-07
-2.560090e-07
-2.266874e-07
-2.266874e-07
-4.822488e-07
-5.050614e-07
-4.822488e-07
-5.050614e-07
-2.829830e-07
-2.829830e-07
-4.153987e-07
-4.153987e-07
-2.754374e-07
-2.472778e-07
-2.754374e-07
-2.472778e-07
3.898231e-07
3.898231e-07
-7.876196e-08
-7.876196e-08
1.785927e-07
2.526024e-07
1.785927e-07
2.526024e-07
-1.751292e-07
-1.751292e-07
5.858901e-07
5.858901e-07
-1.497175e-07
-1.009819e-07
-1.497175e-07
-1.009819e-07
4.937224e-07
4.937224e-07
-8.842858e-09
-8.842858e-09
1.019765e-07
-1.208202e-07
1.019765e-07
-1.208202e-07
3.835880e-07
3.835880e-07
5.347930e-07
5.347930e-07
3.469250e-07
4.004134e-07
3.469250e-07
4.004134e-07
-5.202768e-07
-5.202768e-07
-4.924852e-07
-4.924852e-07
-3.220172e-08
-1.134395e-07
-3.220172e-08
-1.134395e-07
-6.534971e-08
-6.534971e-08
-2.243697e-07
-2.243697e-07
-2.788060e-07
9.465250e-08
-2.788060e-07
9.465250e-08
-2.862625e-07
-2.862625e-07
-1.663311e-07
-1.663311e-07
5.337422e-08
-2.590070e-07
5.337422e-08
-2.590070e-07
-3.856312e-08
-3.856312e-08
-1.554688e-09
-1.554688e-09
-5.284002e-08
1.847916e-08
-5.284002e-08
1.847916e-08
2.039670e-08
2.039670e-08
-3.542685e-08
-3.542685e-08
1.883157e-08
1.139684e-08
1.883157e-08
1.139684e-08
-4.199288e-07
-4.199288e-07
-2.829640e-07
-2.829640e-07
-1.257535e-07
-2.314881e-07
-1.257535e-07
-2.314881e-07
3.332386e-08
3.332386e-08
-2.179777e-07
-2.179777e-07
-1.596399e-07
-1.017882e-08
-1.596399e-07
-1.017882e-08
-2.627466e-07
-2.627466e-07
-3.924917e-08
-3.924917e-08
-9.925958e-08
-2.221585e-07
-9.925958e-08
-2.221585e-07
-1.817113e-07
-1.817113e-07
-1.828147e-07
-1.828147e-07
-1.385766e-07
-1.199228e-07
-1.385766e-07
-1.199228e-07
2.902724e-08
2.902724e-08
-2.870477e-08
-2.870477e-08
-4.577629e-08
-1.399616e-08
-4.577629e-08
-1.399616e-08
4.775340e-08
4.775340e-08
2.495011e-07
2.495011e-07
1.571411e-07
-2.699545e-08
1.571411e-07
-2.699545e-08
1.140289e-07
1.140289e-07
-1.100802e-07
-1.100802e-07
-7.524077e-08
9.196868e-08
-7.524077e-08
9.196868e-08
-1.192922e-07
-1.192922e-07
1.336635e-08
1.336635e-08
6.542974e-08
-3.103545e-08
6.542974e-08
-3.103545e-08
6.186720e-08
6.186720e-08
7.874074e-08
7.874074e-08
-1.177635e-09
1.315627e-08
-1.177635e-09
1.315627e-08
8.984154e-08
8.984154e-08
-3.685136e-08
-3.685136e-08
-6.343104e-08
5.192357e-08
-6.343104e-08
5.192357e-08
-2.150992e-08
-2.150992e-08
1.175610e-08
1.175610e-08
7.422274e-08
-5.138202e-08
7.422274e-08
-5.138202e-08
-2.143299e-08
-2.143299e-08
1.618581e-08
1.618581e-08
-3.142446e-08
2.825188e-08
-3.142446e-08
2.825188e-08
8.941964e-10
8.941964e-10
-1.758657e-08
-1.758657e-08
7.316496e-09
-1.348826e-08
7.316496e-09
-1.348826e-08
-1.888131e-08
-1.888131e-08
-2.129899e-08
-2.129899e-08
-2.623551e-08
-1.123332e-08
-2.623551e-08
-1.123332e-08
-4.697852e-08
-4.697852e-08
-4.685762e-08
-4.685762e-08
-7.983365e-09
3.272857e-08
-7.983365e-09
3.272857e-08
-3.863048e-08
-3.863048e-08
-5.167295e-08
-5.167295e-08
-3.647696e-08
-2.918757e-08
-3.647696e-08
-2.918757e-08
-7.213802e-08
-7.213802e-08
-5.146211e-08
-5.146211e-08
-2.883713e-08
-6.326530e-08
-2.883713e-08
-6.326530e-08
-3.921530e-08
-3.921530e-08
-8.839385e-08
-8.839385e-08
-7.088192e-08
-3.248180e-08
-7.088192e-08
-3.248180e-08
-9.663972e-08
-9.663972e-08
-8.507998e-08
-8.507998e-08
-1.391948e-07
-8.890987e-08
-1.391948e-07
-8.890987e-08
-1.155102e-07
-1.155102e-07
-8.989444e-08
-8.989444e-08
-1.027626e-07
-1.594890e-07
-1.027626e-07
-1.594890e-07
-2.531820e-08
-2.531820e-08
3.595396e-08
3.595396e-08
1.615835e-07
3.467947e-08
1.615835e-07
3.467947e-08
1.185562e-07
1.185562e-07
1.388377e-07
1.388377e-07
1.112737e-07
1.774895e-07
1.112737e-07
1.774895e-07
7.630683e-08
7.630683e-08
-2.075682e-09
-2.075682e-09
-5.905446e-08
2.903029e-08
-5.905446e-08
2.903029e-08
-5.234926e-08
-5.234926e-08
-3.405418e-08
-3.405418e-08
-9.975463e-09
-9.942777e-08
-9.975463e-09
-9.942777e-08
1.456734e-08
1.456734e-08
1.555129e-08
1.555129e-08
3.417608e-09
5.223926e-08
3.417608e-09
5.223926e-08
-2.595745e-08
-2.595745e-08
-3.169691e-08
-3.169691e-08
-6.593914e-09
-3.854783e-08
-6.593914e-09
-3.854783e-08
-7.135878e-09
-7.135878e-09
-7.485573e-09
-7.485573e-09
-2.948047e-08
-1.113234e-10
-2.948047e-08
-1.113234e-10
-1.910846e-09
-1.910846e-09
1.041159e-08
1.041159e-08
6.440446e-09
-1.168368e-08
6.440446e-09
-1.168368e-08
3.425594e-06
1.408181e-06
3.425594e-06
1.408181e-06
-6.900552e-08
-6.900552e-08
-1.591802e-06
9.895407e-07
-1.591802e-06
9.895407e-07
-1.097048e-06
-1.097048e-06
-1.285539e-06
-1.285539e-06
1.104941e-06
1.104941e-06
-1.155429e-06
-4.033560e-06
-1.155429e-06
-4.033560e-06
1.362940e-06
1.362940e-06
1.288815e-06
1.288815e-06
-1.835393e-06
-2.079484e-06
-1.835393e-06
-2.079484e-06
-3.038562e-06
-3.038562e-06
-3.863930e-06
-3.863930e-06
-5.857675e-07
-1.920761e-07
-5.857675e-07
-1.920761e-07
2.316139e-06
2.316139e-06
3.979267e-06
3.979267e-06
1.890134e-06
2.882881e-06
1.890134e-06
2.882881e-06
3.076092e-06
3.076092e-06
2.738688e-07
2.738688e-07
1.548173e-06
-5.194705e-07
1.548173e-06
-5.194705e-07
-2.762252e-06
-2.762252e-06
-4.994073e-06
-4.994073e-06
-8.406445e-06
-2.191622e-06
-8.406445e-06
-2.191622e-06
-5.454324e-06
-5.454324e-06
-3.987299e-06
-3.987299e-06
-1.609175e-06
-5.886340e-06
-1.609175e-06
-5.886340e-06
6.138647e-07
-1.900671e-06
6.138647e-07
-1.900671e-06
-8.087218e-07
-8.087218e-07
2.986059e-06
4.175435e-07
2.986059e-06
4.175435e-07
-1.716511e-06
-1.716511e-06
-3.420263e-06
-3.420263e-06
-9.916828e-07
-9.916828e-07
5.519413e-07
3.115073e-06
5.519413e-07
3.115073e-06
-1.870444e-06
-1.870444e-06
-8.345343e-07
-8.345343e-07
8.984079e-07
-2.322528e-06
8.984079e-07
-2.322528e-06
3.067915e-06
3.067915e-06
-6.418610e-08
-6.418610e-08
-1.615025e-06
3.035623e-06
-1.615025e-06
3.035623e-06
-1.814005e-07
-1.814005e-07
-1.339966e-07
-1.339966e-07
-7.816752e-08
-1.919088e-06
-7.816752e-08
-1.919088e-06
-1.424854e-06
-1.424854e-06
1.490246e-06
1.490246e-06
1.462665e-06
6.970857e-07
1.462665e-06
6.970857e-07
-4.839292e-07
-4.839292e-07
-5.466758e-06
-5.466758e-06
-3.576629e-07
5.955019e-07
-3.576629e-07
5.955019e-07
-5.119820e-06
-5.119820e-06
-3.181459e-06
-3.181459e-06
-1.712649e-06
-1.125616e-06
-1.712649e-06
-1.125616e-06
6.453749e-07
-2.735540e-06
6.453749e-07
-2.735540e-06
4.783263e-06
4.783263e-06
2.061932e-06
2.139591e-06
2.061932e-06
2.139591e-06
-6.164044e-07
-6.164044e-07
5.902120e-06
5.902120e-06
1.420676e-06
1.420676e-06
9.250425e-07
1.950108e-06
9.250425e-07
1.950108e-06
-1.914596e-06
-1.914596e-06
2.877336e-06
2.877336e-06
3.193931e-06
5.925464e-07
3.193931e-06
5.925464e-07
4.540098e-06
4.540098e-06
5.404643e-07
5.404643e-07
1.279722e-06
3.691344e-06
1.279722e-06
3.691344e-06
-7.563818e-07
-7.563818e-07
-1.245360e-08
-1.245360e-08
3.856035e-08
-1.244893e-06
3.856035e-08
-1.244893e-06
-7.312129e-08
-7.312129e-08
-8.592753e-07
-8.592753e-07
-5.283919e-06
-8.830475e-07
-5.283919e-06
-8.830475e-07
5.439931e-07
5.439931e-07
2.774749e-06
2.774749e-06
6.801693e-06
-1.702553e-06
6.801693e-06
-1.702553e-06
2.096945e-06
2.096945e-06
7.917416e-07
7.917416e-07
4.591275e-06
7.396295e-06
4.591275e-06
7.396295e-06
1.627886e-06
1.114414e-06
1.627886e-06
1.114414e-06
4.588593e-08
4.588593e-08
-1.961805e-06
-8.191635e-07
-1.961805e-06
-8.191635e-07
-3.898583e-07
-3.898583e-07
-1.379375e-06
-1.379375e-06
-2.465078e-06
-2.465078e-06
-3.820630e-06
-3.204438e-06
-3.820630e-06
-3.204438e-06
-1.534391e-06
-1.534391e-06
-4.770672e-07
-4.770672e-07
-1.741211e-06
-1.956894e-06
-1.741211e-06
-1.956894e-06
2.532434e-06
2.532434e-06
3.045709e-06
3.045709e-06
5.512752e-06
2.592400e-06
5.512752e-06
2.592400e-06
-2.587928e-06
-2.587928e-06
-1.084487e-06
-1.084487e-06
-5.663817e-06
-3.029913e-06
-5.663817e-06
-3.029913e-06
3.789555e-06
3.789555e-06
-9.393549e-07
-9.393549e-07
4.344300e-06
3.127970e-06
4.344300e-06
3.127970e-06
-2.635023e-06
-2.635023e-06
6.080401e-06
6.080401e-06
1.374192e-06
-7.783365e-07
1.374192e-06
-7.783365e-07
8.054654e-06
8.054654e-06
4.658783e-06
4.658783e-06
-1.096851e-06
1.838035e-06
-1.096851e-06
1.838035e-06
-6.807997e-07
-1.901362e-06
-6.807997e-07
-1.901362e-06
-3.016397e-06
-3.016397e-06
2.894163e-08
3.111816e-06
2.894163e-08
3.111816e-06
-4.157097e-07
-4.157097e-07
-4.006907e-06
-4.006907e-06
3.549938e-08
3.549938e-08
4.231684e-06
-4.101971e-07
4.231684e-06
-4.101971e-07
2.551212e-06
2.551212e-06
-5.892526e-07
-5.892526e-07
-1.283806e-06
1.412364e-06
-1.283806e-06
1.412364e-06
5.287443e-07
5.287443e-07
3.442071e-06
3.442071e-06
-9.426006e-07
2.801738e-07
-9.426006e-07
2.801738e-07
-2.012916e-06
-2.012916e-06
-4.754130e-06
-4.754130e-06
-4.008388e-07
-1.082473e-06
-4.008388e-07
-1.082473e-06
7.649462e-07
7.649462e-07
3.191274e-06
3.191274e-06
2.155714e-06
1.521442e-06
2.155714e-06
1.521442e-06
2.758856e-07
2.758856e-07
7.838603e-07
7.838603e-07
3.554881e-06
1.406342e-06
3.554881e-06
1.406342e-06
4.045117e-07
4.045117e-07
-2.294177e-06
-2.294177e-06
-1.072015e-06
2.057914e-06
-1.072015e-06
2.057914e-06
4.204122e-06
1.621166e-06
4.204122e-06
1.621166e-06
9.668426e-07
9.668426e-07
-8.487029e-07
-8.717958e-07
-8.487029e-07
-8.717958e-07
-7.490279e-07
-7.490279e-07
5.029925e-07
5.029925e-07
1.980234e-06
1.980234e-06
-1.091208e-06
-2.535360e-06
-1.091208e-06
-2.535360e-06
-1.044806e-06
-1.044806e-06
1.019176e-06
1.019176e-06
4.258817e-06
3.592265e-06
4.258817e-06
3.592265e-06
1.147937e-06
1.147937e-06
-2.680077e-06
-2.680077e-06
-5.238030e-07
-2.775184e-07
-5.238030e-07
-2.775184e-07
-1.467583e-07
-1.467583e-07
-2.837085e-07
-2.837085e-07
1.099506e-06
1.951048e-06
1.099506e-06
1.951048e-06
-6.944007e-07
-6.944007e-07
-5.061903e-07
-5.061903e-07
-4.170483e-06
-1.955073e-06
-4.170483e-06
-1.955073e-06
-2.770652e-07
-2.770652e-07
2.813070e-06
2.813070e-06
-2.818570e-07
-1.948256e-06
-2.818570e-07
-1.948256e-06
2.290208e-06
2.290208e-06
5.590920e-07
5.590920e-07
1.498868e-06
2.495290e-07
1.498868e-06
2.495290e-07
7.899040e-07
5.782859e-07
2.498256e-07
2.246313e-07
7.899040e-07
5.782859e-07
2.498256e-07
2.246313e-07
2.844147e-07
4.392182e-08
2.844147e-07
4.392182e-08
-3.862201e-07
-3.053481e-07
-3.862201e-07
-3.053481e-07
-8.043196e-07
-8.043196e-07
-5.068167e-07
-5.065755e-07
-5.068167e-07
-5.065755e-07
-3.214103e-07
-3.214103e-07
-2.878251e-07
-6.054261e-07
-2.878251e-07
-6.054261e-07
-7.604357e-07
-7.604357e-07
1.083089e-06
1.377559e-08
1.083089e-06
1.377559e-08
2.766355e-07
2.766355e-07
7.371999e-07
1.665006e-06
7.371999e-07
1.665006e-06
1.293117e-06
1.293117e-06
-1.170565e-06
5.522807e-08
-1.170565e-06
5.522807e-08
-3.539025e-07
-3.539025e-07
2.203206e-07
-4.368181e-08
2.203206e-07
-4.368181e-08
-9.993767e-07
-9.993767e-07
3.692631e-06
-2.854800e-07
3.692631e-06
-2.854800e-07
1.879426e-06
1.879426e-06
1.336716e-06
3.035156e-06
1.336716e-06
3.035156e-06
8.295824e-07
8.295824e-07
-3.543192e-07
5.890409e-07
-3.543192e-07
5.890409e-07
-7.809184e-07
-7.809184e-07
-1.545832e-06
-1.955214e-06
-1.545832e-06
-1.955214e-06
-4.111593e-07
-4.111593e-07
-8.518597e-07
9.987948e-07
-8.518597e-07
9.987948e-07
-2.131426e-07
-2.131426e-07
-1.166654e-06
-9.699487e-07
-1.166654e-06
-9.699487e-07
2.236068e-06
2.236068e-06
7.977535e-08
1.383825e-07
7.977535e-08
1.383825e-07
-3.330719e-07
-3.509444e-08
-3.330719e-07
-3.509444e-08
4.339462e-07
-3.623337e-08
4.339462e-07
-3.623337e-08
-3.934276e-07
2.782961e-07
-3.934276e-07
2.782961e-07
5.483711e-07
5.483711e-07
-1.856022e-07
-1.856022e-07
4.844677e-07
4.844677e-07
-6.537906e-08
-2.157607e-07
-6.537906e-08
-2.157607e-07
8.284650e-07
8.284650e-07
3.886229e-07
3.886229e-07
-2.129142e-07
-2.129142e-07
-4.782156e-07
-4.782156e-07
-4.237787e-07
-3.235170e-07
-4.237787e-07
-3.235170e-07
-6.240352e-07
-6.240352e-07
-3.173638e-07
-3.173638e-07
1.327503e-07
1.327503e-07
4.051037e-07
4.051037e-07
4.973549e-07
2.692953e-07
4.973549e-07
2.692953e-07
7.797351e-07
7.797351e-07
4.919531e-07
4.919531e-07
-5.094299e-07
-5.094299e-07
-1.519238e-07
-1.519238e-07
1.081422e-06
8.356443e-08
1.081422e-06
8.356443e-08
-5.389744e-07
-5.389744e-07
-5.913866e-09
-5.913866e-09
1.682606e-07
1.682606e-07
1.070408e-06
1.070408e-06
-6.051220e-07
-6.420052e-07
-6.051220e-07
-6.420052e-07
-2.727696e-07
-2.727696e-07
-6.046275e-07
-6.046275e-07
8.347474e-07
8.347474e-07
-8.672790e-07
-8.672790e-07
-5.929656e-07
9.944749e-08
-5.929656e-07
9.944749e-08
-6.331163e-08
-6.331163e-08
-9.179476e-07
-9.179476e-07
-1.867496e-06
-1.867496e-06
-6.801131e-07
-6.801131e-07
-1.377495e-06
-1.551263e-06
-1.377495e-06
-1.551263e-06
-1.605045e-06
-1.605045e-06
9.830898e-09
9.830898e-09
-1.107424e-07
-1.107424e-07
-1.190739e-07
-1.190739e-07
-9.159976e-09
1.278669e-07
-9.159976e-09
1.278669e-07
-1.352091e-07
-1.352091e-07
3.125934e-07
3.125934e-07
7.530102e-07
-8.822133e-08
7.530102e-07
-8.822133e-08
7.701011e-07
7.701011e-07
-7.686172e-07
-7.686172e-07
-2.172499e-06
8.949938e-07
-2.172499e-06
8.949938e-07
-5.936144e-07
-5.936144e-07
-2.640027e-07
-2.640027e-07
-2.887834e-07
-6.471472e-07
-2.887834e-07
-6.471472e-07
-6.593980e-08
-6.593980e-08
6.557228e-08
6.557228e-08
-8.183476e-07
-1.125171e-07
-8.183476e-07
-1.125171e-07
-2.611607e-07
-2.611607e-07
-1.430629e-06
-1.430629e-06
6.512529e-07
-1.111971e-06
6.512529e-07
-1.111971e-06
1.440460e-09
1.440460e-09
2.199268e-08
2.199268e-08
3.795413e-07
5.851122e-07
3.795413e-07
5.851122e-07
1.142526e-07
1.142526e-07
-2.756484e-07
-2.756484e-07
2.571226e-07
1.943297e-07
2.571226e-07
1.943297e-07
-1.130334e-06
-1.130334e-06
-3.197735e-08
-3.197735e-08
-1.065071e-06
-3.041482e-07
-1.065071e-06
-3.041482e-07
5.255837e-07
5.255837e-07
2.673198e-07
2.673198e-07
-2.116846e-07
-1.402989e-07
-2.116846e-07
-1.402989e-07
-1.541323e-07
-1.541323e-07
8.813061e-07
8.813061e-07
8.698837e-07
-2.641812e-07
8.698837e-07
-2.641812e-07
1.508814e-06
1.508814e-06
6.037938e-07
6.037938e-07
7.449294e-07
1.502676e-06
7.449294e-07
1.502676e-06
-4.689911e-07
-4.689911e-07
-3.798865e-07
-3.798865e-07
4.980556e-08
-1.726727e-07
4.980556e-08
-1.726727e-07
-2.469758e-08
-2.469758e-08
3.557899e-07
3.557899e-07
-1.901354e-07
3.304036e-07
-1.901354e-07
3.304036e-07
4.229134e-07
4.229134e-07
-1.924257e-06
-1.924257e-06
-2.664438e-06
-6.376405e-07
-2.664438e-06
-6.376405e-07
2.833031e-08
2.833031e-08
-1.972877e-07
-1.972877e-07
-7.741595e-07
2.761033e-08
-7.741595e-07
2.761033e-08
3.964565e-07
3.964565e-07
-6.752650e-07
-6.752650e-07
-6.089269e-07
2.368447e-07
-6.089269e-07
2.368447e-07
-1.627037e-06
-1.627037e-06
-9.244766e-07
-9.244766e-07
-1.434666e-07
-1.787968e-06
-1.434666e-07
-1.787968e-06
2.204038e-06
1.879519e-06
2.204038e-06
1.879519e-06
3.422525e-06
1.812210e-06
3.422525e-06
1.812210e-06
-1.627760e-06
-1.825594e-06
-1.627760e-06
-1.825594e-06
-1.621184e-06
-1.985030e-06
-1.621184e-06
-1.985030e-06
-3.423373e-06
-3.096558e-06
-3.423373e-06
-3.096558e-06
-1.906159e-07
-6.734690e-07
-1.906159e-07
-6.734690e-07
5.154357e-07
-1.703852e-06
5.154357e-07
-1.703852e-06
1.661654e-07
-4.914097e-07
1.661654e-07
-4.914097e-07
-1.346448e-06
-1.045095e-06
-1.346448e-06
-1.045095e-06
-1.938906e-06
-6.892137e-08
-1.938906e-06
-6.892137e-08
-7.299850e-08
1.302323e-07
-7.299850e-08
1.302323e-07
-2.123854e-06
-1.329914e-06
-2.123854e-06
-1.329914e-06
6.752062e-07
8.215202e-07
6.752062e-07
8.215202e-07
7.441476e-07
9.324768e-07
7.441476e-07
9.324768e-07
1.066905e-06
-1.686128e-06
1.066905e-06
-1.686128e-06
-9.341243e-07
-2.034676e-06
-9.341243e-07
-2.034676e-06
8.783607e-07
8.783607e-07
8.722837e-07
8.722837e-07
3.462911e-06
3.462911e-06
4.238787e-06
2.971176e-06
4.238787e-06
2.971176e-06
2.424385e-06
2.424385e-06
1.377876e-06
1.377876e-06
-1.236154e-07
9.647426e-07
-1.236154e-07
9.647426e-07
2.869492e-06
2.869492e-06
1.147708e-06
1.147708e-06
1.259651e-06
1.402483e-06
1.259651e-06
1.402483e-06
3.336293e-07
3.336293e-07
-3.858359e-07
-3.858359e-07
6.803850e-07
1.071212e-06
6.803850e-07
1.071212e-06
-2.445925e-06
-2.445925e-06
-1.259776e-06
-1.259776e-06
-8.256410e-07
-1.310576e-08
-8.256410e-07
-1.310576e-08
-1.548651e-06
-1.548651e-06
-1.164131e-06
-1.164131e-06
-1.562756e-06
-1.562756e-06
-1.040001e-06
-1.040001e-06
-2.028653e-06
-4.415185e-06
-2.028653e-06
-4.415185e-06
1.506472e-07
1.506472e-07
6.202682e-07
6.202682e-07
5.250827e-06
3.476245e-06
5.250827e-06
3.476245e-06
-1.271859e-06
-1.271859e-06
-1.847703e-06
-1.847703e-06
-1.055453e-06
2.716009e-06
-1.055453e-06
2.716009e-06
-1.428167e-06
-1.428167e-06
6.258461e-07
6.258461e-07
3.132011e-06
-1.443067e-06
3.132011e-06
-1.443067e-06
1.934672e-06
1.934672e-06
2.102389e-06
2.102389e-06
-1.578284e-06
8.007692e-07
-1.578284e-06
8.007692e-07
5.236176e-06
5.236176e-06
2.630932e-06
2.630932e-06
-1.471405e-06
-1.471405e-06
4.702149e-07
4.702149e-07
9.179459e-07
1.878370e-06
9.179459e-07
1.878370e-06
2.738534e-06
2.738534e-06
4.238728e-06
4.238728e-06
-2.419185e-06
-9.261069e-07
-2.419185e-06
-9.261069e-07
5.882321e-06
5.882321e-06
3.047663e-06
3.047663e-06
1.871959e-06
-9.243506e-07
1.871959e-06
-9.243506e-07
9.243596e-08
9.243596e-08
1.409341e-06
1.409341e-06
-1.560282e-06
1.360037e-06
-1.560282e-06
1.360037e-06
-1.992240e-06
-1.992240e-06
-3.024926e-06
-3.024926e-06
-7.434026e-08
-2.703022e-06
-7.434026e-08
-2.703022e-06
-7.870674e-07
-7.870674e-07
1.808023e-06
1.808023e-06
1.497565e-06
1.497565e-06
7.733076e-07
7.733076e-07
9.518027e-07
-8.389879e-07
9.518027e-07
-8.389879e-07
-6.779877e-07
-6.779877e-07
-3.409964e-06
-3.409964e-06
-1.069550e-07
1.388910e-06
-1.069550e-07
1.388910e-06
-4.462573e-06
-4.462573e-06
-1.961113e-06
-1.961113e-06
-1.434515e-06
3.317103e-07
-1.434515e-06
3.317103e-07
-5.633895e-07
-5.633895e-07
1.756164e-07
1.756164e-07
2.488513e-06
-2.823214e-06
2.488513e-06
-2.823214e-06
9.425486e-07
9.425486e-07
-1.614827e-07
-1.614827e-07
-4.279894e-07
4.499215e-06
-4.279894e-07
4.499215e-06
9.446444e-07
9.446444e-07
-3.116585e-07
-3.116585e-07
6.177013e-07
6.177013e-07
4.134826e-07
4.134826e-07
6.580397e-07
2.080703e-06
6.580397e-07
2.080703e-06
-1.554113e-06
-1.554113e-06
-3.756665e-07
-3.756665e-07
-1.440771e-06
-3.735403e-06
-1.440771e-06
-3.735403e-06
2.406924e-06
2.406924e-06
6.305151e-07
6.305151e-07
3.479074e-07
1.431617e-06
3.479074e-07
1.431617e-06
-1.930787e-08
-1.930787e-08
2.905594e-06
2.905594e-06
2.018479e-06
1.600634e-06
2.018479e-06
1.600634e-06
2.999869e-06
2.999869e-06
-8.488945e-07
-8.488945e-07
-4.935639e-08
4.479682e-07
-4.935639e-08
4.479682e-07
-2.447774e-06
-2.447774e-06
-2.553304e-06
-2.553304e-06
-1.393667e-06
-1.393667e-06
1.152904e-06
1.152904e-06
2.733690e-06
-1.872666e-06
2.733690e-06
-1.872666e-06
9.509396e-07
9.509396e-07
6.663545e-07
6.663545e-07
2.765435e-06
4.616197e-06
2.765435e-06
4.616197e-06
-1.562488e-06
-1.562488e-06
-1.869283e-06
-1.869283e-06
-7.577854e-07
-1.417358e-06
-7.577854e-07
-1.417358e-06
-3.483871e-07
-3.483871e-07
-1.040570e-06
-1.040570e-06
-1.076211e-06
5.134393e-07
-1.076211e-06
5.134393e-07
5.692632e-07
5.692632e-07
3.718596e-06
3.718596e-06
2.154378e-06
1.422251e-06
2.154378e-06
1.422251e-06
2.047763e-06
2.047763e-06
-4.565484e-07
-4.565484e-07
1.850254e-06
1.850254e-06
5.536330e-06
5.536330e-06
6.924564e-06
3.529241e-06
6.924564e-06
3.529241e-06
2.383781e-06
2.383781e-06
-1.437960e-06
-1.437960e-06
-5.870982e-06
7.196107e-08
-5.870982e-06
7.196107e-08
6.562693e-07
6.562693e-07
1.051889e-06
1.051889e-06
5.325450e-07
4.394330e-07
5.325450e-07
4.394330e-07
-2.416149e-07
-2.416149e-07
9.385267e-07
9.385267e-07
8.417632e-07
-2.908143e-06
8.417632e-07
-2.908143e-06
1.213537e-06
1.213537e-06
-1.304692e-06
-1.304692e-06
-1.193255e-06
8.082968e-07
-1.193255e-06
8.082968e-07
-2.540247e-06
-2.540247e-06
-1.136491e-07
-1.136491e-07
-2.403454e-07
-2.403454e-07
-2.056621e-06
-2.056621e-06
-1.126928e-06
1.096207e-06
-1.126928e-06
1.096207e-06
-3.350628e-06
-3.350628e-06
-4.017282e-06
-4.017282e-06
-3.684760e-06
-3.213475e-06
-3.684760e-06
-3.213475e-06
-3.549186e-06
-3.549186e-06
-1.826736e-06
-1.826736e-06
-1.976694e-06
-2.268937e-06
-1.976694e-06
-2.268937e-06
-1.159811e-06
-1.159811e-06
-9.166042e-07
-9.166042e-07
4.807760e-08
-1.850541e-06
4.807760e-08
-1.850541e-06
-2.098768e-06
-2.098768e-06
-3.366036e-06
-3.366036e-06
-2.198132e-06
-9.314044e-07
-2.198132e-06
-9.314044e-07
-1.629664e-06
-1.629664e-06
6.748430e-07
6.748430e-07
-1.869718e-07
-3.931420e-07
-1.869718e-07
-3.931420e-07
-5.757956e-07
-5.757956e-07
-1.250435e-06
-1.250435e-06
-5.125248e-06
-4.634842e-06
-5.125248e-06
-4.634842e-06
-3.652085e-06
-3.652085e-06
-3.243581e-06
-3.243581e-06
-4.319321e-06
-5.249617e-06
-4.319321e-06
-5.249617e-06
-1.537502e-06
-1.537502e-06
-2.060071e-06
-2.060071e-06
-1.935482e-06
-2.331227e-06
-1.935482e-06
-2.331227e-06
-1.921353e-06
-1.921353e-06
-4.908403e-08
-4.908403e-08
-1.170047e-06
-2.851896e-06
-1.170047e-06
-2.851896e-06
-4.423095e-07
-4.423095e-07
-5.680660e-07
-5.680660e-07
7.011066e-07
8.436344e-07
7.011066e-07
8.436344e-07
1.329260e-06
1.329260e-06
3.038892e-07
3.038892e-07
2.089492e-06
1.134319e-06
2.089492e-06
1.134319e-06
-5.598266e-06
-5.598266e-06
-6.619876e-06
-6.619876e-06
-4.986850e-06
-6.320277e-06
-4.986850e-06
-6.320277e-06
-5.760317e-06
-5.760317e-06
-3.723281e-06
-3.723281e-06
-5.856864e-06
-6.558081e-06
-5.856864e-06
-6.558081e-06
-3.021264e-06
-3.021264e-06
-3.633774e-06
-3.633774e-06
-6.030242e-06
-5.066904e-06
-6.030242e-06
-5.066904e-06
-4.250961e-06
-4.250961e-06
-3.001508e-06
-3.001508e-06
-5.657941e-06
-6.296342e-06
-5.657941e-06
-6.296342e-06
-9.356297e-07
-9.356297e-07
-6.904384e-07
-6.904384e-07
-1.478200e-06
-3.607806e-06
-1.478200e-06
-3.607806e-06
6.467982e-07
6.467982e-07
2.476663e-06
2.476663e-06
1.438885e-06
1.036021e-06
1.438885e-06
1.036021e-06
-7.029057e-06
-7.029057e-06
-5.166025e-06
-5.166025e-06
-3.994173e-06
-3.859942e-06
-3.994173e-06
-3.859942e-06
-6.417827e-06
-6.417827e-06
-6.614305e-06
-6.614305e-06
-4.968697e-06
-4.377467e-06
-4.968697e-06
-4.377467e-06
-4.434916e-06
-4.434916e-06
-3.735969e-06
-3.735969e-06
6.744875e-07
-2.278080e-06
6.744875e-07
-2.278080e-06
-4.825532e-06
-4.825532e-06
-5.494136e-06
-5.494136e-06
-2.706129e-06
-3.727185e-07
-2.706129e-06
-3.727185e-07
-3.721599e-06
-3.721599e-06
-9.522769e-07
-9.522769e-07
1.206642e-07
-1.244364e-06
1.206642e-07
-1.244364e-06
-7.575701e-07
-7.575701e-07
-6.834431e-07
-6.834431e-07
-2.310519e-06
-2.879196e-06
-2.310519e-06
-2.879196e-06
-1.067354e-06
-1.067354e-06
-1.425852e-06
-1.425852e-06
-2.485663e-06
-8.275473e-07
-2.485663e-06
-8.275473e-07
-3.624704e-06
-3.624704e-06
-4.055203e-06
-4.055203e-06
-1.880368e-06
-3.833248e-06
-1.880368e-06
-3.833248e-06
-2.050045e-06
-2.050045e-06
-6.219686e-07
-6.219686e-07
-2.427405e-06
-1.274691e-06
-2.427405e-06
-1.274691e-06
4.232763e-07
4.232763e-07
9.573402e-08
9.573402e-08
3.404064e-07
-1.455341e-06
3.404064e-07
-1.455341e-06
6.449215e-07
6.449215e-07
1.727419e-06
1.727419e-06
-1.140951e-06
-1.069392e-06
-1.140951e-06
-1.069392e-06
-1.788532e-07
-1.788532e-07
-1.116888e-07
-1.116888e-07
1.360387e-06
1.001478e-06
1.360387e-06
1.001478e-06
-2.241919e-06
-2.241919e-06
-3.367591e-06
-3.367591e-06
8.331967e-07
-7.762881e-07
8.331967e-07
-7.762881e-07
-3.644945e-06
-3.644945e-06
-1.902724e-06
-1.902724e-06
-1.862187e-06
-2.844087e-06
-1.862187e-06
-2.844087e-06
-1.646278e-06
-1.646278e-06
-3.373618e-06
-3.373618e-06
-1.164898e-06
-3.169210e-07
-1.164898e-06
-3.169210e-07
-2.990533e-06
-2.990533e-06
-7.921335e-07
-7.921335e-07
2.003454e-06
1.551869e-07
2.003454e-06
1.551869e-07
-7.817597e-07
-7.817597e-07
-2.166512e-06
-2.166512e-06
-1.045857e-06
2.534500e-06
-1.045857e-06
2.534500e-06
-1.208140e-06
-1.208140e-06
6.243034e-07
6.243034e-07
-8.421343e-07
-3.481177e-06
-8.421343e-07
-3.481177e-06
1.172632e-06
1.172632e-06
1.805709e-06
1.805709e-06
-1.929270e-06
-8.027227e-07
-1.929270e-06
-8.027227e-07
-3.919808e-09
-3.919808e-09
1.866190e-06
1.866190e-06
6.362852e-06
2.035943e-06
6.362852e-06
2.035943e-06
2.454858e-06
2.454858e-06
2.973406e-06
2.973406e-06
3.928317e-06
5.997696e-06
3.928317e-06
5.997696e-06
3.887566e-06
3.887566e-06
4.915181e-06
4.915181e-06
4.506675e-06
3.968099e-06
4.506675e-06
3.968099e-06
2.943700e-06
2.943700e-06
-2.774873e-06
-2.774873e-06
-2.189548e-06
2.445482e-06
-2.189548e-06
2.445482e-06
-4.678921e-06
-4.678921e-06
-2.832034e-06
-2.832034e-06
-2.691979e-06
-4.348050e-06
-2.691979e-06
-4.348050e-06
8.866603e-07
8.866603e-07
-3.001037e-06
-3.001037e-06
-2.401722e-06
3.161945e-06
-2.401722e-06
3.161945e-06
-1.662313e-06
-1.662313e-06
-3.373281e-07
-3.373281e-07
-1.060399e-05
-5.597466e-06
-1.060399e-05
-5.597466e-06
8.330934e-07
8.330934e-07
1.843309e-06
1.843309e-06
-5.150729e-06
-1.137715e-05
-5.150729e-06
-1.137715e-05
2.599740e-06
2.599740e-06
3.524314e-06
3.524314e-06
6.466968e-06
1.703664e-06
6.466968e-06
1.703664e-06
3.490145e-06
3.490145e-06
-5.254053e-07
-5.254053e-07
1.145379e-06
6.508971e-06
1.145379e-06
6.508971e-06
-3.214773e-06
-3.214773e-06
-5.093891e-08
-5.093891e-08
2.784771e-07
-9.395517e-07
2.784771e-07
-9.395517e-07
-1.604756e-06
-1.604756e-06
-4.898075e-06
-4.898075e-06
-7.711620e-06
-3.570690e-06
-7.711620e-06
-3.570690e-06
-4.257205e-06
-4.257205e-06
-6.723425e-06
-6.723425e-06
-2.053600e-06
-2.614932e-06
-2.053600e-06
-2.614932e-06
-1.113888e-05
-1.113888e-05
-7.078230e-06
-7.078230e-06
-5.529277e-06
-5.933820e-06
-5.529277e-06
-5.933820e-06
2.781570e-06
2.781570e-06
8.118290e-06
8.118290e-06
3.613395e-06
-1.653222e-06
3.613395e-06
-1.653222e-06
6.796132e-06
6.796132e-06
2.355511e-06
2.355511e-06
3.616254e-06
2.778970e-06
3.616254e-06
2.778970e-06
7.620513e-07
7.620513e-07
7.153331e-07
7.153331e-07
2.466948e-06
6.830335e-06
2.466948e-06
6.830335e-06
6.511080e-07
6.511080e-07
-5.781652e-06
-5.781652e-06
-2.330990e-06
1.244088e-06
-2.330990e-06
1.244088e-06
-3.180936e-06
-3.180936e-06
-2.880147e-06
-2.880147e-06
-4.796235e-06
-2.300970e-06
-4.796235e-06
-2.300970e-06
-7.985525e-06
-7.985525e-06
-1.293120e-05
-1.293120e-05
-1.337354e-05
-9.192551e-06
-1.337354e-05
-9.192551e-06
-1.191082e-05
-1.191082e-05
2.959241e-06
2.959241e-06
1.171636e-05
-9.069280e-06
1.171636e-05
-9.069280e-06
1.103049e-05
1.103049e-05
7.857734e-06
7.857734e-06
1.146540e-05
2.640270e-05
1.146540e-05
2.640270e-05
7.014487e-06
7.014487e-06
-9.245025e-07
-9.245025e-07
-2.017525e-05
-1.492017e-05
-2.017525e-05
-1.492017e-05
1.930412e-07
1.930412e-07
3.230815e-06
3.230815e-06
6.549286e-06
6.925853e-07
6.549286e-06
6.925853e-07
3.485245e-06
3.485245e-06
-4.285288e-06
-4.285288e-06
-3.974205e-06
4.134987e-06
-3.974205e-06
4.134987e-06
-6.938532e-06
-6.938532e-06
-3.882216e-06
-3.882216e-06
-3.694066e-06
-1.036974e-05
-3.694066e-06
-1.036974e-05
3.119765e-06
3.119765e-06
1.954896e-05
1.954896e-05
2.508879e-05
1.249734e-05
2.508879e-05
1.249734e-05
3.081128e-05
3.081128e-05
-1.488332e-06
-1.488332e-06
-2.935118e-05
2.038869e-05
-2.935118e-05
2.038869e-05
-6.294032e-05
-6.294032e-05
-8.453962e-05
-8.453962e-05
-1.334933e-04
-1.010292e-04
-1.334933e-04
-1.010292e-04
-3.694998e-06
-3.694998e-06
-1.137323e-06
-1.137323e-06
-1.920372e-05
-1.152800e-05
-1.920372e-05
-1.152800e-05
-7.348183e-06
-7.348183e-06
-1.368958e-05
-1.368958e-05
-2.332225e-05
-2.291030e-05
-2.332225e-05
-2.291030e-05
-1.074766e-05
-1.074766e-05
2.382748e-06
2.382748e-06
1.059624e-05
-1.028060e-05
1.059624e-05
-1.028060e-05
1.908345e-05
1.908345e-05
1.297897e-05
1.297897e-05
-1.510870e-05
6.339870e-06
-1.510870e-05
6.339870e-06
4.993413e-06
4.993413e-06
8.810207e-06
8.810207e-06
8.987365e-05
7.124410e-06
8.987365e-05
7.124410e-06
1.552606e-05
1.552606e-05
4.411566e-05
4.411566e-05
2.958873e-04
2.031289e-04
2.958873e-04
2.031289e-04
-1.600530e-05
-1.600530e-05
-2.854948e-05
-2.854948e-05
-2.835149e-05
-1.989422e-05
-2.835149e-05
-1.989422e-05
-2.681516e-05
-2.681516e-05
-1.371330e-05
-1.371330e-05
7.232138e-06
-1.415643e-05
7.232138e-06
-1.415643e-05
-2.304833e-06
-2.304833e-06
-1.089314e-05
-1.089314e-05
-5.647463e-05
-2.240603e-06
-5.647463e-05
-2.240603e-06
-2.206539e-05
-2.206539e-05
1.213802e-05
1.213802e-05
1.864193e-05
-7.085693e-05
1.864193e-05
-7.085693e-05
9.067302e-05
9.067302e-05
1.905543e-04
1.905543e-04
3.517666e-04
1.817652e-04
3.517666e-04
1.817652e-04
2.961216e-04
2.961216e-04
3.203417e-04
3.203417e-04
3.663614e-04
4.392115e-04
3.663614e-04
4.392115e-04
-2.517144e-05
-2.517144e-05
-2.606372e-05
-2.606372e-05
-1.145715e-05
-2.549455e-05
-1.145715e-05
-2.549455e-05
1.040912e-05
1.040912e-05
2.036952e-05
2.036952e-05
-8.737335e-07
2.624532e-05
-8.737335e-07
2.624532e-05
-6.252978e-05
-6.252978e-05
-1.633773e-04
-1.633773e-04
-2.955239e-04
-1.513183e-04
-2.955239e-04
-1.513183e-04
-1.546892e-04
-1.546892e-04
2.289907e-05
2.289907e-05
5.495797e-05
-2.576084e-04
5.495797e-05
-2.576084e-04
3.268639e-04
3.268639e-04
6.623232e-04
6.623232e-04
9.524075e-04
5.520853e-04
9.524075e-04
5.520853e-04
8.127585e-04
8.127585e-04
6.491542e-04
6.491542e-04
7.482023e-04
1.009034e-03
7.482023e-04
1.009034e-03
-2.842482e-05
-2.842482e-05
1.455193e-05
1.455193e-05
1.536702e-05
-4.151042e-05
1.536702e-05
-4.151042e-05
4.692104e-05
4.692104e-05
-3.486954e-05
-3.486954e-05
-6.037387e-05
5.082501e-05
-6.037387e-05
5.082501e-05
-2.471177e-04
-2.471177e-04
-4.022427e-04
-4.022427e-04
-4.410259e-04
-2.938139e-04
-4.410259e-04
-2.938139e-04
-2.828216e-04
-2.828216e-04
2.796023e-04
2.796023e-04
1.164011e-03
-2.748468e-04
1.164011e-03
-2.748468e-04
2.024924e-03
2.024924e-03
4.448365e-03
4.448365e-03
1.012353e-02
6.055934e-03
1.012353e-02
6.055934e-03
4.739152e-03
4.739152e-03
2.546823e-03
2.546823e-03
5.694545e-03
9.014758e-03
5.694545e-03
9.014758e-03
-7.389880e-05
-7.389880e-05
2.743536e-05
2.743536e-05
6.021308e-06
-1.062084e-04
6.021308e-06
-1.062084e-04
1.000776e-04
1.000776e-04
-1.199583e-04
-1.199583e-04
-1.810166e-04
1.902375e-04
-1.810166e-04
1.902375e-04
-5.015100e-04
-5.015100e-04
-6.790671e-04
-6.790671e-04
-1.252580e-03
-8.024066e-04
-1.252580e-03
-8.024066e-04
-3.069096e-04
-3.069096e-04
3.469197e-03
3.469197e-03
1.151957e-03
-1.320079e-03
1.151957e-03
-1.320079e-03
2.547098e-02
2.547098e-02
5.409410e-02
5.409410e-02
5.278532e-02
2.211229e-02
5.278532e-02
2.211229e-02
4.912211e-02
4.912211e-02
2.068076e-02
2.068076e-02
1.712833e-02
4.756624e-02
1.712833e-02
4.756624e-02
-1.586137e-04
-1.586137e-04
-5.464838e-05
-5.464838e-05
-1.168931e-04
-1.190574e-04
-1.168931e-04
-1.190574e-04
2.634054e-04
2.634054e-04
-1.208676e-04
-1.208676e-04
1.580693e-04
1.926763e-04
1.580693e-04
1.926763e-04
-7.713679e-04
-7.713679e-04
-1.253388e-03
-1.253388e-03
-3.092462e-04
-1.255136e-04
-3.092462e-04
-1.255136e-04
-1.530222e-03
-1.530222e-03
-2.359270e-03
-2.359270e-03
-1.906213e-03
-1.514679e-04
-1.906213e-03
-1.514679e-04
-5.320188e-03
-5.320188e-03
-4.171210e-03
-4.171210e-03
-4.936132e-02
-2.183068e-02
-4.936132e-02
-2.183068e-02
-1.327416e-03
-1.327416e-03
-1.678992e-03
-1.678992e-03
-1.922221e-02
-4.586146e-02
-1.922221e-02
-4.586146e-02
3.234292e-05
3.234292e-05
-1.334838e-04
-1.334838e-04
-7.477053e-05
5.187763e-05
-7.477053e-05
5.187763e-05
-5.707409e-05
-5.707409e-05
2.819875e-04
2.819875e-04
1.937801e-04
-9.392481e-05
1.937801e-04
-9.392481e-05
5.941153e-04
5.941153e-04
6.445355e-04
6.445355e-04
8.452311e-04
6.440148e-04
8.452311e-04
6.440148e-04
1.969159e-04
1.969159e-04
-2.696328e-03
-2.696328e-03
-2.096424e-03
1.705672e-04
-2.096424e-03
1.705672e-04
-1.825345e-02
-1.825345e-02
-4.444800e-02
-4.444800e-02
-8.992511e-03
-4.736523e-03
-8.992511e-03
-4.736523e-03
-4.803507e-02
-4.803507e-02
-2.186756e-02
-2.186756e-02
-6.562373e-03
-1.203261e-02
-6.562373e-03
-1.203261e-02
-1.864602e-05
-1.864602e-05
-4.797404e-05
-4.797404e-05
-4.725667e-05
-3.388773e-05
-4.725667e-05
-3.388773e-05
3.386009e-05
3.386009e-05
1.793849e-04
1.793849e-04
1.133998e-04
3.139100e-05
1.133998e-04
3.139100e-05
3.599633e-04
3.599633e-04
5.008797e-04
5.008797e-04
2.151754e-04
1.582158e-04
2.151754e-04
1.582158e-04
3.412002e-04
3.412002e-04
-2.623677e-04
-2.623677e-04
4.138439e-05
2.065118e-04
4.138439e-05
2.065118e-04
-1.925884e-03
-1.925884e-03
-4.742566e-03
-4.742566e-03
-1.898605e-04
-1.293353e-04
-1.898605e-04
-1.293353e-04
-5.159910e-03
-5.159910e-03
-2.219465e-03
-2.219465e-03
-9.798432e-05
-1.595981e-04
-9.798432e-05
-1.595981e-04
-9.130062e-06
-9.130062e-06
-2.258691e-05
-2.258691e-05
4.099160e-07
4.858294e-06
4.099160e-07
4.858294e-06
-5.083661e-06
-5.083661e-06
2.579004e-05
2.579004e-05
4.077260e-06
-2.385774e-06
4.077260e-06
-2.385774e-06
4.283478e-05
4.283478e-05
4.967808e-05
4.967808e-05
-2.300217e-05
-5.686515e-06
-2.300217e-05
-5.686515e-06
2.800331e-05
2.800331e-05
-7.436064e-05
-7.436064e-05
-4.912827e-05
-3.590338e-05
-4.912827e-05
-3.590338e-05
-2.241797e-04
-2.241797e-04
-3.475858e-04
-3.475858e-04
-1.073313e-04
-7.120521e-05
-1.073313e-04
-7.120521e-05
-3.760130e-04
-3.760130e-04
-2.642385e-04
-2.642385e-04
-7.677706e-05
-1.032417e-04
-7.677706e-05
-1.032417e-04
-1.367147e-06
-1.367147e-06
-1.775906e-07
-1.775906e-07
-4.165987e-08
-3.229701e-06
-4.165987e-08
-3.229701e-06
2.250429e-06
2.250429e-06
4.472040e-06
4.472040e-06
-1.558408e-05
-4.012776e-06
-1.558408e-05
-4.012776e-06
-5.115987e-06
-5.115987e-06
-1.458402e-05
-1.458402e-05
-2.581091e-05
-3.146797e-05
-2.581091e-05
-3.146797e-05
-1.460007e-05
-1.460007e-05
-3.020050e-05
-3.020050e-05
-2.615694e-05
-1.452259e-05
-2.615694e-05
-1.452259e-05
-6.957602e-05
-6.957602e-05
-9.067410e-05
-9.067410e-05
-6.783955e-06
-1.427237e-05
-6.783955e-06
-1.427237e-05
-8.700454e-05
-8.700454e-05
-5.516292e-05
-5.516292e-05
-1.014547e-04
-4.260469e-05
-1.014547e-04
-4.260469e-05
-6.106230e-07
-6.106230e-07
4.018958e-06
4.018958e-06
9.497021e-06
1.006989e-06
9.497021e-06
1.006989e-06
-4.956172e-06
-4.956172e-06
-1.890628e-05
-1.890628e-05
-4.898936e-06
2.984664e-06
-4.898936e-06
2.984664e-06
-2.731897e-05
-2.731897e-05
-1.676677e-05
-1.676677e-05
-1.317281e-05
-6.809089e-06
-1.317281e-05
-6.809089e-06
-1.883561e-06
-1.883561e-06
7.929249e-06
7.929249e-06
5.923458e-05
1.014828e-05
5.923458e-05
1.014828e-05
3.560990e-06
3.560990e-06
-6.615749e-06
-6.615749e-06
-9.726859e-05
-7.992877e-06
-9.726859e-05
-7.992877e-06
-1.417659e-06
-1.417659e-06
-3.611559e-07
-3.611559e-07
-1.371486e-06
-1.324374e-06
-1.371486e-06
-1.324374e-06
1.612138e-06
1.612138e-06
7.216511e-07
7.216511e-07
7.940590e-07
9.620906e-07
7.940590e-07
9.620906e-07
-1.742884e-06
-1.742884e-06
-1.731145e-06
-1.731145e-06
-2.192769e-06
-1.552384e-06
-2.192769e-06
-1.552384e-06
-2.265240e-07
-2.265240e-07
9.526367e-09
9.526367e-09
-9.261997e-07
-1.576288e-06
-9.261997e-07
-1.576288e-06
8.720190e-07
8.720190e-07
1.795946e-06
1.795946e-06
1.679092e-07
7.444751e-07
1.679092e-07
7.444751e-07
2.218832e-06
2.218832e-06
2.054301e-06
2.054301e-06
3.572977e-06
1.524800e-06
3.572977e-06
1.524800e-06
8.898778e-07
8.898778e-07
2.774115e-06
2.774115e-06
1.423321e-06
1.231442e-06
1.423321e-06
1.231442e-06
6.314545e-06
6.314545e-06
3.103937e-06
3.103937e-06
1.111253e-06
2.137784e-06
1.111253e-06
2.137784e-06
1.897631e-08
1.897631e-08
3.129515e-07
3.129515e-07
7.293359e-07
8.589752e-07
7.293359e-07
8.589752e-07
1.330295e-06
1.330295e-06
1.605828e-06
1.605828e-06
1.493334e-06
1.782363e-06
1.493334e-06
1.782363e-06
-7.157732e-07
-7.157732e-07
8.309573e-07
8.309573e-07
4.467768e-06
1.103440e-06
4.467768e-06
1.103440e-06
4.721954e-06
4.721954e-06
4.656137e-06
4.656137e-06
1.068927e-05
1.069350e-05
1.068927e-05
1.069350e-05
-6.868825e-06
-6.868825e-06
2.571621e-07
2.571621e-07
3.326654e-06
2.770499e-06
3.326654e-06
2.770499e-06
2.170964e-05
2.170964e-05
1.961970e-06
1.961970e-06
3.007720e-05
2.219789e-05
3.007720e-05
2.219789e-05
-1.129586e-05
-1.129586e-05
1.075575e-05
1.075575e-05
-3.394345e-05
-1.168269e-05
-3.394345e-05
-1.168269e-05
2.340842e-06
2.340842e-06
-2.105630e-05
-2.105630e-05
-2.372155e-05
-2.089595e-05
-2.372155e-05
-2.089595e-05
-4.191523e-05
-4.191523e-05
-2.937897e-05
-2.937897e-05
-5.819405e-05
-3.837797e-05
-5.819405e-05
-3.837797e-05
6.250895e-06
6.250895e-06
9.528266e-06
9.528266e-06
2.827520e-05
-2.924950e-05
2.827520e-05
-2.924950e-05
9.736017e-06
9.736017e-06
1.337837e-05
1.337837e-05
6.496818e-05
5.667461e-05
6.496818e-05
5.667461e-05
1.184387e-05
1.184387e-05
5.259379e-06
5.259379e-06
1.278601e-05
4.525366e-05
1.278601e-05
4.525366e-05
1.834900e-06
1.834900e-06
5.141172e-06
5.141172e-06
5.976446e-06
1.594381e-06
5.976446e-06
1.594381e-06
6.118749e-06
6.118749e-06
4.707937e-06
4.707937e-06
5.725389e-07
5.072224e-06
5.725389e-07
5.072224e-06
-1.168114e-06
-1.168114e-06
-3.901460e-07
-3.901460e-07
-1.782588e-06
-1.412709e-06
-1.782588e-06
-1.412709e-06
-6.342286e-07
-6.342286e-07
-2.270803e-06
-2.270803e-06
-2.172913e-06
-2.594462e-06
-2.172913e-06
-2.594462e-06
-3.284172e-06
-3.284172e-06
-1.832956e-06
-1.832956e-06
-2.298801e-06
-2.322616e-06
-2.298801e-06
-2.322616e-06
-6.500581e-07
-6.500581e-07
-3.802749e-07
-3.802749e-07
-2.178963e-06
-2.258793e-06
-2.178963e-06
-2.258793e-06
2.239334e-07
2.239334e-07
-1.152766e-06
-1.152766e-06
3.515460e-07
-1.253093e-06
3.515460e-07
-1.253093e-06
-8.390900e-07
-8.390900e-07
2.008317e-06
2.008317e-06
1.929662e-06
1.415380e-06
1.929662e-06
1.415380e-06
1.355352e-06
1.355352e-06
6.443183e-07
6.443183e-07
1.655569e-07
7.316728e-07
1.655569e-07
7.316728e-07
2.477961e-07
2.477961e-07
1.156872e-06
1.156872e-06
1.204640e-06
1.219271e-06
1.204640e-06
1.219271e-06
1.778701e-06
1.778701e-06
1.028887e-06
1.028887e-06
2.502822e-06
1.420422e-06
2.502822e-06
1.420422e-06
2.232045e-06
2.232045e-06
6.517862e-07
6.517862e-07
2.605470e-06
3.950205e-06
2.605470e-06
3.950205e-06
-5.250292e-07
-5.250292e-07
4.583663e-06
4.583663e-06
-9.762991e-08
-3.213970e-06
-9.762991e-08
-3.213970e-06
1.597596e-05
1.597596e-05
2.107386e-05
2.107386e-05
2.870315e-05
1.815036e-05
2.870315e-05
1.815036e-05
1.325955e-05
1.325955e-05
5.685672e-06
5.685672e-06
-7.577431e-06
1.469167e-05
-7.577431e-06
1.469167e-05
9.497317e-06
9.497317e-06
2.726300e-05
2.726300e-05
-3.455718e-05
-2.409249e-05
-3.455718e-05
-2.409249e-05
-9.928882e-06
-9.928882e-06
-1.138752e-04
-1.138752e-04
-1.108522e-04
-3.965457e-05
-1.108522e-04
-3.965457e-05
-1.707993e-04
-1.707993e-04
-1.959168e-04
-1.959168e-04
-1.756801e-04
-1.683187e-04
-1.756801e-04
-1.683187e-04
-1.109591e-04
-1.109591e-04
-1.682311e-05
-1.682311e-05
-5.143201e-06
-1.426316e-04
-5.143201e-06
-1.426316e-04
7.742956e-06
7.742956e-06
6.670484e-05
6.670484e-05
2.343474e-05
6.092044e-05
2.343474e-05
6.092044e-05
1.043423e-04
1.043423e-04
1.263811e-04
1.263811e-04
1.087071e-04
3.385706e-05
1.087071e-04
3.385706e-05
9.330024e-05
9.330024e-05
2.784641e-05
2.784641e-05
3.445483e-05
1.190403e-04
3.445483e-05
1.190403e-04
5.042208e-06
5.042208e-06
1.147611e-05
1.147611e-05
2.313680e-05
4.138643e-06
2.313680e-05
4.138643e-06
6.110159e-06
6.110159e-06
-1.273970e-06
-1.273970e-06
2.246315e-06
1.298922e-05
2.246315e-06
1.298922e-05
-1.225822e-06
-1.225822e-06
-4.595815e-06
-4.595815e-06
-4.199382e-06
-2.207777e-06
-4.199382e-06
-2.207777e-06
-3.320405e-06
-3.320405e-06
-5.141515e-07
-5.141515e-07
1.200375e-06
-2.182815e-06
1.200375e-06
-2.182815e-06
-9.581453e-07
-9.581453e-07
-2.207333e-06
-2.207333e-06
-1.496953e-06
4.783864e-07
-1.496953e-06
4.783864e-07
-3.295027e-06
-3.295027e-06
-3.070706e-06
-3.070706e-06
-8.854523e-07
-2.096700e-06
-8.854523e-07
-2.096700e-06
-3.652284e-07
-3.652284e-07
2.922573e-06
2.922573e-06
4.922030e-06
2.727386e-06
4.922030e-06
2.727386e-06
3.442679e-06
3.442679e-06
1.862223e-06
1.862223e-06
-4.660002e-07
2.854775e-06
-4.660002e-07
2.854775e-06
-3.535359e-07
-3.535359e-07
4.391165e-07
4.391165e-07
-2.341942e-07
-1.651438e-06
-2.341942e-07
-1.651438e-06
3.338252e-06
3.338252e-06
7.611081e-07
7.611081e-07
4.413316e-07
1.147847e-06
4.413316e-07
1.147847e-06
-1.030793e-06
-1.030793e-06
2.720253e-06
2.720253e-06
1.857843e-06
1.404843e-07
1.857843e-06
1.404843e-07
5.069366e-06
5.069366e-06
2.310591e-06
2.310591e-06
4.586739e-06
6.223244e-06
4.586739e-06
6.223244e-06
-1.723880e-06
-1.723880e-06
1.759543e-06
1.759543e-06
4.891261e-07
-6.421490e-07
4.891261e-07
-6.421490e-07
1.382684e-05
1.382684e-05
2.104072e-05
2.104072e-05
-6.612940e-06
-1.994352e-06
-6.612940e-06
-1.994352e-06
3.422467e-06
3.422467e-06
-4.019584e-05
-4.019584e-05
-6.034020e-05
-1.576619e-05
-6.034020e-05
-1.576619e-05
-8.412004e-05
-8.412004e-05
-9.335885e-05
-9.335885e-05
-8.513077e-05
-1.165836e-04
-8.513077e-05
-1.165836e-04
-4.465075e-05
-4.465075e-05
-1.139177e-07
-1.139177e-07
1.371976e-04
4.868097e-05
1.371976e-04
4.868097e-05
6.187807e-05
6.187807e-05
2.330632e-04
2.330632e-04
3.135492e-04
1.439683e-04
3.135492e-04
1.439683e-04
9.997872e-05
9.997872e-05
-1.109714e-04
-1.109714e-04
-1.552868e-04
2.379687e-04
-1.552868e-04
2.379687e-04
-7.097388e-05
-7.097388e-05
-1.176514e-04
-1.176514e-04
-2.429439e-04
-2.568102e-04
-2.429439e-04
-2.568102e-04
-1.482655e-04
-1.482655e-04
4.998639e-06
4.998639e-06
-6.425529e-05
-2.654267e-04
-6.425529e-05
-2.654267e-04
1.139676e-04
1.139676e-04
1.307353e-05
1.307353e-05
-3.997540e-05
9.961596e-05
-3.997540e-05
9.961596e-05
-1.628578e-05
-1.628578e-05
3.806550e-05
3.806550e-05
4.988863e-05
-5.642524e-05
4.988863e-05
-5.642524e-05
2.744564e-05
2.744564e-05
1.009434e-05
1.009434e-05
2.654850e-05
4.317047e-05
2.654850e-05
4.317047e-05
-3.186651e-06
-3.186651e-06
-2.282677e-06
-2.282677e-06
-7.517954e-07
-7.572316e-07
-7.517954e-07
-7.572316e-07
-1.785104e-06
-1.785104e-06
1.869495e-06
1.869495e-06
4.611017e-07
-1.824612e-06
4.611017e-07
-1.824612e-06
2.292316e-06
2.292316e-06
-1.263280e-06
-1.263280e-06
2.019803e-07
1.245582e-06
2.019803e-07
1.245582e-06
-4.314283e-07
-4.314283e-07
2.152277e-06
2.152277e-06
4.950993e-06
3.271748e-06
4.950993e-06
3.271748e-06
3.552031e-06
3.552031e-06
5.262814e-06
5.262814e-06
3.283040e-06
3.650626e-06
3.283040e-06
3.650626e-06
3.698489e-06
3.698489e-06
-1.339519e-06
-1.339519e-06
1.274044e-06
2.667400e-06
1.274044e-06
2.667400e-06
-1.936475e-06
-1.936475e-06
9.944894e-07
9.944894e-07
4.898499e-06
1.124311e-06
4.898499e-06
1.124311e-06
-1.076765e-06
-1.076765e-06
2.012812e-07
2.012812e-07
2.143978e-06
4.626257e-06
2.143978e-06
4.626257e-06
4.108610e-06
4.108610e-06
-6.842052e-07
-6.842052e-07
-1.427309e-06
6.957280e-06
-1.427309e-06
6.957280e-06
5.215160e-06
5.215160e-06
1.142544e-05
1.142544e-05
1.964724e-05
-1.736276e-06
1.964724e-05
-1.736276e-06
2.440084e-06
2.440084e-06
-9.925949e-06
-9.925949e-06
-3.881576e-05
1.025138e-05
-3.881576e-05
1.025138e-05
-3.724897e-05
-3.724897e-05
-5.088501e-05
-5.088501e-05
-6.986663e-05
-9.235297e-05
-6.986663e-05
-9.235297e-05
-2.324393e-05
-2.324393e-05
-2.018549e-05
-2.018549e-05
7.978010e-05
3.156776e-05
7.978010e-05
3.156776e-05
-6.669107e-05
-6.669107e-05
-2.392771e-05
-2.392771e-05
2.833373e-05
3.492205e-05
2.833373e-05
3.492205e-05
1.467011e-04
1.467011e-04
1.916005e-04
1.916005e-04
1.579123e-04
1.418636e-04
1.579123e-04
1.418636e-04
4.991519e-05
4.991519e-05
-5.058460e-05
-5.058460e-05
-3.139892e-04
-3.161961e-05
-3.139892e-04
-3.161961e-05
6.707783e-05
6.707783e-05
8.304351e-06
8.304351e-06
2.340877e-04
-7.478381e-05
2.340877e-04
-7.478381e-05
-2.002203e-04
-2.002203e-04
-1.994487e-04
-1.994487e-04
-8.671877e-06
4.494553e-05
-8.671877e-06
4.494553e-05
-1.537875e-04
-1.537875e-04
-1.660392e-05
-1.660392e-05
6.586003e-05
1.120940e-04
6.586003e-05
1.120940e-04
7.771944e-05
7.771944e-05
-7.360511e-05
-7.360511e-05
-2.653231e-05
2.515211e-05
-2.653231e-05
2.515211e-05
-9.119488e-05
-9.119488e-05
3.702758e-05
3.702758e-05
-1.190553e-05
-1.036190e-04
-1.190553e-05
-1.036190e-04
4.171760e-05
4.171760e-05
3.546547e-05
3.546547e-05
3.775075e-05
3.125189e-05
3.775075e-05
3.125189e-05
-5.589533e-08
-5.589533e-08
9.208677e-07
9.208677e-07
1.103695e-06
1.658597e-07
1.103695e-06
1.658597e-07
1.809237e-06
1.809237e-06
1.272748e-06
1.272748e-06
2.581192e-06
3.312833e-06
2.581192e-06
3.312833e-06
1.969321e-07
1.969321e-07
1.974100e-06
1.974100e-06
1.397014e-06
5.858796e-08
1.397014e-06
5.858796e-08
4.089393e-06
4.089393e-06
4.086679e-06
4.086679e-06
3.287942e-06
3.645947e-06
3.287942e-06
3.645947e-06
3.964273e-06
3.964273e-06
2.117443e-06
2.117443e-06
2.435694e-06
3.409154e-06
2.435694e-06
3.409154e-06
1.152116e-06
1.152116e-06
3.459517e-06
3.459517e-06
1.681666e-06
8.355298e-07
1.681666e-06
8.355298e-07
4.677255e-06
4.677255e-06
5.992188e-06
5.992188e-06
4.439849e-06
4.812459e-06
4.439849e-06
4.812459e-06
7.361445e-06
7.361445e-06
3.919280e-06
3.919280e-06
3.301580e-06
5.250219e-06
3.301580e-06
5.250219e-06
8.453391e-06
8.453391e-06
-1.394823e-06
-1.394823e-06
-2.984935e-06
4.314038e-06
-2.984935e-06
4.314038e-06
-1.110744e-05
-1.110744e-05
2.539351e-05
2.539351e-05
1.857727e-05
-1.266728e-05
1.857727e-05
-1.266728e-05
9.393920e-06
9.393920e-06
-9.328993e-05
-9.328993e-05
-1.350992e-04
-1.231330e-05
-1.350992e-04
-1.231330e-05
-1.266202e-04
-1.266202e-04
4.292552e-06
4.292552e-06
1.672806e-04
-8.526518e-05
1.672806e-04
-8.526518e-05
1.606295e-04
1.606295e-04
1.564467e-04
1.564467e-04
1.713401e-04
2.653941e-04
1.713401e-04
2.653941e-04
1.141929e-04
1.141929e-04
8.659677e-05
8.659677e-05
2.062702e-04
2.007069e-04
2.062702e-04
2.007069e-04
8.411872e-05
8.411872e-05
1.477587e-04
1.477587e-04
1.585120e-04
5.857652e-05
1.585120e-04
5.857652e-05
8.309919e-05
8.309919e-05
-1.806552e-04
-1.806552e-04
5.036758e-04
6.820911e-04
5.036758e-04
6.820911e-04
-1.549408e-05
-1.549408e-05
2.920417e-04
2.920417e-04
-1.531926e-04
5.989107e-05
-1.531926e-04
5.989107e-05
1.650739e-04
1.650739e-04
1.777151e-04
1.777151e-04
4.823838e-04
3.987804e-05
4.823838e-04
3.987804e-05
2.598360e-04
2.598360e-04
4.223771e-05
4.223771e-05
-5.636887e-05
1.280522e-04
-5.636887e-05
1.280522e-04
-4.240451e-05
-4.240451e-05
3.648098e-05
3.648098e-05
6.278631e-06
-6.474227e-05
6.278631e-06
-6.474227e-05
-8.281008e-05
-8.281008e-05
-8.003728e-05
-8.003728e-05
-1.703299e-04
-3.023810e-05
-1.703299e-04
-3.023810e-05
2.820231e-05
2.820231e-05
4.125000e-05
4.125000e-05
3.958924e-05
2.828497e-05
3.958924e-05
2.828497e-05
1.430008e-06
1.430008e-06
-3.379511e-07
-3.379511e-07
3.507296e-07
3.507296e-07
2.258408e-06
2.258408e-06
9.043344e-07
9.043344e-07
4.729771e-07
4.729771e-07
2.637365e-06
2.637365e-06
2.345664e-06
2.345664e-06
2.280456e-06
2.280456e-06
1.938517e-06
1.938517e-06
6.854383e-07
6.854383e-07
3.576466e-07
3.576466e-07
1.349917e-06
1.349917e-06
1.221196e-06
1.221196e-06
3.378879e-06
3.378879e-06
1.375668e-06
1.375668e-06
1.121204e-08
1.121204e-08
-2.640958e-06
-2.640958e-06
-9.236263e-06
-9.236263e-06
-2.187273e-06
-2.187273e-06
-5.311250e-05
-5.311250e-05
-1.394421e-04
-1.394421e-04
1.210671e-05
1.210671e-05
2.955392e-04
2.955392e-04
2.943286e-04
2.943286e-04
2.246388e-04
2.246388e-04
3.802975e-04
3.802975e-04
4.265271e-04
4.265271e-04
6.115901e-04
6.115901e-04
2.038778e-03
2.038778e-03
4.202769e-03
4.202769e-03
2.504429e-03
2.504429e-03
-7.360948e-04
-7.360948e-04
-3.105915e-03
-3.105915e-03
-2.667679e-03
-2.667679e-03
-2.969684e-04
-2.969684e-04
-2.229175e-04
-2.229175e-04
-9.126409e-05
-9.126409e-05
-1.161634e-04
-1.161634e-04
-5.697972e-05
-5.697972e-05
-1.314439e-05
-1.314439e-05
-2.186870e-04
-2.186870e-04
6.367806e-06
7.290171e-06
6.558011e-06
2.692433e-06
-9.982620e-07
-2.477905e-06
2.214526e-06
4.644222e-06
5.697032e-06
2.229895e-06
-9.532594e-07
-2.046163e-06
-2.408617e-06
1.115362e-06
4.393259e-06
2.318089e-06
-6.680779e-08
-6.226147e-07
-2.523588e-06
-1.870496e-08
3.147332e-06
2.902732e-06
1.343991e-06
6.910027e-07
-9.353389e-07
-7.220433e-07
8.631392e-07
2.479906e-06
1.920228e-06
1.115671e-06
1.383457e-07
-1.822251e-06
-1.518363e-06
2.047590e-06
2.293790e-06
1.238522e-06
-8.206929e-08
-2.129837e-06
-1.736167e-06
2.511453e-06
3.047992e-06
1.778349e-06
1.190935e-06
-7.825477e-07
-3.304122e-07
3.455123e-06
3.626305e-06
2.437569e-06
1.056119e-06
-1.890823e-07
7.244882e-07
3.851962e-06
3.458096e-06
2.095527e-06
-6.048746e-07
-6.840829e-07
7.013086e-07
2.626681e-06
1.927922e-06
7.683899e-07
-7.973070e-07
-7.656987e-07
3.463435e-07
1.508791e-06
7.567430e-07
-7.731836e-08
3.393404e-06
4.947281e-06
6.393785e-06
5.124082e-06
2.004339e-06
4.692668e-08
-8.685652e-07
1.876320e-06
5.135280e-06
4.376204e-06
1.634982e-06
1.669098e-07
-5.396080e-06
-2.060855e-06
2.723313e-06
3.228640e-06
1.494822e-06
7.046191e-07
-3.290598e-06
-1.811588e-06
1.430239e-06
2.992831e-06
1.906547e-06
1.020490e-06
-3.910460e-07
2.350640e-07
1.793603e-06
2.943053e-06
2.159650e-06
1.159225e-06
4.002556e-06
2.379678e-06
1.385844e-06
2.460415e-06
2.074960e-06
1.243978e-06
5.846909e-06
2.334321e-06
-2.743970e-07
2.070661e-06
2.423239e-06
1.334628e-06
2.280253e-06
2.436867e-07
-6.864299e-07
2.229323e-06
2.832002e-06
1.625376e-06
3.491363e-07
-8.736428e-07
-3.953572e-07
2.255483e-06
2.175888e-06
1.146518e-06
-5.045443e-07
-1.242651e-06
-5.660782e-07
1.274102e-06
9.041338e-07
1.086648e-07
-9.730419e-07
-1.326163e-06
-6.903986e-07
5.459928e-07
1.937142e-07
-4.060706e-07
1.116333e-06
8.774689e-07
3.734821e-06
6.968857e-06
4.829193e-06
2.551710e-06
-2.719552e-06
-2.333720e-06
2.922399e-06
6.961351e-06
4.123064e-06
2.116110e-06
-7.034372e-06
-7.300426e-06
-3.662084e-07
5.942322e-06
3.361617e-06
1.672653e-06
-2.254493e-06
-4.200411e-06
-3.716896e-07
4.886914e-06
2.988527e-06
1.606175e-06
2.964005e-06
4.239675e-06
4.342680e-06
4.025580e-06
3.360342e-06
1.839539e-06
4.208107e-06
7.422267e-06
5.313740e-06
2.059767e-06
3.276158e-06
2.423834e-06
7.377380e-06
5.729973e-06
1.694291e-06
8.720738e-07
2.305859e-06
2.173586e-06
4.132808e-06
1.574410e-06
-1.310494e-06
4.249920e-07
1.868804e-06
1.250625e-06
-5.294175e-07
-1.919758e-06
-2.779437e-06
-6.018989e-07
6.154340e-07
1.858902e-07
-6.563621e-07
-2.653168e-06
-3.273622e-06
-1.180276e-06
-6.618987e-07
-8.605158e-07
-1.250507e-06
-2.757640e-06
-2.956806e-06
-1.139514e-06
-9.263903e-07
-1.222592e-06
-2.082367e-06
-8.176087e-06
-5.270339e-06
5.550633e-06
5.318413e-06
3.264688e-06
3.894544e-06
-3.471416e-06
-2.005821e-07
9.345985e-06
5.131148e-06
2.006537e-06
5.296436e-07
-6.180601e-06
9.358330e-07
1.247205e-05
5.792562e-06
1.403533e-06
-1.037316e-06
-3.703268e-06
1.766519e-06
8.828804e-06
5.469885e-06
3.184421e-06
6.751059e-06
6.748465e-06
4.457712e-06
3.858116e-06
4.273854e-06
3.001028e-06
-4.021737e-06
5.236251e-06
4.173020e-06
-9.706136e-07
3.554307e-06
2.901642e-06
-6.207795e-06
3.392870e-06
3.481197e-06
-2.889033e-06
1.953523e-06
3.653973e-06
4.031991e-06
3.011153e-06
-6.584189e-07
-1.881949e-06
5.709377e-07
1.598620e-06
2.239111e-06
-1.179963e-06
-4.825358e-06
-3.148209e-06
-1.051770e-06
-8.588018e-07
-1.703203e-06
-4.927301e-06
-6.699964e-06
-3.924050e-06
-2.274873e-06
-1.950174e-06
-2.213113e-06
-5.094618e-06
-6.067279e-06
-3.340129e-06
-2.351940e-06
-2.182057e-06
-2.354155e-05
-2.991565e-05
-2.143731e-05
1.118740e-06
8.075667e-06
7.328982e-06
1.788592e-05
4.062172e-06
3.891008e-08
1.069160e-05
7.507783e-06
3.471766e-06
5.492298e-05
3.241467e-05
1.637158e-05
2.009073e-05
9.105825e-06
8.669847e-07
2.078596e-05
1.524318e-05
1.121749e-05
1.303617e-05
8.843126e-06
4.348484e-06
-3.804252e-05
-2.141784e-05
-1.417542e-06
2.866598e-06
4.162836e-06
4.550556e-06
-3.875993e-05
-2.130635e-05
-6.078299e-06
-3.929623e-06
1.520151e-06
2.595719e-06
-7.140484e-06
3.938554e-06
3.194723e-06
-4.862604e-06
7.415350e-07
2.580132e-06
5.293843e-06
7.495322e-06
4.107488e-06
-2.325146e-06
-1.374321e-06
4.198264e-07
5.877722e-06
1.744585e-06
-3.995563e-06
-5.657723e-06
-4.358081e-06
-3.003291e-06
-4.045047e-06
-8.400195e-06
-1.106499e-05
-7.782071e-06
-4.986912e-06
-3.784327e-06
-5.372359e-06
-9.256043e-06
-1.042790e-05
-6.610873e-06
-4.360245e-06
-3.214808e-06
-4.110470e-05
-4.432858e-05
-3.109387e-05
-2.481803e-06
1.016595e-05
1.066025e-05
2.649530e-05
1.129132e-05
1.750254e-06
1.009141e-05
8.776175e-06
4.782694e-06
1.031015e-04
6.782677e-05
2.908571e-05
2.298280e-05
1.029331e-05
2.403577e-07
4.319517e-05
3.309654e-05
1.844541e-05
1.510564e-05
1.025443e-05
4.190500e-06
-8.381239e-05
-4.904543e-05
-5.789213e-06
2.661923e-06
4.099577e-06
5.575354e-06
-6.892693e-05
-4.482227e-05
-1.416521e-05
-4.671725e-06
6.278729e-07
2.986386e-06
1.113493e-06
5.752836e-06
1.628259e-06
-3.832864e-06
3.892572e-07
1.308583e-06
7.419748e-06
1.084724e-05
7.953274e-06
-1.039935e-06
-2.190607e-06
-6.695228e-07
6.576235e-06
3.567784e-06
-2.384081e-06
-6.881828e-06
-6.275434e-06
-4.114708e-06
-5.592198e-06
-1.045090e-05
-1.344384e-05
-9.998115e-06
-6.628222e-06
-4.838277e-06
-7.670729e-06
-1.195150e-05
-1.290771e-05
-8.403710e-06
-5.500075e-06
-3.775863e-06
SCALARS E13 float 1
LOOKUP_TABLE default
4.382286e-05
4.908616e-05
1.166835e-04
7.819137e-05
4.382286e-05
4.908616e-05
1.166835e-04
7.819137e-05
1.785335e-05
1.389141e-04
1.785335e-05
1.389141e-04
5.622999e-04
3.537961e-04
5.622999e-04
3.537961e-04
1.245477e-04
1.245477e-04
-1.256223e-05
-3.831336e-06
-1.373581e-06
-1.161687e-05
-1.256223e-05
-3.831336e-06
-1.373581e-06
-1.161687e-05
5.277729e-06
1.070040e-05
5.277729e-06
1.070040e-05
3.314014e-06
8.078384e-06
3.314014e-06
8.078384e-06
1.963699e-07
1.963699e-07
7.927284e-06
-4.041015e-06
-8.197732e-06
7.927284e-06
-4.041015e-06
-8.197732e-06
6.492720e-06
4.497236e-06
6.492720e-06
4.497236e-06
1.656253e-06
-4.472900e-06
1.656253e-06
-4.472900e-06
1.984222e-06
1.984222e-06
2.329527e-06
1.470207e-06
1.783660e-07
-2.215872e-06
2.329527e-06
1.470207e-06
1.783660e-07
-2.215872e-06
1.176748e-05
4.426280e-06
1.176748e-05
4.426280e-06
-4.825884e-06
-3.506466e-06
-4.825884e-06
-3.506466e-06
-3.688305e-06
-3.688305e-06
2.441881e-06
-4.831549e-06
1.200832e-05
2.021793e-05
2.441881e-06
-4.831549e-06
1.200832e-05
2.021793e-05
3.044085e-05
3.044085e-05
4.869218e-05
4.869218e-05
4.821248e-06
2.160805e-06
1.288503e-07
4.351071e-06
4.821248e-06
2.160805e-06
1.288503e-07
4.351071e-06
-1.476230e-06
-1.476230e-06
2.638973e-06
2.638973e-06
7.573598e-06
3.827973e-06
8.129969e-06
8.883070e-06
7.573598e-06
3.827973e-06
8.129969e-06
8.883070e-06
-3.628906e-06
4.477194e-06
-3.628906e-06
4.477194e-06
5.823056e-06
2.494767e-06
5.823056e-06
2.494767e-06
-4.636443e-06
-4.636443e-06
-2.067287e-06
2.633482e-06
-4.606247e-06
-4.404074e-06
-2.067287e-06
2.633482e-06
-4.606247e-06
-4.404074e-06
3.325849e-06
-6.291354e-06
3.325849e-06
-6.291354e-06
-1.262231e-05
-8.579078e-06
-1.262231e-05
-8.579078e-06
-1.978524e-06
-1.978524e-06
1.823405e-05
1.174201e-04
7.927832e-05
5.653817e-05
1.823405e-05
1.174201e-04
7.927832e-05
5.653817e-05
2.886900e-04
8.357832e-05
2.886900e-04
8.357832e-05
-2.486671e-05
-9.115073e-07
-2.486671e-05
-9.115073e-07
4.224444e-06
4.224444e-06
-2.377480e-05
-7.091165e-06
5.335058e-06
-2.377480e-05
-7.091165e-06
5.335058e-06
5.690737e-06
-3.477651e-07
5.690737e-06
-3.477651e-07
1.047998e-05
1.047998e-05
6.611519e-06
6.611519e-06
-7.623108e-06
-2.006019e-06
-7.623108e-06
-2.006019e-06
-4.087855e-05
-3.268501e-05
-3.711838e-05
-4.050526e-05
-4.087855e-05
-3.268501e-05
-3.711838e-05
-4.050526e-05
-4.301960e-05
-4.301960e-05
-2.633376e-06
5.892292e-06
-7.559175e-07
-1.300200e-05
-2.633376e-06
5.892292e-06
-7.559175e-07
-1.300200e-05
4.465339e-06
4.465339e-06
-3.194987e-05
-3.194987e-05
-1.432504e-05
-1.432504e-05
-2.992194e-05
-2.992194e-05
-4.999301e-07
-4.999301e-07
-6.104179e-06
-6.104179e-06
1.002390e-06
1.186949e-05
1.002390e-06
1.186949e-05
2.191783e-05
2.191783e-05
8.093527e-05
6.585406e-05
8.093527e-05
6.585406e-05
6.285958e-05
6.285958e-05
4.370803e-05
8.517806e-06
4.370803e-05
8.517806e-06
2.458964e-05
1.397093e-05
2.458964e-05
1.397093e-05
1.626008e-05
2.265241e-06
1.626008e-05
2.265241e-06
1.490328e-05
1.490328e-05
4.139427e-06
4.139427e-06
-1.147886e-06
2.362281e-06
-1.147886e-06
2.362281e-06
5.764532e-06
5.764532e-06
4.801668e-06
2.711735e-06
4.801668e-06
2.711735e-06
-1.161520e-06
4.211214e-07
-6.598157e-06
1.854523e-06
-1.161520e-06
4.211214e-07
-6.598157e-06
1.854523e-06
-3.680449e-08
-3.378932e-06
-3.680449e-08
-3.378932e-06
-6.663079e-06
-8.916867e-06
-6.663079e-06
-8.916867e-06
2.954558e-06
1.372063e-06
5.554506e-06
3.701610e-06
2.954558e-06
1.372063e-06
5.554506e-06
3.701610e-06
2.408467e-06
7.721274e-06
2.408467e-06
7.721274e-06
6.875319e-06
7.826426e-06
6.875319e-06
7.826426e-06
5.754211e-06
5.754211e-06
-7.911124e-06
-3.980607e-06
-7.911124e-06
-3.980607e-06
-1.191696e-05
-1.191696e-05
-1.059170e-05
-1.059170e-05
1.042094e-05
3.939804e-06
6.132899e-06
1.811717e-05
1.042094e-05
3.939804e-06
6.132899e-06
1.811717e-05
-2.039282e-06
-2.039282e-06
7.030561e-06
7.030561e-06
1.062312e-05
9.956324e-06
3.953514e-06
7.358583e-06
1.062312e-05
9.956324e-06
3.953514e-06
7.358583e-06
-9.336419e-07
-9.336419e-07
-9.836967e-07
-2.384615e-06
-1.850650e-06
-3.233965e-06
-9.836967e-07
-2.384615e-06
-1.850650e-06
-3.233965e-06
-4.325986e-06
-4.325986e-06
7.040416e-06
4.557230e-06
7.040416e-06
4.557230e-06
6.948002e-06
6.735640e-06
6.948002e-06
6.735640e-06
4.681646e-06
4.681646e-06
3.510974e-06
3.510974e-06
4.352682e-06
4.352682e-06
-3.133851e-06
-3.592652e-06
-3.133851e-06
-3.592652e-06
7.016109e-06
-6.910644e-07
7.016109e-06
-6.910644e-07
-6.052327e-06
-6.052327e-06
2.824170e-06
5.414822e-06
-5.706698e-06
-6.479623e-06
2.824170e-06
5.414822e-06
-5.706698e-06
-6.479623e-06
-1.617323e-08
-1.617323e-08
-5.148695e-06
-5.148695e-06
5.014314e-05
2.742247e-05
3.724881e-05
2.576637e-05
5.014314e-05
2.742247e-05
3.724881e-05
2.576637e-05
-1.056661e-07
-1.056661e-07
-7.153262e-06
-7.153262e-06
-3.964669e-06
-3.964669e-06
-4.057831e-06
3.931101e-06
-4.057831e-06
3.931101e-06
4.484491e-05
4.484491e-05
2.549643e-05
2.549643e-05
5.426928e-05
2.270486e-05
5.426928e-05
2.270486e-05
1.194841e-05
1.194841e-05
7.018913e-06
7.018913e-06
8.724925e-06
1.396937e-05
8.724925e-06
1.396937e-05
4.653364e-06
6.771417e-06
4.653364e-06
6.771417e-06
6.139939e-05
6.787858e-05
3.447011e-05
5.848295e-05
6.139939e-05
6.787858e-05
3.447011e-05
5.848295e-05
-3.904767e-06
-3.904767e-06
-1.670191e-06
-1.670191e-06
6.397636e-05
7.643650e-05
6.397636e-05
7.643650e-05
1.093180e-04
4.945646e-04
1.093180e-04
4.945646e-04
-5.266638e-06
-5.266638e-06
6.456382e-06
6.456382e-06
-5.648467e-06
-7.971142e-07
-5.648467e-06
-7.971142e-07
-9.364354e-06
-9.364354e-06
-3.603615e-06
-3.218670e-06
-3.603615e-06
-3.218670e-06
-1.017103e-06
-1.017103e-06
-7.417346e-06
-7.417346e-06
-5.603194e-06
-5.603194e-06
-7.425181e-06
-5.720561e-06
-7.425181e-06
-5.720561e-06
-5.034912e-06
-5.034912e-06
5.599021e-07
5.599021e-07
-4.198355e-06
-7.998455e-06
-4.198355e-06
-7.998455e-06
2.178108e-06
2.178108e-06
-1.675279e-06
-1.675279e-06
2.899153e-06
1.555447e-06
2.899153e-06
1.555447e-06
-2.795863e-06
-2.795863e-06
-2.658146e-06
-2.658146e-06
-4.384753e-06
-1.471764e-06
-4.384753e-06
-1.471764e-06
-2.064229e-08
-3.528076e-06
-2.064229e-08
-3.528076e-06
4.135556e-07
4.135556e-07
-4.800452e-07
5.830515e-07
-4.800452e-07
5.830515e-07
-1.680127e-06
-1.680127e-06
-4.231945e-06
-4.231945e-06
-6.121313e-06
-6.121313e-06
-5.937981e-06
-3.709851e-06
-5.937981e-06
-3.709851e-06
-5.217844e-06
-5.217844e-06
-6.827658e-06
-6.827658e-06
-2.064283e-06
-8.902475e-07
-2.064283e-06
-8.902475e-07
-3.747913e-06
-3.747913e-06
-2.493187e-07
-2.493187e-07
-7.945010e-06
-7.337047e-06
-7.945010e-06
-7.337047e-06
-2.476728e-06
-2.476728e-06
-3.634662e-06
-3.634662e-06
-4.991271e-06
-6.393442e-06
-4.991271e-06
-6.393442e-06
-7.246904e-07
2.891559e-08
-7.246904e-07
2.891559e-08
-2.076759e-06
-2.076759e-06
-1.793604e-06
-1.598306e-06
-1.793604e-06
-1.598306e-06
-2.545317e-07
-2.545317e-07
-9.630473e-07
-9.630473e-07
-8.832791e-07
-8.832791e-07
4.107368e-06
2.067658e-06
4.107368e-06
2.067658e-06
1.641117e-06
1.641117e-06
1.255122e-06
1.255122e-06
4.036408e-06
4.076655e-06
4.036408e-06
4.076655e-06
-3.802820e-06
-3.802820e-06
-8.263875e-06
-8.263875e-06
-3.270496e-06
5.127303e-07
-3.270496e-06
5.127303e-07
-8.453196e-06
-8.453196e-06
-6.747353e-06
-6.747353e-06
-3.949306e-07
-2.321529e-06
-3.949306e-07
-2.321529e-06
-1.968655e-06
-1.917392e-06
-1.968655e-06
-1.917392e-06
-2.157130e-06
-2.157130e-06
-3.907477e-06
-5.583433e-06
-3.907477e-06
-5.583433e-06
-4.151397e-06
-4.151397e-06
9.889678e-07
9.889678e-07
6.233326e-06
6.233326e-06
3.957025e-06
-1.496981e-07
3.957025e-06
-1.496981e-07
7.148450e-06
7.148450e-06
3.433675e-06
3.433675e-06
1.113943e-07
3.354900e-06
1.113943e-07
3.354900e-06
8.471945e-07
8.471945e-07
1.211883e-06
1.211883e-06
4.291886e-06
1.244476e-06
4.291886e-06
1.244476e-06
3.722871e-06
3.722871e-06
5.773849e-06
5.773849e-06
9.291324e-07
2.842722e-06
9.291324e-07
2.842722e-06
-6.492920e-06
-3.617137e-06
-6.492920e-06
-3.617137e-06
-7.017520e-06
-7.017520e-06
-9.178347e-06
-4.281407e-06
-9.178347e-06
-4.281407e-06
-2.142288e-06
-2.142288e-06
-4.021446e-06
-4.021446e-06
-2.163050e-06
-2.163050e-06
-5.444611e-06
-8.755531e-06
-5.444611e-06
-8.755531e-06
-1.312638e-06
-1.312638e-06
-6.475919e-07
-6.475919e-07
3.785048e-06
5.151887e-07
3.785048e-06
5.151887e-07
-5.013106e-07
-5.013106e-07
3.792004e-06
3.792004e-06
1.927867e-06
6.855810e-07
1.927867e-06
6.855810e-07
4.129729e-06
4.129729e-06
6.308541e-07
6.308541e-07
5.358153e-06
5.383488e-06
5.358153e-06
5.383488e-06
-5.294435e-06
-3.120522e-06
-5.294435e-06
-3.120522e-06
-8.495497e-06
-8.495497e-06
-6.958693e-06
-6.381508e-06
-6.958693e-06
-6.381508e-06
-4.562105e-06
-4.562105e-06
-8.613487e-06
-8.613487e-06
-5.276186e-06
-5.276186e-06
-4.120129e-06
-8.486476e-06
-4.120129e-06
-8.486476e-06
1.534048e-06
1.534048e-06
6.859977e-06
6.859977e-06
3.551164e-06
7.350335e-07
3.551164e-06
7.350335e-07
4.882522e-06
4.882522e-06
1.241242e-06
1.241242e-06
2.154622e-06
5.708289e-06
2.154622e-06
5.708289e-06
1.956829e-06
1.956829e-06
3.043454e-06
3.043454e-06
-1.324740e-06
-9.670221e-07
-1.324740e-06
-9.670221e-07
-3.766186e-06
-3.433788e-06
-3.766186e-06
-3.433788e-06
-3.889119e-06
-3.889119e-06
-3.728263e-06
-1.313907e-06
-3.728263e-06
-1.313907e-06
1.966035e-06
1.966035e-06
-9.242595e-06
-9.242595e-06
-7.692918e-06
-7.692918e-06
-1.276342e-05
-9.191405e-06
-1.276342e-05
-9.191405e-06
-1.953778e-06
-1.953778e-06
-1.736326e-07
-1.736326e-07
-1.751654e-06
-8.064860e-06
-1.751654e-06
-8.064860e-06
3.024183e-06
3.024183e-06
2.562254e-06
2.562254e-06
-5.306039e-08
5.499997e-07
-5.306039e-08
5.499997e-07
-1.746041e-06
-1.746041e-06
-3.464893e-06
-3.464893e-06
-1.551468e-07
-4.105258e-07
-1.551468e-07
-4.105258e-07
-4.113980e-06
1.218408e-06
-4.113980e-06
1.218408e-06
-8.433729e-06
-8.433729e-06
-1.077478e-05
-1.020584e-05
-1.077478e-05
-1.020584e-05
-7.430054e-06
-7.430054e-06
-9.127031e-06
-9.127031e-06
-9.328668e-06
-9.328668e-06
1.399961e-06
-4.745109e-06
1.399961e-06
-4.745109e-06
-6.782776e-06
-6.782776e-06
1.222675e-06
1.222675e-06
8.664797e-06
3.873717e-06
8.664797e-06
3.873717e-06
5.024826e-06
5.024826e-06
2.462096e-06
2.462096e-06
7.964113e-06
1.212041e-05
7.964113e-06
1.212041e-05
2.392131e-06
2.392131e-06
3.660317e-06
3.660317e-06
8.357880e-07
2.478738e-06
8.357880e-07
2.478738e-06
-9.706585e-06
-9.716860e-06
-9.706585e-06
-9.716860e-06
-8.356235e-06
-8.356235e-06
-4.121001e-06
-3.974765e-06
-4.121001e-06
-3.974765e-06
-4.185347e-06
-4.185347e-06
-1.693894e-06
-1.693894e-06
7.107620e-06
7.107620e-06
4.700224e-06
-1.267305e-06
4.700224e-06
-1.267305e-06
1.005578e-05
1.005578e-05
1.231524e-05
1.231524e-05
8.566644e-06
7.271376e-06
8.566644e-06
7.271376e-06
1.302875e-05
1.302875e-05
7.570432e-06
7.570432e-06
4.218352e-06
7.961697e-06
4.218352e-06
7.961697e-06
4.837170e-07
4.837170e-07
-2.605524e-06
-2.605524e-06
-2.980891e-06
-2.707115e-07
-2.980891e-06
-2.707115e-07
5.862419e-06
5.496007e-06
5.862419e-06
5.496007e-06
4.358958e-06
4.358958e-06
1.560145e-05
1.708880e-05
1.560145e-05
1.708880e-05
1.161054e-05
1.161054e-05
4.012013e-06
4.012013e-06
3.249268e-06
3.249268e-06
1.801628e-06
8.441326e-06
1.801628e-06
8.441326e-06
4.046380e-06
4.046380e-06
3.004741e-06
3.004741e-06
-2.606818e-06
3.307159e-07
-2.606818e-06
3.307159e-07
9.705969e-07
9.705969e-07
5.341650e-07
5.341650e-07
-3.820235e-06
-4.886523e-06
-3.820235e-06
-4.886523e-06
-1.967242e-06
-1.967242e-06
-4.601204e-06
-4.601204e-06
-5.671485e-06
-4.523809e-06
-5.671485e-06
-4.523809e-06
1.779709e-05
9.550453e-06
1.779709e-05
9.550453e-06
2.088704e-05
2.088704e-05
1.862721e-05
1.457069e-05
1.862721e-05
1.457069e-05
8.773615e-06
8.773615e-06
1.079783e-05
1.079783e-05
-5.867878e-07
-5.867878e-07
-8.926472e-07
1.126369e-05
-8.926472e-07
1.126369e-05
-4.391305e-06
-4.391305e-06
-5.845565e-06
-5.845565e-06
-6.339905e-06
-4.748630e-06
-6.339905e-06
-4.748630e-06
-7.666382e-06
-7.666382e-06
-6.130059e-06
-6.130059e-06
-1.058796e-05
-1.097735e-05
-1.058796e-05
-1.097735e-05
-3.252008e-06
-3.252008e-06
-2.140806e-06
-2.140806e-06
-2.156154e-06
-5.330573e-06
-2.156154e-06
-5.330573e-06
1.404598e-05
1.048948e-05
1.404598e-05
1.048948e-05
1.347087e-05
1.347087e-05
6.146205e-06
1.096370e-05
6.146205e-06
1.096370e-05
8.863950e-06
8.863950e-06
7.204504e-06
7.204504e-06
-9.155147e-07
-9.155147e-07
-1.449467e-06
1.390523e-06
-1.449467e-06
1.390523e-06
-5.430170e-06
-5.430170e-06
-1.056245e-05
-1.056245e-05
-1.356661e-05
-7.100713e-06
-1.356661e-05
-7.100713e-06
-1.733001e-05
-1.733001e-05
-1.804111e-05
-1.804111e-05
-1.826118e-05
-1.973529e-05
-1.826118e-05
-1.973529e-05
-1.116483e-05
-1.116483e-05
-6.256132e-06
-6.256132e-06
-4.796218e-06
-9.023993e-06
-4.796218e-06
-9.023993e-06
4.730360e-06
6.324169e-06
4.730360e-06
6.324169e-06
-1.321317e-06
-1.321317e-06
-3.475266e-06
-1.291484e-06
-3.475266e-06
-1.291484e-06
1.961419e-06
1.961419e-06
-2.482026e-06
-2.482026e-06
-2.400335e-06
-2.400335e-06
-3.376792e-06
-2.883773e-06
-3.376792e-06
-2.883773e-06
-6.572835e-06
-6.572835e-06
-1.232764e-05
-1.232764e-05
-6.355335e-06
-3.858690e-06
-6.355335e-06
-3.858690e-06
-1.602812e-05
-1.602812e-05
-1.203402e-05
-1.203402e-05
-5.019773e-06
-7.576002e-06
-5.019773e-06
-7.576002e-06
-4.470992e-06
-4.470992e-06
-2.022788e-06
-2.022788e-06
-5.556710e-06
-4.640684e-06
-5.556710e-06
-4.640684e-06
-2.052413e-06
4.284412e-09
-2.052413e-06
4.284412e-09
-9.649672e-07
-9.649672e-07
1.015315e-06
-4.621774e-07
1.015315e-06
-4.621774e-07
1.542435e-06
1.542435e-06
-2.371345e-06
-2.371345e-06
-4.104442e-06
-4.104442e-06
-4.487647e-06
-2.155175e-06
-4.487647e-06
-2.155175e-06
-1.857866e-06
-1.857866e-06
-1.285366e-06
-1.285366e-06
-1.420461e-06
-2.060934e-06
-1.420461e-06
-2.060934e-06
-2.606286e-06
-2.606286e-06
-2.052453e-06
-2.052453e-06
-2.794779e-06
-3.431221e-06
-2.794779e-06
-3.431221e-06
-2.759820e-06
-2.759820e-06
-3.896482e-06
-3.896482e-06
1.183105e-06
-7.161625e-08
1.183105e-06
-7.161625e-08
-5.624071e-07
-1.595205e-06
-3.973302e-06
-2.061772e-06
-5.624071e-07
-1.595205e-06
-3.973302e-06
-2.061772e-06
-2.385926e-06
-6.453841e-06
-2.385926e-06
-6.453841e-06
-1.069654e-05
-6.615528e-06
-1.069654e-05
-6.615528e-06
-3.156093e-06
-3.156093e-06
-3.232652e-06
-7.843125e-06
-3.232652e-06
-7.843125e-06
-2.205477e-06
-4.927084e-06
-2.205477e-06
-4.927084e-06
-3.447625e-06
-1.023722e-05
-3.447625e-06
-1.023722e-05
-3.814345e-06
-6.098077e-06
-3.814345e-06
-6.098077e-06
-2.293125e-06
-2.293125e-06
-6.062007e-06
-2.550788e-06
-6.062007e-06
-2.550788e-06
-9.216897e-06
-9.216897e-06
-7.369294e-06
-6.701501e-06
-7.369294e-06
-6.701501e-06
-3.178961e-06
-3.178961e-06
-7.692419e-06
-7.692419e-06
-2.204481e-06
-2.204481e-06
-8.403517e-06
-9.426713e-06
-8.403517e-06
-9.426713e-06
1.011104e-06
1.011104e-06
3.458714e-07
3.458714e-07
-8.124445e-06
-3.236698e-06
-8.124445e-06
-3.236698e-06
-1.103378e-05
-1.103378e-05
-1.177152e-05
-7.954186e-06
-1.177152e-05
-7.954186e-06
-2.312698e-06
-2.312698e-06
-1.569017e-05
-1.569017e-05
-1.381249e-05
-1.381249e-05
-1.174813e-05
-1.319200e-05
-1.174813e-05
-1.319200e-05
-4.461807e-07
-4.461807e-07
-5.780189e-07
-5.780189e-07
-4.183506e-06
-1.606740e-06
-4.183506e-06
-1.606740e-06
-6.689447e-06
-6.689447e-06
-2.586153e-06
1.410263e-07
-2.586153e-06
1.410263e-07
-5.398262e-07
-5.398262e-07
-7.224536e-06
-7.224536e-06
-5.740048e-06
-5.740048e-06
-5.660143e-07
-4.514696e-06
-5.660143e-07
-4.514696e-06
1.806665e-06
1.806665e-06
3.792099e-06
3.792099e-06
-6.818848e-07
-1.647396e-06
-6.818848e-07
-1.647396e-06
5.283941e-07
5.283941e-07
-1.261494e-06
-3.251667e-06
-1.261494e-06
-3.251667e-06
-1.369206e-06
-1.369206e-06
5.013588e-07
5.013588e-07
1.941802e-06
1.941802e-06
3.131426e-06
2.100216e-06
3.131426e-06
2.100216e-06
3.231569e-06
3.231569e-06
2.710251e-06
2.710251e-06
-9.304284e-07
2.335284e-06
-9.304284e-07
2.335284e-06
-3.642806e-06
-3.642806e-06
-2.702997e-06
1.940399e-06
-2.702997e-06
1.940399e-06
4.156887e-06
4.156887e-06
-2.001251e-06
-2.001251e-06
6.066336e-07
6.066336e-07
-2.387495e-06
-4.606660e-06
-2.387495e-06
-4.606660e-06
2.723623e-06
2.723623e-06
3.362731e-06
3.362731e-06
-1.187892e-06
7.768022e-06
-1.187892e-06
7.768022e-06
-3.687892e-06
-3.687892e-06
3.436581e-07
6.241278e-06
3.436581e-07
6.241278e-06
1.854200e-05
1.854200e-05
-4.045277e-06
-4.045277e-06
-2.638506e-06
-2.638506e-06
-4.924655e-06
-2.478742e-06
-4.924655e-06
-2.478742e-06
-3.365151e-06
-3.365151e-06
-2.688150e-06
-2.688150e-06
-6.417947e-06
-6.635056e-06
-6.417947e-06
-6.635056e-06
-4.368706e-06
-4.368706e-06
-5.201732e-06
-5.201732e-06
-4.731247e-06
-7.168827e-06
-4.731247e-06
-7.168827e-06
-4.126482e-06
-4.126482e-06
-3.875648e-06
-3.875648e-06
-3.830577e-06
-2.975433e-06
-3.830577e-06
-2.975433e-06
-9.286696e-07
-9.286696e-07
3.235353e-06
3.235353e-06
2.055670e-06
-1.180763e-07
2.055670e-06
-1.180763e-07
2.318346e-06
2.318346e-06
3.502977e-07
3.502977e-07
-6.730048e-07
1.821275e-05
-6.730048e-07
1.821275e-05
3.815413e-06
3.815413e-06
8.491646e-07
-4.864413e-06
8.491646e-07
-4.864413e-06
9.017836e-06
9.017836e-06
4.222745e-07
4.222745e-07
-3.141810e-06
-3.141810e-06
-8.443964e-07
-1.623344e-06
-8.443964e-07
-1.623344e-06
-7.442150e-06
-7.442150e-06
-5.165051e-06
-5.165051e-06
-2.867886e-06
-5.361550e-06
-2.867886e-06
-5.361550e-06
-4.337994e-06
-4.337994e-06
-3.495809e-06
-3.495809e-06
-1.562165e-07
-3.241513e-07
-1.562165e-07
-3.241513e-07
-1.905104e-06
-1.905104e-06
-1.741795e-06
-1.741795e-06
3.555676e-08
3.341090e-07
3.555676e-08
3.341090e-07
-8.896743e-07
-8.896743e-07
1.540140e-07
1.540140e-07
-3.241973e-06
-1.567954e-06
-3.241973e-06
-1.567954e-06
-9.099578e-07
-9.099578e-07
-3.074123e-06
-3.074123e-06
-3.546479e-06
-3.546479e-06
-7.381551e-07
-7.381551e-07
-1.245891e-06
-4.051669e-06
-1.245891e-06
-4.051669e-06
-1.748075e-06
-1.748075e-06
-9.233968e-07
-9.233968e-07
2.251639e-06
2.524030e-06
2.251639e-06
2.524030e-06
6.203457e-06
6.203457e-06
4.639160e-06
4.639160e-06
3.644155e-06
4.992270e-06
3.644155e-06
4.992270e-06
-1.651290e-07
-1.651290e-07
1.387071e-06
1.387071e-06
3.616419e-07
-4.204848e-06
3.616419e-07
-4.204848e-06
-1.622827e-06
-1.622827e-06
3.654827e-06
3.654827e-06
5.387913e-06
2.394262e-06
5.387913e-06
2.394262e-06
1.601323e-07
1.601323e-07
2.822690e-06
2.822690e-06
3.380402e-06
1.534312e-07
3.380402e-06
1.534312e-07
-3.270348e-06
-3.270348e-06
-1.601445e-06
-1.601445e-06
-1.308573e-05
2.794156e-06
-1.308573e-05
2.794156e-06
-4.016535e-06
1.771623e-05
-4.016535e-06
1.771623e-05
5.692749e-06
1.587202e-05
5.692749e-06
1.587202e-05
1.325484e-06
6.204770e-06
1.325484e-06
6.204770e-06
5.882278e-07
4.159558e-07
8.284933e-07
2.461830e-06
5.882278e-07
4.159558e-07
8.284933e-07
2.461830e-06
-3.503223e-07
-2.717376e-06
-3.503223e-07
-2.717376e-06
-1.023554e-06
-9.465478e-07
-1.023554e-06
-9.465478e-07
1.309051e-06
1.309051e-06
5.574758e-06
1.098118e-06
3.004434e-06
2.322239e-06
5.574758e-06
1.098118e-06
3.004434e-06
2.322239e-06
-3.900284e-06
-6.714757e-07
-3.900284e-06
-6.714757e-07
3.506861e-06
3.065994e-06
3.506861e-06
3.065994e-06
1.095706e-06
1.095706e-06
3.489452e-07
2.298584e-06
-1.872854e-06
-3.416595e-06
3.489452e-07
2.298584e-06
-1.872854e-06
-3.416595e-06
-1.921833e-06
-2.276827e-06
-1.921833e-06
-2.276827e-06
-7.367818e-07
-3.001139e-06
-7.367818e-07
-3.001139e-06
-2.300900e-06
-2.300900e-06
7.503158e-06
4.960015e-06
-3.151180e-06
7.503158e-06
4.960015e-06
-3.151180e-06
3.179449e-06
3.656610e-06
3.179449e-06
3.656610e-06
1.328435e-06
-2.682730e-07
1.328435e-06
-2.682730e-07
-5.684604e-06
-5.684604e-06
6.519104e-07
-2.079517e-06
-5.505007e-06
-7.443209e-06
6.519104e-07
-2.079517e-06
-5.505007e-06
-7.443209e-06
-3.056508e-06
-3.056508e-06
-2.453091e-06
-2.453091e-06
-2.467130e-06
-3.257210e-06
-1.534645e-06
-1.733250e-06
-2.467130e-06
-3.257210e-06
-1.534645e-06
-1.733250e-06
-7.455284e-06
-1.166457e-06
-7.455284e-06
-1.166457e-06
-6.877953e-07
4.187884e-06
-6.877953e-07
4.187884e-06
2.208010e-06
2.208010e-06
3.652371e-06
8.249133e-06
1.348415e-05
2.674499e-05
3.652371e-06
8.249133e-06
1.348415e-05
2.674499e-05
7.419115e-07
7.419115e-07
8.253028e-06
8.253028e-06
3.193464e-05
3.193464e-05
-3.763749e-06
-2.741401e-06
-3.763749e-06
-2.741401e-06
-1.423430e-06
-1.423430e-06
-8.267778e-07
-1.467256e-06
-8.267778e-07
-1.467256e-06
1.775343e-06
1.775343e-06
1.584769e-06
3.971811e-06
2.880036e-06
2.112470e-06
1.584769e-06
3.971811e-06
2.880036e-06
2.112470e-06
3.393433e-06
3.393433e-06
3.388075e-06
-9.480224e-07
3.388075e-06
-9.480224e-07
-1.736139e-06
-1.736139e-06
8.030496e-07
8.082970e-07
2.247825e-06
1.421460e-07
8.030496e-07
8.082970e-07
2.247825e-06
1.421460e-07
-1.231459e-06
-5.123014e-07
-1.231459e-06
-5.123014e-07
9.600757e-07
9.600757e-07
1.597553e-07
-2.573996e-06
1.597553e-07
-2.573996e-06
-2.837907e-07
-2.837907e-07
-1.463158e-05
-1.126632e-05
-4.077182e-06
-5.446550e-06
-1.463158e-05
-1.126632e-05
-4.077182e-06
-5.446550e-06
-4.168463e-06
-4.168463e-06
9.218987e-06
9.218987e-06
4.792212e-06
2.895525e-06
4.792212e-06
2.895525e-06
1.299601e-05
1.299601e-05
8.261749e-07
4.682180e-06
8.261749e-07
4.682180e-06
1.239929e-06
-3.632135e-06
-1.509493e-06
1.239929e-06
-3.632135e-06
-1.509493e-06
-6.272045e-06
-6.272045e-06
-2.266456e-06
-2.266456e-06
-5.300580e-06
-2.946101e-06
-1.459740e-06
2.100846e-06
-5.300580e-06
-2.946101e-06
-1.459740e-06
2.100846e-06
-7.476758e-06
-4.423882e-06
-7.476758e-06
-4.423882e-06
5.710516e-06
5.710516e-06
1.530075e-05
1.530075e-05
-1.338493e-05
-1.456054e-05
-3.057869e-06
-8.834329e-06
-1.338493e-05
-1.456054e-05
-3.057869e-06
-8.834329e-06
-9.256911e-06
-3.080682e-07
-9.256911e-06
-3.080682e-07
-9.353412e-06
-7.098691e-06
-9.353412e-06
-7.098691e-06
-6.926790e-06
-6.926790e-06
-3.247897e-06
-5.173354e-07
-1.355254e-07
2.833715e-06
-3.247897e-06
-5.173354e-07
-1.355254e-07
2.833715e-06
-5.691721e-06
-5.691721e-06
-1.032950e-06
-1.032950e-06
-3.831995e-06
-3.831995e-06
-6.894129e-06
-6.894129e-06
-1.617681e-06
-2.530133e-06
-1.617681e-06
-2.530133e-06
-2.765721e-05
-1.606142e-05
-1.082529e-05
-2.252463e-05
-2.765721e-05
-1.606142e-05
-1.082529e-05
-2.252463e-05
-9.431132e-06
-6.825230e-06
-9.431132e-06
-6.825230e-06
8.371129e-06
-3.634325e-05
8.371129e-06
-3.634325e-05
-6.584115e-05
-6.584115e-05
-5.700762e-06
-7.551117e-06
-5.700762e-06
-7.551117e-06
-4.748496e-06
-4.748496e-06
-2.877591e-06
-6.184812e-06
-2.877591e-06
-6.184812e-06
-7.773533e-06
-7.773533e-06
3.262892e-06
1.670748e-06
3.262892e-06
1.670748e-06
5.929102e-06
5.929102e-06
8.699774e-06
8.699774e-06
-5.367290e-06
-5.367290e-06
-2.029063e-05
-1.853767e-05
-2.029063e-05
-1.853767e-05
-3.092241e-05
-3.092241e-05
-9.538670e-07
6.514458e-06
-9.538670e-07
6.514458e-06
-4.581947e-06
-9.186092e-07
-4.581947e-06
-9.186092e-07
-4.307023e-07
4.264333e-07
8.248193e-07
-1.970722e-06
-4.307023e-07
4.264333e-07
8.248193e-07
-1.970722e-06
-9.336450e-07
4.625410e-07
-9.336450e-07
4.625410e-07
-9.784138e-07
-9.784138e-07
1.368358e-06
-3.574072e-06
1.368358e-06
-3.574072e-06
2.122132e-06
2.122132e-06
4.777536e-07
4.777536e-07
-2.877049e-06
-2.877049e-06
-7.491837e-07
-3.924101e-06
-7.491837e-07
-3.924101e-06
-3.263063e-07
-2.663704e-06
-3.263063e-07
-2.663704e-06
-8.677004e-06
-8.677004e-06
-4.480273e-06
-4.480273e-06
3.996732e-06
3.996732e-06
-2.397493e-06
-2.397493e-06
-4.288307e-06
-4.288307e-06
-3.161932e-06
-3.161932e-06
-1.329583e-06
-7.329740e-07
-1.329583e-06
-7.329740e-07
-7.505137e-06
-9.801678e-06
-7.505137e-06
-9.801678e-06
1.132785e-05
1.132785e-05
-4.444715e-06
-4.444715e-06
4.906946e-06
4.906946e-06
1.107853e-06
1.107853e-06
4.085909e-07
8.028514e-06
4.085909e-07
8.028514e-06
-3.002511e-06
-3.002511e-06
4.981663e-07
1.457144e-06
4.981663e-07
1.457144e-06
-4.001554e-07
-4.001554e-07
-4.466846e-07
-1.201107e-06
-4.466846e-07
-1.201107e-06
-3.182191e-06
2.091558e-06
-3.182191e-06
2.091558e-06
8.388487e-06
9.638302e-08
8.388487e-06
9.638302e-08
-6.794880e-06
9.945918e-07
-6.794880e-06
9.945918e-07
-2.219274e-06
-2.501147e-06
-2.219274e-06
-2.501147e-06
-4.681605e-07
5.434832e-06
-4.681605e-07
5.434832e-06
3.066546e-06
1.828440e-06
3.066546e-06
1.828440e-06
1.382693e-06
1.071126e-06
1.382693e-06
1.071126e-06
1.942327e-06
3.267017e-06
1.942327e-06
3.267017e-06
4.089002e-08
-4.030878e-07
4.089002e-08
-4.030878e-07
-3.088444e-06
-3.589992e-09
-3.088444e-06
-3.589992e-09
-2.022901e-07
-7.624837e-07
-2.022901e-07
-7.624837e-07
-3.078726e-06
-9.348586e-07
-3.078726e-06
-9.348586e-07
2.126288e-06
1.783887e-06
2.126288e-06
1.783887e-06
-2.359102e-06
-3.367542e-06
-2.359102e-06
-3.367542e-06
1.128128e-06
-1.847031e-06
1.128128e-06
-1.847031e-06
-2.841910e-06
-3.950060e-06
-2.841910e-06
-3.950060e-06
-9.804879e-07
-1.339571e-06
-9.804879e-07
-1.339571e-06
7.797250e-09
1.021802e-06
7.797250e-09
1.021802e-06
2.080099e-06
3.121520e-06
2.080099e-06
3.121520e-06
-1.973155e-06
6.724988e-08
-1.973155e-06
6.724988e-08
-9.691213e-07
1.151579e-06
-9.691213e-07
1.151579e-06
-2.471746e-07
8.808985e-08
-2.471746e-07
8.808985e-08
1.626297e-06
-1.394487e-06
1.626297e-06
-1.394487e-06
1.239296e-06
2.435728e-06
1.239296e-06
2.435728e-06
5.698349e-07
4.262301e-07
5.698349e-07
4.262301e-07
-3.338817e-06
1.594797e-06
-3.338817e-06
1.594797e-06
2.255013e-06
-3.389599e-06
2.255013e-06
-3.389599e-06
3.741461e-06
-8.410065e-07
3.741461e-06
-8.410065e-07
-1.222965e-06
-5.749354e-06
-1.222965e-06
-5.749354e-06
1.339288e-06
3.905606e-06
1.339288e-06
3.905606e-06
-1.164724e-06
4.731626e-06
-1.164724e-06
4.731626e-06
3.982209e-06
4.442663e-06
3.982209e-06
4.442663e-06
-3.193936e-07
1.295666e-06
-3.193936e-07
1.295666e-06
-1.497571e-07
-2.083494e-06
-1.497571e-07
-2.083494e-06
1.588483e-06
1.502004e-06
1.588483e-06
1.502004e-06
-8.907199e-08
-3.243670e-06
-8.907199e-08
-3.243670e-06
1.364574e-06
2.552560e-07
1.364574e-06
2.552560e-07
3.598643e-07
-1.190701e-06
3.598643e-07
-1.190701e-06
3.000623e-06
3.112622e-06
3.000623e-06
3.112622e-06
4.103761e-06
2.379499e-06
4.103761e-06
2.379499e-06
1.623256e-06
3.035525e-06
1.623256e-06
3.035525e-06
-8.432255e-07
-8.432255e-07
4.136440e-06
4.136440e-06
-1.149471e-06
2.575395e-06
-1.149471e-06
2.575395e-06
1.367744e-06
1.367744e-06
-4.040435e-07
-4.040435e-07
4.240217e-08
-1.556128e-06
4.240217e-08
-1.556128e-06
2.150935e-07
2.150935e-07
-2.576656e-06
-2.576656e-06
-3.224425e-06
-3.725826e-06
-3.224425e-06
-3.725826e-06
-2.895043e-06
-2.895043e-06
1.325341e-07
1.325341e-07
2.584909e-06
3.012660e-07
2.584909e-06
3.012660e-07
-1.908842e-06
-1.908842e-06
-3.483562e-06
-3.483562e-06
-1.637357e-06
3.248035e-07
-1.637357e-06
3.248035e-07
1.426761e-06
1.426761e-06
4.046093e-06
4.046093e-06
1.456951e-06
2.186749e-06
1.456951e-06
2.186749e-06
1.581644e-06
1.581644e-06
-1.174539e-06
-1.174539e-06
4.363803e-06
8.344328e-07
4.363803e-06
8.344328e-07
-5.018512e-07
-5.018512e-07
1.981172e-06
1.981172e-06
5.900055e-07
4.029909e-06
5.900055e-07
4.029909e-06
9.419967e-07
9.419967e-07
-3.607864e-06
-3.607864e-06
6.297331e-07
9.974418e-07
6.297331e-07
9.974418e-07
-4.356757e-06
-4.356757e-06
1.644640e-06
1.644640e-06
-1.331161e-06
-3.276678e-06
-1.331161e-06
-3.276678e-06
3.705389e-06
3.705389e-06
-5.974060e-09
-5.974060e-09
-5.596125e-07
3.984062e-07
-5.596125e-07
3.984062e-07
1.605921e-06
1.605921e-06
2.260843e-06
2.260843e-06
-2.886529e-06
-7.448945e-07
-2.886529e-06
-7.448945e-07
-7.499265e-07
-7.499265e-07
8.878944e-07
8.878944e-07
1.096684e-06
-1.606553e-06
1.096684e-06
-1.606553e-06
-2.162159e-07
-2.162159e-07
-3.376647e-06
-3.376647e-06
-7.115659e-06
-2.956931e-06
-7.115659e-06
-2.956931e-06
3.934969e-06
3.934969e-06
-9.763096e-07
-9.763096e-07
-3.877666e-08
-1.071107e-07
-3.877666e-08
-1.071107e-07
5.455347e-08
5.455347e-08
2.703146e-07
2.703146e-07
-1.336198e-06
1.206591e-06
-1.336198e-06
1.206591e-06
-2.463629e-06
-2.463629e-06
6.255388e-07
6.255388e-07
1.656176e-06
-1.342209e-06
1.656176e-06
-1.342209e-06
-4.326660e-07
-4.326660e-07
-4.398018e-07
-4.398018e-07
-2.223030e-06
-2.396581e-06
-2.223030e-06
-2.396581e-06
-1.292909e-06
-1.292909e-06
-1.919260e-06
-1.919260e-06
-5.685019e-07
-2.872900e-08
-5.685019e-07
-2.872900e-08
2.225559e-06
2.225559e-06
-7.481703e-08
-7.481703e-08
2.396753e-06
2.219892e-06
2.396753e-06
2.219892e-06
-5.835745e-07
-5.835745e-07
3.095963e-06
3.095963e-06
-1.492019e-06
-3.191108e-09
-1.492019e-06
-3.191108e-09
2.591588e-06
2.591588e-06
1.193268e-07
1.193268e-07
2.098515e-06
-5.874938e-07
2.098515e-06
-5.874938e-07
1.760649e-06
1.760649e-06
2.429131e-06
2.429131e-06
2.319935e-06
3.673593e-06
2.319935e-06
3.673593e-06
-2.184506e-06
-2.184506e-06
-2.045175e-06
-2.045175e-06
-6.845999e-07
-1.071498e-06
-6.845999e-07
-1.071498e-06
-3.371221e-07
-3.371221e-07
-1.585166e-06
-1.585166e-06
-2.771946e-06
6.384552e-07
-2.771946e-06
6.384552e-07
-3.287762e-06
-3.287762e-06
-2.416214e-06
-2.416214e-06
2.298105e-06
-2.457180e-06
2.298105e-06
-2.457180e-06
9.553530e-07
9.553530e-07
1.197737e-06
1.197737e-06
-5.619146e-08
1.878568e-06
-5.619146e-08
1.878568e-06
-2.713794e-06
-2.713794e-06
-5.642712e-06
-5.642712e-06
-3.503868e-06
-1.667952e-06
-3.503868e-06
-1.667952e-06
-2.015793e-06
-2.015793e-06
5.968982e-07
5.968982e-07
-8.860861e-07
-1.114135e-06
-8.860861e-07
-1.114135e-06
1.960213e-06
1.960213e-06
-2.860916e-06
-2.860916e-06
-3.157727e-06
2.012046e-07
-3.157727e-06
2.012046e-07
-3.432609e-06
-3.432609e-06
4.745982e-07
4.745982e-07
-1.584128e-06
-4.196635e-06
-1.584128e-06
-4.196635e-06
-1.313244e-06
-1.313244e-06
-1.496931e-06
-1.496931e-06
-1.340325e-06
-2.027766e-06
-1.340325e-06
-2.027766e-06
2.302456e-06
2.302456e-06
1.497292e-06
1.497292e-06
2.820241e-09
1.593885e-06
2.820241e-09
1.593885e-06
1.578643e-06
1.578643e-06
4.655209e-06
4.655209e-06
4.655037e-06
1.319241e-07
4.655037e-06
1.319241e-07
3.032294e-06
3.032294e-06
-8.886772e-07
-8.886772e-07
2.934752e-06
5.985329e-06
2.934752e-06
5.985329e-06
-7.698027e-07
-7.698027e-07
1.561765e-06
1.561765e-06
-4.282824e-06
-2.192833e-06
-4.282824e-06
-2.192833e-06
7.970717e-07
7.970717e-07
-1.127456e-07
-1.127456e-07
-4.725096e-06
-4.947669e-06
-4.725096e-06
-4.947669e-06
3.245097e-07
3.245097e-07
-1.548934e-06
-1.548934e-06
-1.341572e-06
-1.495057e-06
-1.341572e-06
-1.495057e-06
-3.827705e-07
-3.827705e-07
9.400342e-07
9.400342e-07
4.060943e-06
9.285202e-07
4.060943e-06
9.285202e-07
1.149615e-06
1.149615e-06
2.588449e-06
2.588449e-06
4.379448e-07
1.841903e-06
4.379448e-07
1.841903e-06
-1.947963e-07
-1.947963e-07
-1.531253e-06
-1.531253e-06
-1.290898e-06
-6.139393e-07
-1.290898e-06
-6.139393e-07
-1.263496e-06
-1.263496e-06
-2.374488e-06
-2.374488e-06
-2.324464e-06
-1.531427e-06
-2.324464e-06
-1.531427e-06
1.253435e-06
1.253435e-06
-2.693156e-06
-2.693156e-06
-3.072297e-06
2.487635e-06
-3.072297e-06
2.487635e-06
-2.087321e-06
-2.087321e-06
1.233083e-07
1.233083e-07
3.402960e-06
-2.144650e-06
3.402960e-06
-2.144650e-06
-6.988226e-07
-6.988226e-07
-2.880460e-06
-2.880460e-06
-3.182859e-06
2.179209e-06
-3.182859e-06
2.179209e-06
-1.418323e-06
-1.418323e-06
7.638624e-07
7.638624e-07
2.645327e-06
-1.427101e-07
2.645327e-06
-1.427101e-07
-9.385575e-07
-9.385575e-07
-5.830612e-07
-5.830612e-07
1.333173e-07
-2.407236e-06
1.333173e-07
-2.407236e-06
9.368443e-07
9.368443e-07
1.496626e-06
1.496626e-06
-7.086508e-08
2.643348e-06
-7.086508e-08
2.643348e-06
3.800456e-06
3.800456e-06
2.654006e-06
2.654006e-06
2.847478e-07
1.312922e-06
2.847478e-07
1.312922e-06
-3.708436e-06
-3.708436e-06
-5.312651e-06
-5.312651e-06
-2.329885e-06
-3.795832e-06
-2.329885e-06
-3.795832e-06
-4.089860e-06
-4.089860e-06
-4.064102e-06
-4.064102e-06
-1.427334e-06
-1.251107e-06
-1.427334e-06
-1.251107e-06
-3.264201e-07
-3.264201e-07
4.556636e-07
4.556636e-07
1.681145e-06
3.625786e-06
1.681145e-06
3.625786e-06
-1.631630e-06
-1.631630e-06
6.652431e-07
6.652431e-07
-2.747594e-06
-6.513625e-06
-2.747594e-06
-6.513625e-06
3.507315e-06
3.507315e-06
2.835057e-06
2.835057e-06
5.879960e-06
6.741084e-06
5.879960e-06
6.741084e-06
5.281580e-07
5.281580e-07
-3.823502e-07
-3.823502e-07
1.310861e-07
6.978454e-07
1.310861e-07
6.978454e-07
6.671770e-07
6.671770e-07
1.561288e-06
1.561288e-06
5.461990e-06
3.217892e-06
5.461990e-06
3.217892e-06
6.794294e-07
1.516146e-06
6.794294e-07
1.516146e-06
4.930266e-07
4.930266e-07
2.912020e-07
3.603239e-07
2.912020e-07
3.603239e-07
2.750538e-06
2.750538e-06
4.161594e-07
4.161594e-07
1.976495e-07
1.976495e-07
2.906333e-07
6.028717e-07
2.906333e-07
6.028717e-07
-8.018720e-08
-8.018720e-08
-1.228178e-07
-1.228178e-07
3.016957e-07
2.746396e-07
3.016957e-07
2.746396e-07
4.629929e-07
4.629929e-07
3.845489e-07
3.845489e-07
2.188268e-07
1.631151e-07
2.188268e-07
1.631151e-07
-5.348897e-07
-5.348897e-07
-7.012182e-07
-7.012182e-07
-4.102328e-07
-2.595360e-07
-4.102328e-07
-2.595360e-07
-5.615399e-07
-5.615399e-07
-3.433863e-07
-3.433863e-07
-2.111227e-07
-5.300235e-08
-2.111227e-07
-5.300235e-08
5.740311e-08
5.740311e-08
5.883987e-07
5.883987e-07
9.070962e-07
2.510496e-07
9.070962e-07
2.510496e-07
1.225736e-06
1.225736e-06
1.512907e-06
1.512907e-06
1.111485e-06
9.891508e-07
1.111485e-06
9.891508e-07
9.916520e-08
2.520735e-06
9.916520e-08
2.520735e-06
5.037164e-08
5.037164e-08
-1.999415e-07
1.519671e-07
-1.999415e-07
1.519671e-07
2.228011e-06
2.228011e-06
5.685862e-07
5.685862e-07
2.320141e-07
2.320141e-07
-3.276120e-07
-3.193293e-07
-3.276120e-07
-3.193293e-07
3.712050e-07
3.712050e-07
3.752465e-07
3.752465e-07
1.740012e-07
3.329628e-07
1.740012e-07
3.329628e-07
-1.602487e-07
-1.602487e-07
1.572549e-07
1.572549e-07
3.134293e-07
-1.659871e-07
3.134293e-07
-1.659871e-07
1.718602e-07
1.718602e-07
2.090861e-08
2.090861e-08
1.092669e-07
3.599574e-07
1.092669e-07
3.599574e-07
1.881268e-07
1.881268e-07
-2.621757e-07
-2.621757e-07
-1.378470e-07
2.156013e-08
-1.378470e-07
2.156013e-08
-1.910777e-07
-1.910777e-07
6.404350e-07
6.404350e-07
-6.347213e-08
-2.391435e-07
-6.347213e-08
-2.391435e-07
1.097667e-06
1.097667e-06
1.201820e-06
1.201820e-06
5.794580e-07
3.173670e-07
5.794580e-07
3.173670e-07
2.059486e-07
1.982969e-06
2.059486e-07
1.982969e-06
-7.925683e-08
-7.925683e-08
4.089301e-09
-5.275594e-08
4.089301e-09
-5.275594e-08
8.326693e-07
8.326693e-07
-6.403535e-07
-6.403535e-07
-3.101662e-07
-3.101662e-07
-7.638892e-08
-2.102272e-07
-7.638892e-08
-2.102272e-07
3.553108e-07
3.553108e-07
-1.720142e-07
-1.720142e-07
-3.204676e-07
4.907844e-08
-3.204676e-07
4.907844e-08
-3.648913e-07
-3.648913e-07
8.769964e-08
8.769964e-08
-8.880664e-08
-4.278541e-07
-8.880664e-08
-4.278541e-07
2.693811e-07
2.693811e-07
-1.078770e-07
-1.078770e-07
-9.666867e-08
2.807884e-07
-9.666867e-08
2.807884e-07
-2.473224e-07
-2.473224e-07
1.709454e-07
1.709454e-07
1.878770e-07
-3.052948e-07
1.878770e-07
-3.052948e-07
1.741080e-07
1.741080e-07
-2.934286e-07
-2.934286e-07
-3.377921e-07
2.507938e-07
-3.377921e-07
2.507938e-07
-2.691519e-07
-2.691519e-07
7.684354e-08
7.684354e-08
7.382252e-08
-3.295280e-07
7.382252e-08
-3.295280e-07
-1.979765e-07
2.765941e-07
-1.979765e-07
2.765941e-07
-3.158113e-07
-3.158113e-07
-8.699273e-08
9.701453e-08
-8.699273e-08
9.701453e-08
1.929474e-07
1.929474e-07
-3.099639e-07
-3.099639e-07
-7.487720e-08
-7.487720e-08
-3.623318e-08
-1.832293e-07
-3.623318e-08
-1.832293e-07
2.031600e-08
2.031600e-08
-1.016751e-08
-1.016751e-08
1.359298e-07
-1.504281e-08
1.359298e-07
-1.504281e-08
-4.121641e-07
-4.121641e-07
-3.783681e-07
-3.783681e-07
-6.463735e-07
-4.087008e-07
-6.463735e-07
-4.087008e-07
3.975586e-07
3.975586e-07
2.845557e-07
2.845557e-07
7.878402e-07
4.907911e-07
7.878402e-07
4.907911e-07
-5.682785e-07
-5.682785e-07
-3.245689e-07
-3.245689e-07
-4.127139e-07
-5.007803e-07
-4.127139e-07
-5.007803e-07
2.502189e-08
2.502189e-08
-6.712340e-07
-6.712340e-07
-5.544814e-07
2.381410e-07
-5.544814e-07
2.381410e-07
-6.474598e-07
-6.474598e-07
-1.888129e-07
-1.888129e-07
-2.316105e-07
-6.686397e-07
-2.316105e-07
-6.686397e-07
-6.328145e-07
5.541306e-07
-6.328145e-07
5.541306e-07
-2.924924e-07
-2.924924e-07
-7.664764e-07
-1.700370e-06
-7.664764e-07
-1.700370e-06
2.186213e-07
2.186213e-07
3.771858e-07
3.771858e-07
-5.437944e-08
-5.437944e-08
-6.939612e-07
-1.750361e-07
-6.939612e-07
-1.750361e-07
-4.025599e-07
-4.025599e-07
2.231784e-08
2.231784e-08
-3.455541e-08
-3.304615e-07
-3.455541e-08
-3.304615e-07
-2.357442e-07
-2.357442e-07
-4.192350e-07
-4.192350e-07
-4.108216e-08
-2.486555e-07
-4.108216e-08
-2.486555e-07
3.068778e-07
3.068778e-07
6.106942e-07
6.106942e-07
2.207944e-07
7.492820e-08
2.207944e-07
7.492820e-08
-2.343042e-07
-2.343042e-07
-2.806605e-07
-2.806605e-07
-4.919673e-07
-1.428845e-07
-4.919673e-07
-1.428845e-07
2.493515e-07
2.493515e-07
-4.579469e-07
-4.579469e-07
-7.441936e-07
-4.813673e-07
-7.441936e-07
-4.813673e-07
-3.905050e-07
-3.905050e-07
3.339462e-07
3.339462e-07
1.039084e-06
1.041578e-07
1.039084e-06
1.041578e-07
-1.567083e-06
-6.059148e-07
-1.567083e-06
-6.059148e-07
-5.615982e-07
-5.615982e-07
-4.658410e-07
-8.707396e-07
-4.658410e-07
-8.707396e-07
-1.367996e-06
-1.367996e-06
-7.746138e-07
-7.746138e-07
-1.049409e-06
-1.049409e-06
-6.433850e-07
-8.906252e-07
-6.433850e-07
-8.906252e-07
-3.019930e-07
-3.019930e-07
-3.088014e-07
-3.088014e-07
-2.635313e-07
-1.131600e-07
-2.635313e-07
-1.131600e-07
-2.946413e-07
-2.946413e-07
1.129199e-07
1.129199e-07
-6.244741e-08
-2.412970e-07
-6.244741e-08
-2.412970e-07
-2.044970e-11
-2.044970e-11
1.508535e-07
1.508535e-07
1.910680e-07
-7.141615e-08
1.910680e-07
-7.141615e-08
4.715692e-08
4.715692e-08
-2.778587e-07
-2.778587e-07
-1.649913e-07
5.308929e-08
-1.649913e-07
5.308929e-08
-4.327042e-07
-4.327042e-07
-5.353368e-07
-5.353368e-07
-1.233202e-07
1.534131e-07
-1.233202e-07
1.534131e-07
1.318511e-07
1.318511e-07
6.505197e-07
6.505197e-07
-3.185728e-07
-4.411744e-07
-3.185728e-07
-4.411744e-07
9.511632e-07
1.480105e-06
7.704607e-07
1.047329e-06
9.511632e-07
1.480105e-06
7.704607e-07
1.047329e-06
-1.101695e-08
-3.487494e-07
-1.101695e-08
-3.487494e-07
-6.399451e-07
-6.421720e-07
-6.399451e-07
-6.421720e-07
1.653867e-07
1.653867e-07
-1.300584e-06
-1.080224e-06
-1.300584e-06
-1.080224e-06
5.897296e-07
5.897296e-07
-4.550115e-07
-1.210053e-06
-4.550115e-07
-1.210053e-06
-1.837963e-06
-1.837963e-06
1.465635e-06
3.698065e-07
1.465635e-06
3.698065e-07
-5.862362e-07
-5.862362e-07
1.288916e-06
1.500406e-06
1.288916e-06
1.500406e-06
1.472480e-06
1.472480e-06
-2.821430e-06
-1.389139e-06
-2.821430e-06
-1.389139e-06
-1.148816e-07
-1.148816e-07
3.336096e-07
4.173436e-07
3.336096e-07
4.173436e-07
-6.415545e-07
-6.415545e-07
6.794205e-06
3.121792e-06
6.794205e-06
3.121792e-06
4.422017e-06
4.422017e-06
3.178088e-06
1.482448e-06
3.178088e-06
1.482448e-06
-1.120019e-07
-1.120019e-07
-2.948889e-06
-3.463220e-06
-2.948889e-06
-3.463220e-06
1.868189e-06
1.868189e-06
2.479797e-06
-1.359841e-08
2.479797e-06
-1.359841e-08
-1.057712e-06
-1.057712e-06
5.022990e-07
1.714044e-06
5.022990e-07
1.714044e-06
-3.473104e-06
-3.473104e-06
-8.575577e-06
-2.332324e-06
-8.575577e-06
-2.332324e-06
1.765910e-06
1.765910e-06
1.149941e-06
1.832070e-06
1.149941e-06
1.832070e-06
4.162702e-06
2.299205e-06
4.162702e-06
2.299205e-06
-2.244161e-06
2.455830e-07
-2.244161e-06
2.455830e-07
2.697088e-06
-1.341450e-06
2.697088e-06
-1.341450e-06
-3.058149e-06
-3.058149e-06
1.077086e-06
1.077086e-06
-2.548703e-06
-2.548703e-06
-1.271548e-07
3.815465e-07
-1.271548e-07
3.815465e-07
-4.033234e-06
-4.033234e-06
-2.377668e-06
-2.377668e-06
-2.621203e-07
-2.621203e-07
1.797063e-06
1.797063e-06
1.762609e-06
1.667767e-06
1.762609e-06
1.667767e-06
2.331953e-06
2.331953e-06
9.716044e-07
9.716044e-07
-1.132872e-06
-1.132872e-06
-3.068919e-06
-3.068919e-06
-4.744775e-06
-4.169494e-06
-4.744775e-06
-4.169494e-06
-4.365375e-06
-4.365375e-06
-3.257128e-06
-3.257128e-06
-1.560873e-07
-1.560873e-07
-1.297517e-06
-1.297517e-06
-5.312996e-06
-1.937874e-07
-5.312996e-06
-1.937874e-07
1.244127e-06
1.244127e-06
-1.046625e-06
-1.046625e-06
-2.896206e-06
-2.896206e-06
-5.844461e-06
-5.844461e-06
1.790843e-06
-5.911344e-07
1.790843e-06
-5.911344e-07
1.556717e-06
1.556717e-06
3.019462e-06
3.019462e-06
-1.018669e-06
-1.018669e-06
4.709314e-06
4.709314e-06
4.364964e-06
-4.143424e-06
4.364964e-06
-4.143424e-06
-2.441302e-06
-2.441302e-06
1.660555e-06
1.660555e-06
2.799074e-06
2.799074e-06
-8.028574e-07
-8.028574e-07
-5.889888e-07
1.597325e-06
-5.889888e-07
1.597325e-06
-2.442944e-06
-2.442944e-06
5.414917e-07
5.414917e-07
1.006166e-06
1.006166e-06
2.329270e-07
2.329270e-07
-8.166363e-07
-3.832529e-07
-8.166363e-07
-3.832529e-07
-2.775956e-06
-2.775956e-06
-1.115995e-06
-1.115995e-06
7.050418e-07
-1.751198e-06
7.050418e-07
-1.751198e-06
1.619976e-06
1.619976e-06
4.768114e-07
4.768114e-07
-4.108959e-08
1.875882e-06
-4.108959e-08
1.875882e-06
3.677755e-06
3.677755e-06
8.852348e-07
8.852348e-07
1.861117e-06
4.139158e-06
1.861117e-06
4.139158e-06
-1.118733e-06
-1.118733e-06
-6.097082e-07
-6.097082e-07
-3.841508e-06
-2.030509e-06
-3.841508e-06
-2.030509e-06
-6.102715e-07
-6.102715e-07
-8.096598e-07
-8.096598e-07
-8.664165e-07
-2.721600e-06
-8.664165e-07
-2.721600e-06
-9.403848e-08
-9.403848e-08
1.816863e-06
1.816863e-06
-1.185761e-06
-4.023280e-06
-1.185761e-06
-4.023280e-06
8.999627e-07
8.999627e-07
-9.762041e-07
-9.762041e-07
1.236532e-06
9.990939e-07
1.236532e-06
9.990939e-07
-2.656579e-06
-2.656579e-06
-1.980884e-06
-1.980884e-06
-1.129903e-06
-5.112033e-07
-1.129903e-06
-5.112033e-07
-2.929290e-06
-2.929290e-06
-3.774657e-06
-3.774657e-06
-2.873564e-07
1.710935e-06
-2.873564e-07
1.710935e-06
-1.656294e-06
-1.656294e-06
2.382633e-06
2.382633e-06
1.550032e-06
-1.418080e-06
1.550032e-06
-1.418080e-06
3.344012e-06
3.344012e-06
1.423241e-06
1.423241e-06
1.312041e-06
3.038487e-06
1.312041e-06
3.038487e-06
2.639585e-06
2.639585e-06
2.853806e-06
2.853806e-06
5.142743e-07
6.068582e-07
5.142743e-07
6.068582e-07
1.727695e-07
1.727695e-07
-9.508747e-07
-9.508747e-07
-1.553938e-06
4.667974e-08
-1.553938e-06
4.667974e-08
7.375466e-07
7.375466e-07
2.711851e-07
2.711851e-07
-3.018188e-07
-8.372602e-07
-3.018188e-07
-8.372602e-07
1.948215e-06
1.948215e-06
1.518174e-07
1.518174e-07
1.408673e-06
4.026391e-06
1.408673e-06
4.026391e-06
-1.482708e-07
-1.482708e-07
-2.792704e-06
-2.792704e-06
-3.591480e-06
3.160314e-07
-3.591480e-06
3.160314e-07
-3.306668e-06
-3.306668e-06
-9.023871e-07
-9.023871e-07
-1.314290e-06
-4.594660e-06
-1.314290e-06
-4.594660e-06
-1.108880e-06
1.775749e-08
-1.108880e-06
1.775749e-08
-1.269217e-07
6.990034e-08
-1.269217e-07
6.990034e-08
-1.830665e-07
-1.478739e-07
-1.830665e-07
-1.478739e-07
2.930506e-07
2.135648e-08
2.930506e-07
2.135648e-08
-1.142449e-08
-2.576971e-07
-1.142449e-08
-2.576971e-07
1.705898e-07
2.204699e-07
1.705898e-07
2.204699e-07
-7.930181e-07
-6.477294e-07
-7.930181e-07
-6.477294e-07
-1.920783e-06
-9.298242e-07
-1.920783e-06
-9.298242e-07
-2.052586e-07
-1.044917e-07
-2.052586e-07
-1.044917e-07
-1.336107e-06
-1.387532e-06
-1.336107e-06
-1.387532e-06
-6.427147e-07
-1.213999e-06
-6.427147e-07
-1.213999e-06
-1.527203e-06
-1.077886e-06
-1.527203e-06
-1.077886e-06
-7.664541e-07
-6.832878e-07
-7.664541e-07
-6.832878e-07
-7.234262e-07
-8.197896e-07
-7.234262e-07
-8.197896e-07
-8.893084e-07
-1.234466e-06
-8.893084e-07
-1.234466e-06
-1.495623e-06
-8.784537e-07
-1.495623e-06
-8.784537e-07
-5.717304e-07
-5.717304e-07
-1.253259e-07
-1.253259e-07
-1.849618e-07
-1.849618e-07
5.038700e-08
6.502060e-08
5.038700e-08
6.502060e-08
-2.350548e-07
-2.350548e-07
-2.838878e-07
-2.838878e-07
-4.448395e-07
-3.340841e-07
-4.448395e-07
-3.340841e-07
-1.217650e-07
-1.217650e-07
-2.242232e-07
-2.242232e-07
-1.467434e-07
-2.175513e-07
-1.467434e-07
-2.175513e-07
-4.924620e-07
-4.924620e-07
-7.508957e-07
-7.508957e-07
-9.350027e-08
-1.727894e-07
-9.350027e-08
-1.727894e-07
-1.034945e-06
-1.034945e-06
-8.723398e-07
-8.723398e-07
-5.110323e-07
-2.122256e-07
-5.110323e-07
-2.122256e-07
-9.037649e-07
-9.037649e-07
-5.355849e-07
-5.355849e-07
-2.426450e-07
-2.426450e-07
-1.031006e-07
-1.031006e-07
-1.731632e-07
-4.030158e-07
-1.731632e-07
-4.030158e-07
-1.456555e-08
-1.456555e-08
-7.778440e-08
-7.778440e-08
4.266518e-07
2.806451e-07
4.266518e-07
2.806451e-07
-3.369262e-07
-3.369262e-07
-3.959037e-07
-3.959037e-07
-4.132203e-07
5.548382e-08
-4.132203e-07
5.548382e-08
-3.920088e-07
-3.920088e-07
-1.802793e-07
-1.802793e-07
3.896945e-08
-3.865488e-07
3.896945e-08
-3.865488e-07
-8.726234e-08
-8.726234e-08
-2.065289e-07
-2.065289e-07
-5.051217e-07
-2.217030e-07
-5.051217e-07
-2.217030e-07
9.708812e-08
9.708812e-08
-1.505310e-07
-1.505310e-07
-1.128593e-07
-1.128593e-07
-3.680367e-08
-3.680367e-08
-1.353702e-07
8.816168e-08
-1.353702e-07
8.816168e-08
1.165105e-07
1.165105e-07
3.115078e-07
3.115078e-07
-3.318106e-07
-3.150763e-07
-3.318106e-07
-3.150763e-07
4.684730e-07
4.684730e-07
1.594622e-07
1.594622e-07
2.186167e-07
-4.218574e-08
2.186167e-07
-4.218574e-08
-1.728734e-07
-1.728734e-07
-4.004390e-08
-4.004390e-08
-2.594414e-07
3.631968e-08
-2.594414e-07
3.631968e-08
-2.813898e-07
-2.813898e-07
-4.329891e-07
-4.329891e-07
3.062402e-08
-1.679749e-07
3.062402e-08
-1.679749e-07
-2.666761e-07
-2.666761e-07
-9.432262e-08
-9.432262e-08
-1.614570e-07
-1.614570e-07
-5.495486e-08
-5.495486e-08
-1.240116e-07
-3.172247e-07
-1.240116e-07
-3.172247e-07
7.512832e-10
7.512832e-10
-2.218641e-07
-2.218641e-07
3.580094e-07
3.468278e-07
3.580094e-07
3.468278e-07
-3.347704e-07
-3.347704e-07
-1.702141e-07
-1.702141e-07
-2.241992e-07
3.600906e-08
-2.241992e-07
3.600906e-08
-8.317908e-08
-8.317908e-08
-6.358183e-08
-6.358183e-08
2.016417e-07
-2.493409e-07
2.016417e-07
-2.493409e-07
1.319581e-07
1.319581e-07
-2.469912e-08
-2.469912e-08
-2.249433e-07
2.453479e-07
-2.249433e-07
2.453479e-07
-1.851110e-07
-1.851110e-07
-3.114086e-08
-3.114086e-08
1.515017e-07
1.515017e-07
-2.298798e-07
-2.298798e-07
1.860094e-07
4.038506e-07
1.860094e-07
4.038506e-07
-2.948812e-07
-2.948812e-07
-1.529080e-07
-1.529080e-07
-6.947859e-07
-3.147500e-07
-6.947859e-07
-3.147500e-07
7.564544e-08
7.564544e-08
-4.168749e-08
-4.168749e-08
1.177976e-07
-4.180346e-08
1.177976e-07
-4.180346e-08
-2.017560e-07
-2.017560e-07
2.309709e-07
2.309709e-07
-2.701628e-07
-4.462376e-07
-2.701628e-07
-4.462376e-07
2.460558e-07
2.460558e-07
-1.877898e-08
-1.877898e-08
1.306790e-07
2.079450e-08
1.306790e-07
2.079450e-08
7.899557e-09
7.899557e-09
-4.827719e-08
-4.827719e-08
-5.408542e-08
-5.408542e-08
1.434765e-07
1.434765e-07
1.569655e-07
-4.057558e-08
1.569655e-07
-4.057558e-08
2.892528e-07
2.892528e-07
-2.486059e-07
-2.486059e-07
3.967458e-07
3.879583e-07
3.967458e-07
3.879583e-07
-2.027025e-07
-2.027025e-07
2.933919e-08
2.933919e-08
5.393962e-07
4.478679e-07
5.393962e-07
4.478679e-07
-4.357007e-07
-4.357007e-07
-5.561083e-07
-5.561083e-07
7.693850e-08
3.082974e-07
7.693850e-08
3.082974e-07
-1.779117e-07
-1.779117e-07
1.422301e-07
1.422301e-07
4.917915e-08
7.999873e-08
4.917915e-08
7.999873e-08
2.634301e-07
2.634301e-07
-4.838439e-08
-4.838439e-08
-8.778332e-08
-8.778332e-08
9.321742e-08
9.321742e-08
-2.892049e-07
-4.961437e-07
-2.892049e-07
-4.961437e-07
-2.019155e-07
-2.019155e-07
4.337636e-08
4.337636e-08
-5.831373e-07
-7.275083e-07
-5.831373e-07
-7.275083e-07
8.686969e-07
8.686969e-07
8.898754e-07
8.898754e-07
5.704084e-07
5.016742e-07
5.704084e-07
5.016742e-07
6.320928e-07
6.320928e-07
5.046142e-07
5.046142e-07
4.498888e-07
4.313282e-07
4.498888e-07
4.313282e-07
2.543150e-07
2.543150e-07
-1.230479e-07
-1.230479e-07
-1.522994e-07
2.394531e-07
-1.522994e-07
2.394531e-07
-5.645203e-07
-5.645203e-07
-5.670187e-07
-5.670187e-07
1.706174e-06
1.706174e-06
3.223282e-06
3.223282e-06
2.088791e-06
2.343349e-06
2.088791e-06
2.343349e-06
2.283308e-06
2.283308e-06
2.489304e-06
2.489304e-06
7.958513e-07
2.772113e-07
7.958513e-07
2.772113e-07
2.756741e-06
2.756741e-06
7.118614e-07
7.118614e-07
-5.550027e-07
8.646816e-07
-5.550027e-07
8.646816e-07
-2.347844e-07
-2.347844e-07
4.223628e-07
4.223628e-07
1.771011e-07
-5.610325e-07
1.771011e-07
-5.610325e-07
1.171646e-06
1.171646e-06
9.981151e-07
9.981151e-07
-1.548809e-06
-6.954960e-07
-1.548809e-06
-6.954960e-07
2.607163e-08
2.607163e-08
-1.333454e-06
-1.333454e-06
-1.612703e-06
-1.358546e-06
-1.612703e-06
-1.358546e-06
3.325051e-06
3.325051e-06
2.150710e-06
2.150710e-06
1.600929e-06
3.214295e-06
1.600929e-06
3.214295e-06
8.408607e-07
8.408607e-07
6.266279e-07
6.266279e-07
4.069882e-07
5.405519e-07
4.069882e-07
5.405519e-07
-1.850035e-07
-1.850035e-07
-7.275386e-08
-7.275386e-08
1.375638e-06
6.450391e-07
1.375638e-06
6.450391e-07
6.001112e-07
6.001112e-07
-5.980954e-07
-5.980954e-07
-9.229687e-07
1.321581e-06
-9.229687e-07
1.321581e-06
-1.534036e-06
-1.534036e-06
-1.485833e-06
-1.485833e-06
2.820510e-07
-2.373030e-07
2.820510e-07
-2.373030e-07
-1.972663e-06
-1.972663e-06
-1.872455e-06
-1.872455e-06
-1.471964e-06
-1.938049e-06
-1.471964e-06
-1.938049e-06
4.385004e-06
4.385004e-06
2.873662e-06
2.873662e-06
5.633173e-06
5.069764e-06
5.633173e-06
5.069764e-06
2.541779e-06
2.541779e-06
1.806337e-06
1.806337e-06
4.527093e-06
6.908765e-06
4.527093e-06
6.908765e-06
1.485639e-06
1.485639e-06
2.685122e-06
2.685122e-06
2.638770e-06
1.442058e-06
2.638770e-06
1.442058e-06
3.164586e-06
3.164586e-06
5.404751e-07
5.404751e-07
1.262157e-06
3.873954e-06
1.262157e-06
3.873954e-06
-1.534870e-07
-1.534870e-07
1.481512e-07
1.481512e-07
4.881106e-07
9.937354e-08
4.881106e-07
9.937354e-08
-1.051683e-06
-1.051683e-06
-1.009396e-06
-1.009396e-06
-5.937287e-07
-5.421342e-07
-5.937287e-07
-5.421342e-07
3.802400e-06
3.802400e-06
6.816419e-06
6.816419e-06
5.657486e-06
3.941524e-06
5.657486e-06
3.941524e-06
7.932760e-06
7.932760e-06
5.740699e-06
5.740699e-06
5.572666e-06
5.854965e-06
5.572666e-06
5.854965e-06
2.594330e-06
2.594330e-06
2.100531e-06
2.100531e-06
2.530672e-06
4.701616e-06
2.530672e-06
4.701616e-06
2.614910e-06
2.614910e-06
8.061680e-07
8.061680e-07
1.979556e-08
1.329022e-06
1.979556e-08
1.329022e-06
-2.233841e-07
-2.233841e-07
-9.205723e-07
-9.205723e-07
-1.932404e-06
-1.431582e-06
-1.932404e-06
-1.431582e-06
-2.007642e-06
-2.007642e-06
-1.382747e-06
-1.382747e-06
-2.450662e-06
-1.634962e-06
-2.450662e-06
-1.634962e-06
4.096688e-06
4.096688e-06
2.206669e-06
2.206669e-06
1.442334e-06
2.415495e-06
1.442334e-06
2.415495e-06
1.940028e-06
1.940028e-06
4.266302e-06
4.266302e-06
3.801734e-06
8.659431e-07
3.801734e-06
8.659431e-07
5.383503e-06
5.383503e-06
2.714901e-06
2.714901e-06
2.896145e-06
4.921572e-06
2.896145e-06
4.921572e-06
-1.135778e-07
-1.135778e-07
-6.583400e-07
-6.583400e-07
1.707220e-06
1.873315e-06
1.707220e-06
1.873315e-06
-8.218449e-07
-8.218449e-07
-7.989853e-07
-7.989853e-07
-2.269574e-07
8.163420e-07
-2.269574e-07
8.163420e-07
-1.016265e-06
-1.016265e-06
-2.637352e-06
-2.637352e-06
-2.676931e-06
-1.796379e-06
-2.676931e-06
-1.796379e-06
5.139336e-06
5.139336e-06
4.850076e-06
4.850076e-06
7.784857e-06
7.462723e-06
7.784857e-06
7.462723e-06
4.093822e-06
4.093822e-06
5.752775e-06
5.752775e-06
8.806571e-06
8.386516e-06
8.806571e-06
8.386516e-06
5.598193e-06
5.598193e-06
4.785976e-06
4.785976e-06
7.576847e-06
8.065233e-06
7.576847e-06
8.065233e-06
5.269274e-06
5.269274e-06
4.774193e-06
4.774193e-06
6.243289e-06
7.140158e-06
6.243289e-06
7.140158e-06
2.613206e-06
2.613206e-06
1.211954e-06
1.211954e-06
2.550822e-06
4.191177e-06
2.550822e-06
4.191177e-06
-7.946720e-07
-7.946720e-07
-2.561335e-06
-2.561335e-06
-1.768150e-06
5.979668e-07
-1.768150e-06
5.979668e-07
8.407164e-06
8.407164e-06
1.137681e-05
1.137681e-05
1.625357e-05
1.775982e-05
1.625357e-05
1.775982e-05
1.148117e-05
1.148117e-05
1.065611e-05
1.065611e-05
1.040681e-05
1.245456e-05
1.040681e-05
1.245456e-05
1.044902e-05
1.044902e-05
1.032009e-05
1.032009e-05
1.243933e-05
1.041007e-05
1.243933e-05
1.041007e-05
1.071366e-05
1.071366e-05
9.259795e-06
9.259795e-06
1.415481e-05
1.445973e-05
1.415481e-05
1.445973e-05
6.643332e-06
6.643332e-06
3.948572e-06
3.948572e-06
7.506578e-06
1.114181e-05
7.506578e-06
1.114181e-05
1.502651e-06
1.502651e-06
-8.446490e-07
-8.446490e-07
9.849401e-07
4.110061e-06
9.849401e-07
4.110061e-06
2.082511e-05
2.082511e-05
1.723989e-05
1.723989e-05
1.432562e-05
1.329134e-05
1.432562e-05
1.329134e-05
1.347169e-05
1.347169e-05
1.018291e-05
1.018291e-05
9.786886e-06
1.238436e-05
9.786886e-06
1.238436e-05
9.926793e-06
9.926793e-06
1.236802e-05
1.236802e-05
1.021388e-05
8.306084e-06
1.021388e-05
8.306084e-06
1.621631e-05
1.621631e-05
1.908409e-05
1.908409e-05
2.322698e-05
1.667593e-05
2.322698e-05
1.667593e-05
1.746957e-05
1.746957e-05
1.334234e-05
1.334234e-05
2.281496e-05
2.576745e-05
2.281496e-05
2.576745e-05
9.095258e-06
9.095258e-06
5.399381e-06
5.399381e-06
1.145815e-05
1.740529e-05
1.145815e-05
1.740529e-05
9.656930e-06
9.656930e-06
1.035521e-05
1.035521e-05
1.042161e-05
1.109844e-05
1.042161e-05
1.109844e-05
9.983075e-06
9.983075e-06
7.549075e-06
7.549075e-06
7.569266e-06
9.824849e-06
7.569266e-06
9.824849e-06
4.142623e-06
4.142623e-06
4.057614e-06
4.057614e-06
-5.681259e-06
9.705130e-07
-5.681259e-06
9.705130e-07
1.203563e-05
1.203563e-05
2.553936e-05
2.553936e-05
1.948420e-05
3.055890e-07
1.948420e-05
3.055890e-07
3.477892e-05
3.477892e-05
3.566574e-05
3.566574e-05
4.603878e-05
3.882626e-05
4.603878e-05
3.882626e-05
3.086390e-05
3.086390e-05
2.240616e-05
2.240616e-05
3.929014e-05
4.520598e-05
3.929014e-05
4.520598e-05
1.453047e-05
1.453047e-05
1.512998e-05
1.512998e-05
1.727874e-05
1.133135e-05
1.727874e-05
1.133135e-05
1.312250e-05
1.312250e-05
8.910341e-06
8.910341e-06
7.379002e-06
1.462002e-05
7.379002e-06
1.462002e-05
-2.274873e-07
-2.274873e-07
-1.401432e-05
-1.401432e-05
-2.193788e-05
-2.475716e-06
-2.193788e-05
-2.475716e-06
-1.925595e-05
-1.925595e-05
-1.081429e-06
-1.081429e-06
-3.834976e-05
-4.386701e-05
-3.834976e-05
-4.386701e-05
2.745033e-05
2.745033e-05
4.641824e-05
4.641824e-05
5.625057e-05
9.478731e-06
5.625057e-05
9.478731e-06
5.788042e-05
5.788042e-05
5.410372e-05
5.410372e-05
5.852858e-05
6.712251e-05
5.852858e-05
6.712251e-05
9.666334e-06
9.666334e-06
1.464168e-05
1.464168e-05
6.603686e-06
3.529042e-06
6.603686e-06
3.529042e-06
1.322978e-05
1.322978e-05
5.624257e-06
5.624257e-06
7.056612e-06
1.229572e-05
7.056612e-06
1.229572e-05
-5.229896e-06
-5.229896e-06
-3.131399e-05
-3.131399e-05
-4.768925e-05
-1.726904e-05
-4.768925e-05
-1.726904e-05
-6.420244e-05
-6.420244e-05
-5.475194e-05
-5.475194e-05
-3.626163e-05
-6.206369e-05
-3.626163e-05
-6.206369e-05
2.266440e-05
2.266440e-05
8.720992e-05
8.720992e-05
-2.116669e-05
6.853538e-06
-2.116669e-05
6.853538e-06
3.301052e-05
3.301052e-05
-3.691459e-05
-3.691459e-05
-3.535033e-04
-2.076641e-04
-3.535033e-04
-2.076641e-04
-1.170566e-06
-1.170566e-06
5.690676e-06
5.690676e-06
1.991052e-05
1.346710e-05
1.991052e-05
1.346710e-05
1.364765e-05
1.364765e-05
1.443296e-06
1.443296e-06
-2.941481e-05
1.597698e-05
-2.941481e-05
1.597698e-05
-4.890798e-05
-4.890798e-05
-8.854577e-05
-8.854577e-05
-1.551765e-04
-1.088390e-04
-1.551765e-04
-1.088390e-04
-7.447707e-05
-7.447707e-05
-8.470752e-05
-8.470752e-05
-3.118274e-04
-1.704050e-04
-3.118274e-04
-1.704050e-04
-2.331900e-04
-2.331900e-04
-4.482760e-04
-4.482760e-04
-7.427556e-04
-6.068839e-04
-7.427556e-04
-6.068839e-04
-5.749541e-04
-5.749541e-04
-5.982310e-04
-5.982310e-04
-2.654189e-04
-5.038310e-04
-2.654189e-04
-5.038310e-04
3.770052e-05
3.770052e-05
4.187827e-05
4.187827e-05
3.950352e-05
5.999236e-05
3.950352e-05
5.999236e-05
5.091181e-06
5.091181e-06
-8.841936e-05
-8.841936e-05
-1.523644e-04
-3.473985e-05
-1.523644e-04
-3.473985e-05
-1.795932e-04
-1.795932e-04
-2.528447e-04
-2.528447e-04
-3.523053e-04
-2.364545e-04
-3.523053e-04
-2.364545e-04
-3.754022e-04
-3.754022e-04
-5.734877e-04
-5.734877e-04
-7.689975e-04
-5.812775e-04
-7.689975e-04
-5.812775e-04
-6.998678e-04
-6.998678e-04
-5.294469e-04
-5.294469e-04
-2.120963e-04
-6.602578e-04
-2.120963e-04
-6.602578e-04
-4.527129e-05
-4.527129e-05
3.313335e-04
3.313335e-04
6.572477e-04
3.034847e-04
6.572477e-04
3.034847e-04
6.025812e-05
6.025812e-05
3.086630e-07
3.086630e-07
-7.287562e-05
2.387331e-05
-7.287562e-05
2.387331e-05
-1.056284e-04
-1.056284e-04
-1.902122e-04
-1.902122e-04
-1.891256e-04
-1.810112e-04
-1.891256e-04
-1.810112e-04
-2.759744e-04
-2.759744e-04
-4.524404e-04
-4.524404e-04
-4.767322e-04
-2.471293e-04
-4.767322e-04
-2.471293e-04
-7.080346e-04
-7.080346e-04
-8.156992e-04
-8.156992e-04
-9.948495e-04
-8.182620e-04
-9.948495e-04
-8.182620e-04
-4.828435e-04
-4.828435e-04
1.424292e-04
1.424292e-04
4.970301e-04
-4.628004e-04
4.970301e-04
-4.628004e-04
5.952341e-04
5.952341e-04
8.244497e-04
8.244497e-04
1.267549e-03
1.108070e-03
1.267549e-03
1.108070e-03
-6.180240e-05
-6.180240e-05
-1.802356e-04
-1.802356e-04
-2.490319e-04
-1.448039e-04
-2.490319e-04
-1.448039e-04
-2.242858e-04
-2.242858e-04
-1.326257e-04
-1.326257e-04
-1.578784e-06
-1.779706e-04
-1.578784e-06
-1.779706e-04
-1.532730e-04
-1.532730e-04
-4.442068e-04
-4.442068e-04
-3.989680e-04
-3.161623e-05
-3.989680e-04
-3.161623e-05
-9.529883e-04
-9.529883e-04
-1.243015e-03
-1.243015e-03
-6.244172e-04
-7.779667e-04
-6.244172e-04
-7.779667e-04
-8.472909e-04
-8.472909e-04
2.403038e-04
2.403038e-04
-3.201227e-03
-2.237084e-03
-3.201227e-03
-2.237084e-03
1.528505e-03
1.528505e-03
2.293912e-03
2.293912e-03
6.405033e-03
3.033246e-03
6.405033e-03
3.033246e-03
-1.679528e-04
-1.679528e-04
-3.100975e-04
-3.100975e-04
-4.341631e-04
-1.832512e-04
-4.341631e-04
-1.832512e-04
-5.365456e-05
-5.365456e-05
2.160394e-04
2.160394e-04
3.164108e-04
6.551859e-05
3.164108e-04
6.551859e-05
2.826510e-04
2.826510e-04
-6.668524e-05
-6.668524e-05
7.722860e-05
3.534168e-04
7.722860e-05
3.534168e-04
-7.384299e-05
-7.384299e-05
1.770310e-03
1.770310e-03
7.818750e-03
1.305093e-04
7.818750e-03
1.305093e-04
-6.016249e-03
-6.016249e-03
-2.834570e-03
-2.834570e-03
-5.436170e-03
-1.121718e-02
-5.436170e-03
-1.121718e-02
2.654505e-02
2.654505e-02
2.475359e-02
2.475359e-02
3.805903e-02
5.206953e-02
3.805903e-02
5.206953e-02
-1.390574e-04
-1.390574e-04
-6.513317e-04
-6.513317e-04
-7.384896e-04
-2.359055e-05
-7.384896e-04
-2.359055e-05
1.192077e-04
1.192077e-04
4.162667e-04
4.162667e-04
5.765259e-04
7.331398e-05
5.765259e-04
7.331398e-05
2.668532e-04
2.668532e-04
1.391264e-04
1.391264e-04
4.397068e-04
5.296909e-04
4.397068e-04
5.296909e-04
3.906382e-04
3.906382e-04
1.300216e-02
1.300216e-02
9.198852e-03
8.805097e-04
9.198852e-03
8.805097e-04
-1.339640e-02
-1.339640e-02
-9.911452e-03
-9.911452e-03
-1.386376e-02
-1.431354e-02
-1.386376e-02
-1.431354e-02
5.465481e-02
5.465481e-02
3.429248e-02
3.429248e-02
2.955186e-02
3.841370e-02
2.955186e-02
3.841370e-02
-1.979163e-07
-1.979163e-07
-4.488388e-04
-4.488388e-04
-8.425064e-05
-5.261698e-05
-8.425064e-05
-5.261698e-05
1.234117e-05
1.234117e-05
4.233917e-04
4.233917e-04
2.058807e-04
6.720445e-05
2.058807e-04
6.720445e-05
5.762940e-04
5.762940e-04
3.872049e-04
3.872049e-04
4.792241e-05
3.636185e-04
4.792241e-05
3.636185e-04
3.997018e-04
3.997018e-04
2.099914e-03
2.099914e-03
-8.888780e-04
-4.751716e-04
-8.888780e-04
-4.751716e-04
-9.115447e-03
-9.115447e-03
-1.175280e-02
-1.175280e-02
-2.680494e-03
-2.327121e-03
-2.680494e-03
-2.327121e-03
1.341840e-02
1.341840e-02
1.727207e-02
1.727207e-02
5.271684e-03
2.715652e-03
5.271684e-03
2.715652e-03
-4.799973e-05
-4.799973e-05
2.291478e-05
2.291478e-05
-3.012848e-06
2.193140e-06
-3.012848e-06
2.193140e-06
1.137862e-04
1.137862e-04
2.093903e-04
2.093903e-04
1.364218e-04
4.364761e-05
1.364218e-04
4.364761e-05
2.523591e-04
2.523591e-04
-2.374678e-04
-2.374678e-04
-3.721375e-04
5.959449e-05
-3.721375e-04
5.959449e-05
-9.846512e-04
-9.846512e-04
-1.454793e-03
-1.454793e-03
-1.147990e-03
-9.252228e-04
-1.147990e-03
-9.252228e-04
-1.564891e-03
-1.564891e-03
-6.973984e-04
-6.973984e-04
-7.007287e-05
-7.697044e-04
-7.007287e-05
-7.697044e-04
1.244127e-03
1.244127e-03
2.202160e-03
2.202160e-03
1.011499e-03
6.286890e-04
1.011499e-03
6.286890e-04
6.371467e-05
6.371467e-05
2.750473e-05
2.750473e-05
1.046566e-04
1.196500e-04
1.046566e-04
1.196500e-04
-1.443999e-05
-1.443999e-05
-4.531162e-05
-4.531162e-05
-7.660667e-05
2.756095e-05
-7.660667e-05
2.756095e-05
-1.697659e-04
-1.697659e-04
-4.416554e-04
-4.416554e-04
-3.245320e-04
-1.740961e-04
-3.245320e-04
-1.740961e-04
-7.323482e-04
-7.323482e-04
-7.739817e-04
-7.739817e-04
-3.878891e-04
-4.529124e-04
-3.878891e-04
-4.529124e-04
-5.004727e-04
-5.004727e-04
-8.680107e-05
-8.680107e-05
-3.101402e-05
-1.986857e-04
-3.101402e-05
-1.986857e-04
2.801468e-04
2.801468e-04
5.341804e-04
5.341804e-04
3.518013e-04
1.463020e-04
3.518013e-04
1.463020e-04
1.317674e-04
1.317674e-04
1.491324e-04
1.491324e-04
1.287633e-04
1.149590e-04
1.287633e-04
1.149590e-04
8.686737e-05
8.686737e-05
-3.502177e-05
-3.502177e-05
-2.320623e-05
8.150151e-05
-2.320623e-05
8.150151e-05
-1.348447e-04
-1.348447e-04
-2.100975e-04
-2.100975e-04
-2.348892e-04
-1.438948e-04
-2.348892e-04
-1.438948e-04
-2.488338e-04
-2.488338e-04
-1.736349e-04
-1.736349e-04
-1.377395e-04
-2.197713e-04
-1.377395e-04
-2.197713e-04
-1.108491e-04
-1.108491e-04
-1.852480e-04
-1.852480e-04
-4.310055e-04
-2.309405e-04
-4.310055e-04
-2.309405e-04
-7.036585e-05
-7.036585e-05
1.424838e-04
1.424838e-04
5.189670e-05
-2.671648e-04
5.189670e-05
-2.671648e-04
7.521204e-05
7.521204e-05
8.368131e-05
8.368131e-05
5.800984e-05
4.715923e-05
5.800984e-05
4.715923e-05
4.685377e-05
4.685377e-05
-1.925293e-05
-1.925293e-05
-2.337164e-05
2.620131e-05
-2.337164e-05
2.620131e-05
-1.054413e-04
-1.054413e-04
-1.706305e-04
-1.706305e-04
-1.174225e-04
-7.931116e-05
-1.174225e-04
-7.931116e-05
-1.140246e-04
-1.140246e-04
1.431190e-05
1.431190e-05
4.948267e-05
-7.671421e-05
4.948267e-05
-7.671421e-05
-7.001416e-05
-7.001416e-05
-2.136653e-04
-2.136653e-04
-1.307299e-04
2.218616e-06
-1.307299e-04
2.218616e-06
-1.439847e-06
-1.439847e-06
9.084225e-07
9.084225e-07
5.135959e-07
-3.798789e-07
5.135959e-07
-3.798789e-07
1.521183e-06
1.521183e-06
-8.075494e-08
-8.075494e-08
-4.112652e-07
9.006643e-07
-4.112652e-07
9.006643e-07
-1.452049e-06
-1.452049e-06
-1.376658e-06
-1.376658e-06
-7.902715e-07
-1.734203e-06
-7.902715e-07
-1.734203e-06
9.340382e-07
9.340382e-07
2.173326e-06
2.173326e-06
1.099717e-06
1.880629e-06
1.099717e-06
1.880629e-06
1.516711e-06
1.516711e-06
9.584716e-07
9.584716e-07
-5.960198e-07
-7.828457e-07
-5.960198e-07
-7.828457e-07
1.146995e-06
1.146995e-06
1.126148e-06
1.126148e-06
2.236661e-06
1.083952e-06
2.236661e-06
1.083952e-06
1.939274e-07
1.939274e-07
2.159387e-07
2.159387e-07
-8.509936e-07
8.672436e-08
-8.509936e-07
8.672436e-08
1.358773e-06
1.358773e-06
1.102063e-06
1.102063e-06
1.350791e-07
4.222885e-08
1.350791e-07
4.222885e-08
2.731592e-08
2.731592e-08
-7.399712e-07
-7.399712e-07
-1.974064e-06
-5.964071e-07
-1.974064e-06
-5.964071e-07
-3.474219e-07
-3.474219e-07
5.009539e-07
5.009539e-07
-6.893355e-07
-2.300735e-06
-6.893355e-07
-2.300735e-06
-2.297956e-06
-2.297956e-06
-8.677052e-06
-8.677052e-06
-1.035473e-05
-1.149821e-06
-1.035473e-05
-1.149821e-06
-1.723226e-05
-1.723226e-05
-1.654522e-05
-1.654522e-05
-4.000097e-05
-2.879989e-05
-4.000097e-05
-2.879989e-05
1.182884e-05
1.182884e-05
4.808645e-05
4.808645e-05
3.678050e-05
-2.190311e-05
3.678050e-05
-2.190311e-05
3.608412e-05
3.608412e-05
-9.994421e-06
-9.994421e-06
2.641336e-05
8.553419e-05
2.641336e-05
8.553419e-05
-4.227523e-06
-4.227523e-06
7.388663e-06
7.388663e-06
-1.753423e-05
-5.520065e-05
-1.753423e-05
-5.520065e-05
4.055156e-07
4.055156e-07
6.653428e-05
6.653428e-05
-9.180838e-05
-2.450910e-05
-9.180838e-05
-2.450910e-05
1.458493e-04
1.458493e-04
1.234971e-04
1.234971e-04
7.740373e-05
-2.185757e-05
7.740373e-05
-2.185757e-05
6.653753e-05
6.653753e-05
3.876055e-05
3.876055e-05
2.563127e-05
5.922836e-05
2.563127e-05
5.922836e-05
1.412475e-05
1.412475e-05
1.555061e-06
1.555061e-06
9.352074e-06
3.595957e-05
9.352074e-06
3.595957e-05
-2.535458e-05
-2.535458e-05
-5.483860e-05
-5.483860e-05
-1.395897e-04
-8.332354e-05
-1.395897e-04
-8.332354e-05
-4.741669e-05
-4.741669e-05
-2.620323e-05
-2.620323e-05
-4.876075e-05
-1.009321e-04
-4.876075e-05
-1.009321e-04
-1.606826e-05
-1.606826e-05
-1.513089e-05
-1.513089e-05
-2.936416e-05
-2.991396e-05
-2.936416e-05
-2.991396e-05
1.025739e-06
1.025739e-06
9.387616e-07
9.387616e-07
-2.779871e-08
4.115543e-07
-2.779871e-08
4.115543e-07
-1.398396e-07
-1.398396e-07
-7.066974e-07
-7.066974e-07
-9.547927e-07
-5.529867e-07
-9.547927e-07
-5.529867e-07
2.159730e-07
2.159730e-07
4.833768e-07
4.833768e-07
5.307428e-07
1.861583e-07
5.307428e-07
1.861583e-07
3.500698e-07
3.500698e-07
-8.408303e-07
-8.408303e-07
-1.674153e-08
1.463132e-07
-1.674153e-08
1.463132e-07
-1.574902e-06
-1.574902e-06
-9.130367e-07
-9.130367e-07
-5.104505e-07
-4.749660e-07
-5.104505e-07
-4.749660e-07
2.192850e-07
2.192850e-07
8.752942e-07
8.752942e-07
-4.108409e-07
-2.831940e-07
-4.108409e-07
-2.831940e-07
-1.381884e-06
-1.381884e-06
-2.182551e-06
-2.182551e-06
-2.629761e-06
-2.191100e-06
-2.629761e-06
-2.191100e-06
-1.198456e-06
-1.198456e-06
-1.166929e-06
-1.166929e-06
-2.644305e-06
-1.731140e-06
-2.644305e-06
-1.731140e-06
-1.838204e-06
-1.838204e-06
-3.931840e-06
-3.931840e-06
-6.133918e-06
-3.851923e-06
-6.133918e-06
-3.851923e-06
-6.179799e-06
-6.179799e-06
-6.395220e-06
-6.395220e-06
-1.279708e-05
-1.028315e-05
-1.279708e-05
-1.028315e-05
-4.577365e-06
-4.577365e-06
-1.015171e-05
-1.015171e-05
-6.448007e-06
-9.450979e-06
-6.448007e-06
-9.450979e-06
-3.331286e-05
-3.331286e-05
-6.151132e-05
-6.151132e-05
-6.913048e-05
-2.517894e-05
-6.913048e-05
-2.517894e-05
-5.843802e-05
-5.843802e-05
1.381467e-06
1.381467e-06
-6.892599e-05
-1.026833e-04
-6.892599e-05
-1.026833e-04
8.507258e-05
8.507258e-05
9.226887e-05
9.226887e-05
1.512057e-04
3.652186e-05
1.512057e-04
3.652186e-05
-2.784012e-05
-2.784012e-05
-2.792719e-05
-2.792719e-05
1.212519e-04
1.815869e-04
1.212519e-04
1.815869e-04
1.479320e-04
1.479320e-04
2.430379e-05
2.430379e-05
6.431472e-04
3.668347e-04
6.431472e-04
3.668347e-04
-2.872726e-04
-2.872726e-04
-2.917816e-04
-2.917816e-04
2.047360e-04
4.787682e-04
2.047360e-04
4.787682e-04
-9.208582e-05
-9.208582e-05
1.263372e-04
1.263372e-04
2.603845e-04
1.039079e-04
2.603845e-04
1.039079e-04
2.133460e-04
2.133460e-04
9.661442e-05
9.661442e-05
2.437754e-04
3.692849e-04
2.437754e-04
3.692849e-04
-1.216540e-04
-1.216540e-04
-2.492316e-04
-2.492316e-04
-3.493401e-04
-8.098137e-05
-3.493401e-04
-8.098137e-05
-1.845844e-04
-1.845844e-04
-8.725440e-05
-8.725440e-05
-1.427799e-04
-2.995036e-04
-1.427799e-04
-2.995036e-04
-5.684951e-05
-5.684951e-05
-6.098839e-05
-6.098839e-05
-1.201996e-04
-9.783489e-05
-1.201996e-04
-9.783489e-05
-9.054074e-07
-9.054074e-07
-1.062637e-06
-1.062637e-06
5.367049e-07
-8.606510e-07
5.367049e-07
-8.606510e-07
-6.055322e-07
-6.055322e-07
-6.574225e-07
-6.574225e-07
-3.081704e-07
-2.239684e-07
-3.081704e-07
-2.239684e-07
-2.395003e-07
-2.395003e-07
7.584851e-08
7.584851e-08
-5.202776e-07
6.416696e-07
-5.202776e-07
6.416696e-07
-4.285011e-08
-4.285011e-08
3.421175e-08
3.421175e-08
-1.370653e-06
-1.766893e-06
-1.370653e-06
-1.766893e-06
-1.634892e-06
-1.634892e-06
-2.124792e-06
-2.124792e-06
-3.718829e-06
-3.471323e-06
-3.718829e-06
-3.471323e-06
1.103153e-08
1.103153e-08
-2.028494e-07
-2.028494e-07
-1.507117e-06
-5.735598e-07
-1.507117e-06
-5.735598e-07
-2.121860e-06
-2.121860e-06
-2.342313e-06
-2.342313e-06
-2.954601e-06
-2.933101e-06
-2.954601e-06
-2.933101e-06
-2.168939e-06
-2.168939e-06
-4.147647e-06
-4.147647e-06
-5.513854e-06
-3.858505e-06
-5.513854e-06
-3.858505e-06
-5.825448e-06
-5.825448e-06
-7.106410e-06
-7.106410e-06
-7.299331e-06
-7.170820e-06
-7.299331e-06
-7.170820e-06
-1.193832e-05
-1.193832e-05
-1.620709e-05
-1.620709e-05
-1.732762e-05
-1.073724e-05
-1.732762e-05
-1.073724e-05
-1.071813e-05
-1.071813e-05
1.593213e-06
1.593213e-06
8.641061e-06
-1.210018e-05
8.641061e-06
-1.210018e-05
-5.343715e-06
-5.343715e-06
-6.985976e-05
-6.985976e-05
-9.884079e-05
5.621016e-06
-9.884079e-05
5.621016e-06
-1.809245e-04
-1.809245e-04
-2.128441e-04
-2.128441e-04
-4.157544e-04
-3.156890e-04
-4.157544e-04
-3.156890e-04
-5.576834e-05
-5.576834e-05
2.529255e-04
2.529255e-04
4.731528e-04
-1.267954e-04
4.731528e-04
-1.267954e-04
4.981744e-04
4.981744e-04
3.284646e-04
3.284646e-04
5.272661e-04
8.710045e-04
5.272661e-04
8.710045e-04
8.701710e-05
8.701710e-05
3.138603e-04
3.138603e-04
-4.314881e-04
-2.208845e-04
-4.314881e-04
-2.208845e-04
6.337797e-04
6.337797e-04
5.278610e-04
5.278610e-04
-3.723937e-05
-1.996842e-04
-3.723937e-05
-1.996842e-04
2.047865e-04
2.047865e-04
1.920092e-04
1.920092e-04
1.911233e-04
3.106594e-05
1.911233e-04
3.106594e-05
3.900249e-04
3.900249e-04
4.375930e-04
4.375930e-04
6.831212e-04
5.236630e-04
6.831212e-04
5.236630e-04
6.057060e-05
6.057060e-05
-3.922806e-04
-3.922806e-04
-2.766131e-04
2.810742e-04
-2.766131e-04
2.810742e-04
-4.055186e-04
-4.055186e-04
-2.200682e-04
-2.200682e-04
-3.065431e-04
-4.173783e-04
-3.065431e-04
-4.173783e-04
-1.499465e-04
-1.499465e-04
-1.693471e-04
-1.693471e-04
-1.539042e-04
-1.901189e-04
-1.539042e-04
-1.901189e-04
4.768645e-07
4.768645e-07
1.956162e-06
1.956162e-06
8.622195e-07
-4.075964e-08
8.622195e-07
-4.075964e-08
9.591335e-08
9.591335e-08
-6.952309e-07
-6.952309e-07
-1.682551e-06
1.933906e-08
-1.682551e-06
1.933906e-08
-1.390959e-07
-1.390959e-07
-1.847855e-06
-1.847855e-06
-2.263167e-06
-2.227917e-06
-2.263167e-06
-2.227917e-06
-2.529091e-06
-2.529091e-06
-1.603949e-06
-1.603949e-06
-2.330592e-06
-2.137621e-06
-2.330592e-06
-2.137621e-06
-2.366830e-06
-2.366830e-06
-2.662673e-06
-2.662673e-06
-1.224316e-06
-1.450364e-06
-1.224316e-06
-1.450364e-06
-2.088330e-06
-2.088330e-06
-3.321261e-06
-3.321261e-06
-3.572689e-06
-2.859480e-06
-3.572689e-06
-2.859480e-06
-3.740250e-06
-3.740250e-06
-3.719017e-06
-3.719017e-06
-3.478404e-06
-3.327150e-06
-3.478404e-06
-3.327150e-06
-5.139141e-06
-5.139141e-06
-6.241366e-06
-6.241366e-06
-4.944978e-06
-4.096061e-06
-4.944978e-06
-4.096061e-06
-8.362050e-06
-8.362050e-06
-8.462851e-06
-8.462851e-06
-8.321709e-06
-7.394748e-06
-8.321709e-06
-7.394748e-06
-8.232630e-06
-8.232630e-06
-1.666027e-05
-1.666027e-05
-1.212166e-05
-5.213563e-06
-1.212166e-05
-5.213563e-06
-1.500628e-05
-1.500628e-05
9.924109e-06
9.924109e-06
9.877045e-06
-1.309639e-05
9.877045e-06
-1.309639e-05
-8.952673e-06
-8.952673e-06
-1.820550e-04
-1.820550e-04
-2.928814e-04
-5.146360e-05
-2.928814e-04
-5.146360e-05
-4.592102e-04
-4.592102e-04
-4.819769e-04
-4.819769e-04
-2.264233e-04
-4.848394e-04
-2.264233e-04
-4.848394e-04
3.084377e-05
3.084377e-05
8.388343e-04
8.388343e-04
1.083939e-03
4.070003e-04
1.083939e-03
4.070003e-04
1.313071e-03
1.313071e-03
8.051552e-04
8.051552e-04
1.188478e-03
1.618576e-03
1.188478e-03
1.618576e-03
-2.168577e-04
-2.168577e-04
-6.406935e-04
-6.406935e-04
-4.916345e-04
1.682654e-04
-4.916345e-04
1.682654e-04
-6.515529e-04
-6.515529e-04
-6.118848e-04
-6.118848e-04
-7.994009e-04
-8.378711e-04
-7.994009e-04
-8.378711e-04
-3.196578e-04
-3.196578e-04
3.120344e-04
3.120344e-04
7.219341e-04
-3.597014e-04
7.219341e-04
-3.597014e-04
7.577081e-04
7.577081e-04
7.093456e-04
7.093456e-04
5.046898e-04
1.070508e-03
5.046898e-04
1.070508e-03
4.389602e-04
4.389602e-04
4.135769e-05
4.135769e-05
3.878612e-04
4.502261e-04
3.878612e-04
4.502261e-04
-2.714978e-04
-2.714978e-04
-3.228232e-04
-3.228232e-04
-2.215052e-04
-2.158943e-05
-2.215052e-04
-2.158943e-05
-1.613595e-04
-1.613595e-04
-5.784106e-05
-5.784106e-05
3.753318e-05
-7.284338e-05
3.753318e-05
-7.284338e-05
-2.037804e-06
-2.037804e-06
-1.509767e-06
-1.509767e-06
-2.869217e-06
-2.173555e-06
-2.869217e-06
-2.173555e-06
-7.171623e-07
-7.171623e-07
-2.597898e-06
-2.597898e-06
-2.583204e-06
-2.138775e-06
-2.583204e-06
-2.138775e-06
-2.336572e-06
-2.336572e-06
-1.239332e-06
-1.239332e-06
4.173095e-07
-1.321819e-06
4.173095e-07
-1.321819e-06
-1.449542e-06
-1.449542e-06
-1.594686e-06
-1.594686e-06
-5.143832e-07
1.648847e-07
-5.143832e-07
1.648847e-07
-1.355301e-06
-1.355301e-06
-9.880109e-07
-9.880109e-07
3.285578e-08
-1.650774e-07
3.285578e-08
-1.650774e-07
-2.857691e-06
-2.857691e-06
-3.885927e-06
-3.885927e-06
-4.222795e-06
-2.734621e-06
-4.222795e-06
-2.734621e-06
-2.619883e-06
-2.619883e-06
-2.509555e-06
-2.509555e-06
-1.592402e-06
-2.403114e-06
-1.592402e-06
-2.403114e-06
-2.772349e-06
-2.772349e-06
-2.669266e-06
-2.669266e-06
1.129269e-07
-9.628132e-07
1.129269e-07
-9.628132e-07
-3.561280e-06
-3.561280e-06
-4.368006e-06
-4.368006e-06
5.482820e-06
1.986986e-06
5.482820e-06
1.986986e-06
-1.686187e-06
-1.686187e-06
-1.947747e-06
-1.947747e-06
1.681129e-05
7.162817e-06
1.681129e-05
7.162817e-06
1.828861e-06
1.828861e-06
-3.527032e-06
-3.527032e-06
-7.852135e-05
2.321372e-05
-7.852135e-05
2.321372e-05
-1.489278e-04
-1.489278e-04
-3.896363e-04
-3.896363e-04
-4.181982e-04
-3.388463e-04
-4.181982e-04
-3.388463e-04
-3.150611e-04
-3.150611e-04
2.054740e-04
2.054740e-04
5.549881e-04
1.725687e-06
5.549881e-04
1.725687e-06
6.793437e-04
6.793437e-04
1.061906e-03
1.061906e-03
1.181416e-03
8.338715e-04
1.181416e-03
8.338715e-04
1.753978e-03
1.753978e-03
1.669024e-03
1.669024e-03
2.099819e-03
1.990544e-03
2.099819e-03
1.990544e-03
1.104053e-03
1.104053e-03
3.549107e-04
3.549107e-04
9.696998e-04
2.151260e-03
9.696998e-04
2.151260e-03
-4.014462e-04
-4.014462e-04
-1.024062e-05
-1.024062e-05
1.205681e-03
-5.712049e-04
1.205681e-03
-5.712049e-04
5.974601e-04
5.974601e-04
1.449374e-03
1.449374e-03
1.992626e-03
2.304462e-03
1.992626e-03
2.304462e-03
1.390451e-03
1.390451e-03
5.366201e-04
5.366201e-04
8.974223e-04
1.577096e-03
8.974223e-04
1.577096e-03
5.377864e-04
5.377864e-04
5.532583e-04
5.532583e-04
5.614782e-04
7.769853e-04
5.614782e-04
7.769853e-04
1.779418e-04
1.779418e-04
-5.608244e-05
-5.608244e-05
8.357226e-05
2.729206e-04
8.357226e-05
2.729206e-04
3.402132e-05
3.402132e-05
8.553841e-05
8.553841e-05
1.062931e-04
9.386537e-05
1.062931e-04
9.386537e-05
-1.896107e-06
-1.896107e-06
-2.479251e-06
-2.479251e-06
-2.090250e-06
-2.090250e-06
-1.232564e-06
-1.232564e-06
-8.811645e-07
-8.811645e-07
6.562594e-07
6.562594e-07
2.032787e-07
2.032787e-07
-2.493824e-06
-2.493824e-06
-1.795662e-06
-1.795662e-06
-8.693950e-07
-8.693950e-07
-2.600642e-06
-2.600642e-06
-3.329231e-06
-3.329231e-06
-2.355682e-06
-2.355682e-06
-8.787516e-07
-8.787516e-07
2.122079e-06
2.122079e-06
5.042583e-06
5.042583e-06
1.130482e-05
1.130482e-05
2.312321e-05
2.312321e-05
2.946818e-05
2.946818e-05
4.108276e-05
4.108276e-05
-5.148148e-06
-5.148148e-06
-2.487737e-04
-2.487737e-04
-5.249647e-04
-5.249647e-04
-3.213727e-04
-3.213727e-04
2.962525e-04
2.962525e-04
7.341749e-04
7.341749e-04
9.220467e-04
9.220467e-04
1.312810e-03
1.312810e-03
2.328984e-03
2.328984e-03
3.389382e-03
3.389382e-03
4.400567e-03
4.400567e-03
-1.362874e-04
-1.362874e-04
-4.876688e-03
-4.876688e-03
9.017077e-04
9.017077e-04
4.636469e-03
4.636469e-03
2.750212e-03
2.750212e-03
1.867167e-03
1.867167e-03
1.089557e-03
1.089557e-03
7.738068e-04
7.738068e-04
4.982802e-04
4.982802e-04
2.388004e-04
2.388004e-04
1.225777e-04
1.225777e-04
-4.914420e-06
-2.527661e-06
8.859061e-07
1.357615e-06
6.661656e-07
5.298134e-07
-7.777990e-06
-3.955366e-06
1.348617e-06
1.640694e-06
5.850405e-07
7.186694e-07
-1.180271e-05
-6.603469e-06
8.048664e-07
8.852434e-07
-1.183131e-07
1.006846e-06
-1.482318e-05
-9.622038e-06
-1.288687e-06
-9.169556e-07
-1.165335e-06
1.346762e-06
-1.604954e-05
-1.145342e-05
-2.998611e-06
-1.798646e-06
-1.622841e-06
1.211684e-06
-1.254264e-05
-9.977033e-06
-3.543209e-06
-1.207480e-06
-1.201719e-06
3.365345e-07
-8.518512e-06
-6.659928e-06
-1.981887e-06
2.092734e-07
1.373233e-08
4.464879e-07
-5.441110e-06
-2.856215e-06
4.105210e-07
9.468166e-07
1.139171e-06
1.477072e-06
-1.410933e-06
7.827088e-08
1.241803e-06
9.545825e-07
1.183559e-06
1.374084e-06
8.611868e-07
9.939379e-07
9.494482e-07
7.193892e-07
6.815061e-07
6.964411e-07
1.030360e-06
9.713247e-07
7.351324e-07
5.064049e-07
4.988880e-07
5.429414e-07
-4.458917e-06
-2.026713e-06
7.548701e-07
9.000737e-08
-5.530138e-07
-1.817926e-07
-8.533104e-06
-4.666694e-06
5.089512e-07
-2.716526e-07
-1.610157e-06
-8.588214e-07
-1.551118e-05
-1.028463e-05
-1.999807e-06
-2.220196e-06
-3.917277e-06
-2.335686e-06
-1.942434e-05
-1.542358e-05
-6.665387e-06
-5.100520e-06
-5.892049e-06
-3.491022e-06
-2.007089e-05
-1.731592e-05
-8.877016e-06
-5.883766e-06
-6.196281e-06
-3.818116e-06
-1.653817e-05
-1.362668e-05
-6.297140e-06
-4.163140e-06
-4.712110e-06
-2.977023e-06
-8.323685e-06
-6.256215e-06
-2.044480e-06
-1.962930e-06
-2.553792e-06
-1.081937e-06
-1.343525e-06
-5.709137e-07
5.729628e-07
-1.824985e-07
-4.315123e-07
4.462011e-07
7.195599e-07
1.365399e-06
1.492064e-06
7.735655e-07
7.075768e-07
8.409114e-07
1.167901e-06
1.429866e-06
1.142089e-06
4.827064e-07
4.786122e-07
5.841599e-07
1.488837e-06
1.293453e-06
6.265621e-07
2.643733e-08
1.381281e-07
3.784365e-07
9.733459e-07
-1.165634e-08
-1.091673e-06
-2.257567e-06
-2.682273e-06
-2.036099e-06
2.646415e-07
-1.034505e-06
-1.139534e-06
-3.090571e-06
-5.426290e-06
-4.616855e-06
-8.494258e-08
-4.602229e-06
-3.082045e-06
-3.687823e-06
-9.900429e-06
-9.469787e-06
1.135612e-06
-8.692393e-06
-6.820936e-06
-3.541194e-06
-1.198707e-05
-1.201322e-05
4.026553e-06
-7.736698e-06
-7.326948e-06
-3.514055e-06
-1.177641e-05
-1.167865e-05
4.925364e-06
-3.201886e-06
-4.756028e-06
-3.828017e-06
-9.481652e-06
-9.490190e-06
1.062559e-06
-1.348356e-06
-2.785260e-06
-4.089933e-06
-5.935138e-06
-5.501662e-06
-4.277458e-07
-6.721399e-07
-1.133290e-06
-2.508745e-06
-2.712875e-06
-1.758306e-06
1.084974e-06
8.560201e-07
3.140894e-07
-6.304259e-07
-6.070830e-07
4.779794e-08
1.178732e-06
1.002704e-06
-5.774406e-09
-8.778979e-07
-3.588924e-07
1.997853e-07
1.001575e-06
4.777423e-07
-8.591253e-07
-1.590810e-06
-8.131711e-07
-1.168816e-07
5.114470e-06
3.373911e-07
-3.298632e-06
-2.713838e-06
-2.178075e-06
-1.086049e-06
1.298656e-05
4.223467e-06
-1.477432e-06
-1.329254e-06
-4.101149e-06
-3.959029e-06
2.256911e-05
6.340126e-06
1.896632e-06
5.979448e-06
-6.125237e-06
-1.052725e-05
2.572534e-05
4.422546e-06
3.305708e-06
1.403189e-05
-4.942178e-06
-1.445648e-05
2.882487e-05
6.511205e-06
2.343705e-06
1.301217e-05
-3.786109e-06
-1.310669e-05
2.486256e-05
6.367585e-06
-9.937791e-07
5.610928e-06
-4.423431e-06
-9.928892e-06
1.012089e-05
1.226582e-06
-3.988007e-06
-1.300075e-06
-3.911565e-06
-5.531264e-06
-2.861922e-06
-3.207637e-06
-4.019829e-06
-3.471175e-06
-1.630887e-06
-8.057310e-07
-3.017362e-06
-2.609571e-06
-2.549451e-06
-2.079784e-06
-8.078880e-08
1.100869e-06
3.727491e-07
-7.500686e-07
-2.175526e-06
-1.911968e-06
-3.684397e-07
6.088895e-07
6.107590e-08
-1.162292e-06
-2.828844e-06
-2.648824e-06
-9.466958e-07
1.322280e-07
-6.375110e-06
-3.713916e-06
-4.905617e-06
-5.633411e-06
-1.068918e-06
3.704740e-07
-9.042257e-07
-3.375446e-07
-3.516236e-06
-4.690208e-06
-2.128677e-06
-2.138547e-06
2.423018e-05
1.447718e-05
5.370277e-06
4.755719e-06
-3.023522e-06
-9.542105e-06
6.837491e-05
3.769123e-05
1.409178e-05
1.762514e-05
-1.309761e-06
-1.669380e-05
5.771811e-05
3.353366e-05
1.279768e-05
1.654988e-05
1.883373e-07
-1.647693e-05
-3.419857e-06
4.263113e-06
5.924059e-06
3.857374e-06
-1.409601e-06
-1.063192e-05
-9.811900e-06
-3.947901e-06
-3.457419e-06
-4.560135e-06
-2.733620e-06
-5.177907e-06
4.730806e-06
-1.516039e-06
-7.295443e-06
-4.017233e-06
-9.771859e-07
-7.479076e-07
-6.860149e-07
-2.935772e-06
-4.157675e-06
-1.611729e-06
9.970259e-07
2.087690e-06
-2.345897e-07
-1.277610e-06
-2.196712e-06
-1.007748e-06
1.021496e-06
1.985692e-06
5.684467e-07
-8.941150e-07
-2.185213e-06
-1.099391e-06
6.050152e-07
1.395064e-06
-1.702906e-05
-6.600161e-06
-6.021150e-06
-9.176680e-06
-1.374040e-06
-2.657528e-07
-1.796407e-05
-5.813012e-06
-6.025960e-06
-1.071905e-05
-3.102282e-06
-3.156435e-06
2.237190e-05
2.103545e-05
5.587682e-06
-4.497467e-06
-5.881187e-06
-1.129107e-05
1.115959e-04
7.037769e-05
1.997235e-05
9.388196e-06
-6.090543e-06
-2.017230e-05
8.993182e-05
6.174993e-05
2.100947e-05
1.001619e-05
-4.834199e-06
-2.124987e-05
-2.618040e-05
6.663615e-06
1.337469e-05
-4.044344e-06
-4.713142e-06
-1.409585e-05
-2.961161e-05
-7.193175e-06
-2.402273e-06
-1.056485e-05
-4.393069e-06
-7.686248e-06
1.157591e-05
3.245279e-07
-9.553213e-06
-4.797792e-06
-2.116152e-06
-2.816296e-06
3.982588e-06
-1.592891e-06
-4.330594e-06
-9.172895e-07
7.098689e-07
1.761498e-06
-3.318287e-07
-9.154664e-07
-1.388650e-06
-1.933791e-07
1.786368e-06
2.681298e-06
1.070578e-06
-1.237443e-07
-9.489810e-07
3.707757e-07
1.699712e-06
2.077976e-06
SCALARS EQ_PSTRAIN float 1
LOOKUP_TABLE default
0.000000e+00
0.000000e+00
0.000000e+00
0.000000e+00
0.000000e+00
0.000000e+00
0.000000e+00
0.000000e+00
0.000000e+00
0.000000e+00
0.000000e+00
0.000000e+00
0.000000e+00
0.000000e+00
0.000000e+00
0.000000e+00
0.000000e+00
0.000000e+00
0.000000e+00
0.000000e+00
0.000000e+00
0.000000e+00
0.000000e+00
0.000000e+00
0.000000e+00
0.000000e+00
0.000000e+00
0.000000e+00
0.000000e+00
0.000000e+00
0.000000e+00
0.000000e+00
0.000000e+00
0.000000e+00
0.000000e+00
0.000000e+00
0.000000e+00
0.000000e+00
0.000000e+00
0.000000e+00
0.000000e+00
0.000000e+00
0.000000e+00
0.000000e+00
0.000000e+00
0.000000e+00
0.000000e+00
0.000000e+00
0.000000e+00
0.000000e+00
0.000000e+00
0.000000e+00
0.000000e+00
0.000000e+00
0.000000e+00
0.000000e+00
0.000000e+00
0.000000e+00
0.000000e+00
0.000000e+00
0.000000e+00
0.000000e+00
0.000000e+00
0.000000e+00
0.000000e+00
0.000000e+00
0.000000e+00
0.000000e+00
0.000000e+00
0.000000e+00
0.000000e+00
0.000000e+00
0.000000e+00
0.000000e+00
0.000000e+00
0.000000e+00
0.000000e+00
0.000000e+00
0.000000e+00
0.000000e+00
0.000000e+00
0.000000e+00
0.000000e+00
0.000000e+00
0.000000e+00
0.000000e+00
0.000000e+00
0.000000e+00
0.000000e+00
0.000000e+00
0.000000e+00
0.000000e+00
0.000000e+00
0.000000e+00
0.000000e+00
0.000000e+00
0.000000e+00
0.000000e+00
0.000000e+00
0.000000e+00
0.000000e+00
0.000000e+00
0.000000e+00
0.000000e+00
0.000000e+00
0.000000e+00
0.000000e+00
0.000000e+00
0.000000e+00
0.000000e+00
0.000000e+00
0.000000e+00
0.000000e+00
0.000000e+00
0.000000e+00
0.000000e+00
0.000000e+00
0.000000e+00
0.000000e+00
0.000000e+00
0.000000e+00
0.000000e+00
0.000000e+00
0.000000e+00
0.000000e+00
0.000000e+00
0.000000e+00
0.000000e+00
0.000000e+00
0.000000e+00
0.000000e+00
0.000000e+00
0.000000e+00
0.000000e+00
0.000000e+00
0.000000e+00
0.000000e+00
0.000000e+00
0.000000e+00
0.000000e+00
0.000000e+00
0.000000e+00
0.000000e+00
0.000000e+00
0.000000e+00
0.000000e+00
0.000000e+00
0.000000e+00
0.000000e+00
0.000000e+00
0.000000e+00
0.000000e+00
0.000000e+00
0.000000e+00
0.000000e+00
0.000000e+00
0.000000e+00
0.000000e+00
0.000000e+00
0.000000e+00
0.000000e+00
0.000000e+00
0.000000e+00
0.000000e+00
0.000000e+00
0.000000e+00
0.000000e+00
0.000000e+00
0.000000e+00
0.000000e+00
0.000000e+00
0.000000e+00
0.000000e+00
0.000000e+00
0.000000e+00
0.000000e+00
0.000000e+00
0.000000e+00
0.000000e+00
0.000000e+00
0.000000e+00
0.000000e+00
0.000000e+00
0.000000e+00
0.000000e+00
0.000000e+00
0.000000e+00
0.000000e+00
0.000000e+00
0.000000e+00
0.000000e+00
0.000000e+00
0.000000e+00
0.000000e+00
0.000000e+00
0.000000e+00
0.000000e+00
0.000000e+00
0.000000e+00
0.000000e+00
0.000000e+00
0.000000e+00
0.000000e+00
0.000000e+00
0.000000e+00
0.000000e+00
0.000000e+00
0.000000e+00
0.000000e+00
0.000000e+00
0.000000e+00
0.000000e+00
0.000000e+00
0.000000e+00
0.000000e+00
0.000000e+00
0.000000e+00
0.000000e+00
0.000000e+00
0.000000e+00
0.000000e+00
0.000000e+00
0.000000e+00
0.000000e+00
0.000000e+00
0.000000e+00
0.000000e+00
0.000000e+00
0.000000e+00
0.000000e+00
0.000000e+00
0.000000e+00
0.000000e+00
0.000000e+00
0.000000e+00
0.000000e+00
0.000000e+00
0.000000e+00
0.000000e+00
0.000000e+00
0.000000e+00
0.000000e+00
0.000000e+00
0.000000e+00
0.000000e+00
0.000000e+00
0.000000e+00
0.000000e+00
0.000000e+00
0.000000e+00
0.000000e+00
0.000000e+00
0.000000e+00
0.000000e+00
0.000000e+00
0.000000e+00
0.000000e+00
0.000000e+00
0.000000e+00
0.000000e+00
0.000000e+00
0.000000e+00
0.000000e+00
0.000000e+00
0.000000e+00
0.000000e+00
0.000000e+00
0.000000e+00
0.000000e+00
0.000000e+00
0.000000e+00
0.000000e+00
0.000000e+00
0.000000e+00
0.000000e+00
0.000000e+00
0.000000e+00
0.000000e+00
0.000000e+00
0.000000e+00
0.000000e+00
0.000000e+00
0.000000e+00
0.000000e+00
0.000000e+00
0.000000e+00
0.000000e+00
0.000000e+00
0.000000e+00
0.000000e+00
0.000000e+00
0.000000e+00
0.000000e+00
0.000000e+00
0.000000e+00
0.000000e+00
0.000000e+00
0.000000e+00
0.000000e+00
0.000000e+00
0.000000e+00
0.000000e+00
0.000000e+00
0.000000e+00
0.000000e+00
0.000000e+00
0.000000e+00
0.000000e+00
0.000000e+00
0.000000e+00
0.000000e+00
0.000000e+00
0.000000e+00
0.000000e+00
0.000000e+00
0.000000e+00
0.000000e+00
0.000000e+00
0.000000e+00
0.000000e+00
0.000000e+00
0.000000e+00
0.000000e+00
0.000000e+00
0.000000e+00
0.000000e+00
0.000000e+00
0.000000e+00
0.000000e+00
0.000000e+00
0.000000e+00
0.000000e+00
0.000000e+00
0.000000e+00
0.000000e+00
0.000000e+00
0.000000e+00
0.000000e+00
0.000000e+00
0.000000e+00
0.000000e+00
0.000000e+00
0.000000e+00
0.000000e+00
0.000000e+00
0.000000e+00
0.000000e+00
0.000000e+00
0.000000e+00
0.000000e+00
0.000000e+00
0.000000e+00
0.000000e+00
0.000000e+00
0.000000e+00
0.000000e+00
0.000000e+00
0.000000e+00
0.000000e+00
0.000000e+00
0.000000e+00
0.000000e+00
0.000000e+00
0.000000e+00
0.000000e+00
0.000000e+00
0.000000e+00
0.000000e+00
0.000000e+00
0.000000e+00
0.000000e+00
0.000000e+00
0.000000e+00
0.000000e+00
0.000000e+00
0.000000e+00
0.000000e+00
0.000000e+00
0.000000e+00
0.000000e+00
0.000000e+00
0.000000e+00
0.000000e+00
0.000000e+00
0.000000e+00
0.000000e+00
0.000000e+00
0.000000e+00
0.000000e+00
0.000000e+00
0.000000e+00
0.000000e+00
0.000000e+00
0.000000e+00
0.000000e+00
0.000000e+00
0.000000e+00
0.000000e+00
0.000000e+00
0.000000e+00
0.000000e+00
0.000000e+00
0.000000e+00
0.000000e+00
0.000000e+00
0.000000e+00
0.000000e+00
0.000000e+00
0.000000e+00
0.000000e+00
0.000000e+00
0.000000e+00
0.000000e+00
0.000000e+00
0.000000e+00
0.000000e+00
0.000000e+00
0.000000e+00
0.000000e+00
0.000000e+00
0.000000e+00
0.000000e+00
0.000000e+00
0.000000e+00
0.000000e+00
0.000000e+00
0.000000e+00
0.000000e+00
0.000000e+00
0.000000e+00
0.000000e+00
0.000000e+00
0.000000e+00
0.000000e+00
0.000000e+00
0.000000e+00
0.000000e+00
0.000000e+00
0.000000e+00
0.000000e+00
0.000000e+00
0.000000e+00
0.000000e+00
0.000000e+00
0.000000e+00
0.000000e+00
0.000000e+00
0.000000e+00
0.000000e+00
0.000000e+00
0.000000e+00
0.000000e+00
0.000000e+00
0.000000e+00
0.000000e+00
0.000000e+00
0.000000e+00
0.000000e+00
0.000000e+00
0.000000e+00
0.000000e+00
0.000000e+00
0.000000e+00
0.000000e+00
0.000000e+00
0.000000e+00
0.000000e+00
0.000000e+00
0.000000e+00
0.000000e+00
0.000000e+00
0.000000e+00
0.000000e+00
0.000000e+00
0.000000e+00
0.000000e+00
0.000000e+00
0.000000e+00
0.000000e+00
0.000000e+00
0.000000e+00
0.000000e+00
0.000000e+00
0.000000e+00
0.000000e+00
0.000000e+00
0.000000e+00
0.000000e+00
0.000000e+00
0.000000e+00
0.000000e+00
0.000000e+00
0.000000e+00
0.000000e+00
0.000000e+00
0.000000e+00
0.000000e+00
0.000000e+00
0.000000e+00
0.000000e+00
0.000000e+00
0.000000e+00
0.000000e+00
0.000000e+00
0.000000e+00
0.000000e+00
0.000000e+00
0.000000e+00
0.000000e+00
0.000000e+00
0.000000e+00
0.000000e+00
0.000000e+00
0.000000e+00
0.000000e+00
0.000000e+00
0.000000e+00
0.000000e+00
0.000000e+00
0.000000e+00
0.000000e+00
0.000000e+00
0.000000e+00
0.000000e+00
0.000000e+00
0.000000e+00
0.000000e+00
0.000000e+00
0.000000e+00
0.000000e+00
0.000000e+00
0.000000e+00
0.000000e+00
0.000000e+00
0.000000e+00
0.000000e+00
0.000000e+00
0.000000e+00
0.000000e+00
0.000000e+00
0.000000e+00
0.000000e+00
0.000000e+00
0.000000e+00
0.000000e+00
0.000000e+00
0.000000e+00
0.000000e+00
0.000000e+00
0.000000e+00
0.000000e+00
0.000000e+00
0.000000e+00
0.000000e+00
0.000000e+00
0.000000e+00
0.000000e+00
0.000000e+00
0.000000e+00
0.000000e+00
0.000000e+00
0.000000e+00
0.000000e+00
0.000000e+00
0.000000e+00
0.000000e+00
0.000000e+00
0.000000e+00
0.000000e+00
0.000000e+00
0.000000e+00
0.000000e+00
0.000000e+00
0.000000e+00
0.000000e+00
0.000000e+00
0.000000e+00
0.000000e+00
0.000000e+00
0.000000e+00
0.000000e+00
0.000000e+00
0.000000e+00
0.000000e+00
0.000000e+00
0.000000e+00
0.000000e+00
0.000000e+00
0.000000e+00
0.000000e+00
0.000000e+00
0.000000e+00
0.000000e+00
0.000000e+00
0.000000e+00
0.000000e+00
0.000000e+00
0.000000e+00
0.000000e+00
0.000000e+00
0.000000e+00
0.000000e+00
0.000000e+00
0.000000e+00
0.000000e+00
0.000000e+00
0.000000e+00
0.000000e+00
0.000000e+00
0.000000e+00
0.000000e+00
0.000000e+00
0.000000e+00
0.000000e+00
0.000000e+00
0.000000e+00
0.000000e+00
0.000000e+00
0.000000e+00
0.000000e+00
0.000000e+00
0.000000e+00
0.000000e+00
0.000000e+00
0.000000e+00
0.000000e+00
0.000000e+00
0.000000e+00
0.000000e+00
0.000000e+00
0.000000e+00
0.000000e+00
0.000000e+00
0.000000e+00
0.000000e+00
0.000000e+00
0.000000e+00
0.000000e+00
0.000000e+00
0.000000e+00
0.000000e+00
0.000000e+00
0.000000e+00
0.000000e+00
0.000000e+00
0.000000e+00
0.000000e+00
0.000000e+00
0.000000e+00
0.000000e+00
0.000000e+00
0.000000e+00
0.000000e+00
0.000000e+00
0.000000e+00
0.000000e+00
0.000000e+00
0.000000e+00
0.000000e+00
0.000000e+00
0.000000e+00
0.000000e+00
0.000000e+00
0.000000e+00
0.000000e+00
0.000000e+00
0.000000e+00
0.000000e+00
0.000000e+00
0.000000e+00
0.000000e+00
0.000000e+00
0.000000e+00
0.000000e+00
0.000000e+00
0.000000e+00
0.000000e+00
0.000000e+00
0.000000e+00
0.000000e+00
0.000000e+00
0.000000e+00
0.000000e+00
0.000000e+00
0.000000e+00
0.000000e+00
0.000000e+00
0.000000e+00
0.000000e+00
0.000000e+00
0.000000e+00
0.000000e+00
0.000000e+00
0.000000e+00
0.000000e+00
0.000000e+00
0.000000e+00
0.000000e+00
0.000000e+00
0.000000e+00
0.000000e+00
0.000000e+00
0.000000e+00
0.000000e+00
0.000000e+00
0.000000e+00
0.000000e+00
0.000000e+00
0.000000e+00
0.000000e+00
0.000000e+00
0.000000e+00
0.000000e+00
0.000000e+00
0.000000e+00
0.000000e+00
0.000000e+00
0.000000e+00
0.000000e+00
0.000000e+00
0.000000e+00
0.000000e+00
0.000000e+00
0.000000e+00
0.000000e+00
0.000000e+00
0.000000e+00
0.000000e+00
0.000000e+00
0.000000e+00
0.000000e+00
0.000000e+00
0.000000e+00
0.000000e+00
0.000000e+00
0.000000e+00
0.000000e+00
0.000000e+00
0.000000e+00
0.000000e+00
0.000000e+00
0.000000e+00
0.000000e+00
0.000000e+00
0.000000e+00
0.000000e+00
0.000000e+00
0.000000e+00
0.000000e+00
0.000000e+00
0.000000e+00
0.000000e+00
0.000000e+00
0.000000e+00
0.000000e+00
0.000000e+00
0.000000e+00
0.000000e+00
0.000000e+00
0.000000e+00
0.000000e+00
0.000000e+00
0.000000e+00
0.000000e+00
0.000000e+00
0.000000e+00
0.000000e+00
0.000000e+00
0.000000e+00
0.000000e+00
0.000000e+00
0.000000e+00
0.000000e+00
0.000000e+00
0.000000e+00
0.000000e+00
0.000000e+00
0.000000e+00
0.000000e+00
0.000000e+00
0.000000e+00
0.000000e+00
0.000000e+00
0.000000e+00
0.000000e+00
0.000000e+00
0.000000e+00
0.000000e+00
0.000000e+00
0.000000e+00
0.000000e+00
0.000000e+00
0.000000e+00
0.000000e+00
0.000000e+00
0.000000e+00
0.000000e+00
0.000000e+00
0.000000e+00
0.000000e+00
0.000000e+00
0.000000e+00
0.000000e+00
0.000000e+00
0.000000e+00
0.000000e+00
0.000000e+00
0.000000e+00
0.000000e+00
0.000000e+00
0.000000e+00
0.000000e+00
0.000000e+00
0.000000e+00
0.000000e+00
0.000000e+00
0.000000e+00
0.000000e+00
0.000000e+00
0.000000e+00
0.000000e+00
0.000000e+00
0.000000e+00
0.000000e+00
0.000000e+00
0.000000e+00
0.000000e+00
0.000000e+00
0.000000e+00
0.000000e+00
0.000000e+00
0.000000e+00
0.000000e+00
0.000000e+00
0.000000e+00
0.000000e+00
0.000000e+00
0.000000e+00
0.000000e+00
0.000000e+00
0.000000e+00
0.000000e+00
0.000000e+00
0.000000e+00
0.000000e+00
0.000000e+00
0.000000e+00
0.000000e+00
0.000000e+00
0.000000e+00
0.000000e+00
0.000000e+00
0.000000e+00
0.000000e+00
0.000000e+00
0.000000e+00
0.000000e+00
0.000000e+00
0.000000e+00
0.000000e+00
0.000000e+00
0.000000e+00
0.000000e+00
0.000000e+00
0.000000e+00
0.000000e+00
0.000000e+00
0.000000e+00
0.000000e+00
0.000000e+00
0.000000e+00
0.000000e+00
0.000000e+00
0.000000e+00
0.000000e+00
0.000000e+00
0.000000e+00
0.000000e+00
0.000000e+00
0.000000e+00
0.000000e+00
0.000000e+00
0.000000e+00
0.000000e+00
0.000000e+00
0.000000e+00
0.000000e+00
0.000000e+00
0.000000e+00
0.000000e+00
0.000000e+00
0.000000e+00
0.000000e+00
0.000000e+00
0.000000e+00
0.000000e+00
0.000000e+00
0.000000e+00
0.000000e+00
0.000000e+00
0.000000e+00
0.000000e+00
0.000000e+00
0.000000e+00
0.000000e+00
0.000000e+00
0.000000e+00
0.000000e+00
0.000000e+00
0.000000e+00
0.000000e+00
0.000000e+00
0.000000e+00
0.000000e+00
0.000000e+00
0.000000e+00
0.000000e+00
0.000000e+00
0.000000e+00
0.000000e+00
0.000000e+00
0.000000e+00
0.000000e+00
0.000000e+00
0.000000e+00
0.000000e+00
0.000000e+00
0.000000e+00
0.000000e+00
0.000000e+00
0.000000e+00
0.000000e+00
0.000000e+00
0.000000e+00
0.000000e+00
0.000000e+00
0.000000e+00
0.000000e+00
0.000000e+00
0.000000e+00
0.000000e+00
0.000000e+00
0.000000e+00
0.000000e+00
0.000000e+00
0.000000e+00
0.000000e+00
0.000000e+00
0.000000e+00
0.000000e+00
0.000000e+00
0.000000e+00
0.000000e+00
0.000000e+00
0.000000e+00
0.000000e+00
0.000000e+00
0.000000e+00
0.000000e+00
0.000000e+00
0.000000e+00
0.000000e+00
0.000000e+00
0.000000e+00
0.000000e+00
0.000000e+00
0.000000e+00
0.000000e+00
0.000000e+00
0.000000e+00
0.000000e+00
0.000000e+00
0.000000e+00
0.000000e+00
0.000000e+00
0.000000e+00
0.000000e+00
0.000000e+00
0.000000e+00
0.000000e+00
0.000000e+00
0.000000e+00
0.000000e+00
0.000000e+00
0.000000e+00
0.000000e+00
0.000000e+00
0.000000e+00
0.000000e+00
0.000000e+00
0.000000e+00
0.000000e+00
0.000000e+00
0.000000e+00
0.000000e+00
0.000000e+00
0.000000e+00
0.000000e+00
0.000000e+00
0.000000e+00
0.000000e+00
0.000000e+00
0.000000e+00
0.000000e+00
0.000000e+00
0.000000e+00
0.000000e+00
0.000000e+00
0.000000e+00
0.000000e+00
0.000000e+00
0.000000e+00
0.000000e+00
0.000000e+00
0.000000e+00
0.000000e+00
0.000000e+00
0.000000e+00
0.000000e+00
0.000000e+00
0.000000e+00
0.000000e+00
0.000000e+00
0.000000e+00
0.000000e+00
0.000000e+00
0.000000e+00
0.000000e+00
0.000000e+00
0.000000e+00
0.000000e+00
0.000000e+00
0.000000e+00
0.000000e+00
0.000000e+00
0.000000e+00
0.000000e+00
0.000000e+00
0.000000e+00
0.000000e+00
0.000000e+00
0.000000e+00
0.000000e+00
0.000000e+00
0.000000e+00
0.000000e+00
0.000000e+00
0.000000e+00
0.000000e+00
0.000000e+00
0.000000e+00
0.000000e+00
0.000000e+00
0.000000e+00
0.000000e+00
0.000000e+00
0.000000e+00
0.000000e+00
0.000000e+00
0.000000e+00
0.000000e+00
0.000000e+00
0.000000e+00
0.000000e+00
0.000000e+00
0.000000e+00
0.000000e+00
0.000000e+00
0.000000e+00
0.000000e+00
0.000000e+00
0.000000e+00
0.000000e+00
0.000000e+00
0.000000e+00
0.000000e+00
0.000000e+00
0.000000e+00
0.000000e+00
0.000000e+00
0.000000e+00
0.000000e+00
0.000000e+00
0.000000e+00
0.000000e+00
0.000000e+00
0.000000e+00
0.000000e+00
0.000000e+00
0.000000e+00
0.000000e+00
0.000000e+00
0.000000e+00
0.000000e+00
0.000000e+00
0.000000e+00
0.000000e+00
0.000000e+00
0.000000e+00
0.000000e+00
0.000000e+00
0.000000e+00
0.000000e+00
0.000000e+00
0.000000e+00
0.000000e+00
0.000000e+00
0.000000e+00
0.000000e+00
0.000000e+00
0.000000e+00
0.000000e+00
0.000000e+00
0.000000e+00
0.000000e+00
0.000000e+00
0.000000e+00
0.000000e+00
0.000000e+00
0.000000e+00
0.000000e+00
0.000000e+00
0.000000e+00
0.000000e+00
0.000000e+00
0.000000e+00
0.000000e+00
0.000000e+00
0.000000e+00
0.000000e+00
0.000000e+00
0.000000e+00
0.000000e+00
0.000000e+00
0.000000e+00
0.000000e+00
0.000000e+00
0.000000e+00
0.000000e+00
0.000000e+00
0.000000e+00
0.000000e+00
0.000000e+00
0.000000e+00
0.000000e+00
0.000000e+00
0.000000e+00
0.000000e+00
0.000000e+00
0.000000e+00
0.000000e+00
0.000000e+00
0.000000e+00
0.000000e+00
0.000000e+00
0.000000e+00
0.000000e+00
0.000000e+00
0.000000e+00
0.000000e+00
0.000000e+00
0.000000e+00
0.000000e+00
0.000000e+00
0.000000e+00
0.000000e+00
0.000000e+00
0.000000e+00
0.000000e+00
0.000000e+00
0.000000e+00
0.000000e+00
0.000000e+00
0.000000e+00
0.000000e+00
0.000000e+00
0.000000e+00
0.000000e+00
0.000000e+00
0.000000e+00
0.000000e+00
0.000000e+00
0.000000e+00
0.000000e+00
0.000000e+00
0.000000e+00
0.000000e+00
0.000000e+00
0.000000e+00
0.000000e+00
0.000000e+00
0.000000e+00
0.000000e+00
0.000000e+00
0.000000e+00
0.000000e+00
0.000000e+00
0.000000e+00
0.000000e+00
0.000000e+00
0.000000e+00
0.000000e+00
0.000000e+00
0.000000e+00
0.000000e+00
0.000000e+00
0.000000e+00
0.000000e+00
0.000000e+00
0.000000e+00
0.000000e+00
0.000000e+00
0.000000e+00
0.000000e+00
0.000000e+00
0.000000e+00
0.000000e+00
0.000000e+00
0.000000e+00
0.000000e+00
0.000000e+00
0.000000e+00
0.000000e+00
0.000000e+00
0.000000e+00
0.000000e+00
0.000000e+00
0.000000e+00
0.000000e+00
0.000000e+00
0.000000e+00
0.000000e+00
0.000000e+00
0.000000e+00
0.000000e+00
0.000000e+00
0.000000e+00
0.000000e+00
0.000000e+00
0.000000e+00
0.000000e+00
0.000000e+00
0.000000e+00
0.000000e+00
0.000000e+00
0.000000e+00
0.000000e+00
0.000000e+00
0.000000e+00
0.000000e+00
0.000000e+00
0.000000e+00
0.000000e+00
0.000000e+00
0.000000e+00
0.000000e+00
0.000000e+00
0.000000e+00
0.000000e+00
0.000000e+00
0.000000e+00
0.000000e+00
0.000000e+00
0.000000e+00
0.000000e+00
0.000000e+00
0.000000e+00
0.000000e+00
0.000000e+00
0.000000e+00
0.000000e+00
0.000000e+00
0.000000e+00
0.000000e+00
0.000000e+00
0.000000e+00
0.000000e+00
0.000000e+00
0.000000e+00
0.000000e+00
0.000000e+00
0.000000e+00
0.000000e+00
0.000000e+00
0.000000e+00
0.000000e+00
0.000000e+00
0.000000e+00
0.000000e+00
0.000000e+00
0.000000e+00
0.000000e+00
0.000000e+00
0.000000e+00
0.000000e+00
0.000000e+00
0.000000e+00
0.000000e+00
0.000000e+00
0.000000e+00
0.000000e+00
0.000000e+00
0.000000e+00
0.000000e+00
0.000000e+00
0.000000e+00
0.000000e+00
0.000000e+00
0.000000e+00
0.000000e+00
0.000000e+00
0.000000e+00
0.000000e+00
0.000000e+00
0.000000e+00
0.000000e+00
0.000000e+00
0.000000e+00
0.000000e+00
0.000000e+00
0.000000e+00
0.000000e+00
0.000000e+00
0.000000e+00
0.000000e+00
0.000000e+00
0.000000e+00
0.000000e+00
0.000000e+00
0.000000e+00
0.000000e+00
0.000000e+00
0.000000e+00
0.000000e+00
0.000000e+00
0.000000e+00
0.000000e+00
0.000000e+00
0.000000e+00
0.000000e+00
0.000000e+00
0.000000e+00
0.000000e+00
0.000000e+00
0.000000e+00
0.000000e+00
0.000000e+00
0.000000e+00
0.000000e+00
0.000000e+00
0.000000e+00
0.000000e+00
0.000000e+00
0.000000e+00
0.000000e+00
0.000000e+00
0.000000e+00
0.000000e+00
0.000000e+00
0.000000e+00
0.000000e+00
0.000000e+00
0.000000e+00
0.000000e+00
0.000000e+00
0.000000e+00
0.000000e+00
0.000000e+00
0.000000e+00
0.000000e+00
0.000000e+00
0.000000e+00
0.000000e+00
0.000000e+00
0.000000e+00
0.000000e+00
0.000000e+00
0.000000e+00
0.000000e+00
0.000000e+00
0.000000e+00
0.000000e+00
0.000000e+00
0.000000e+00
0.000000e+00
0.000000e+00
0.000000e+00
0.000000e+00
0.000000e+00
0.000000e+00
0.000000e+00
0.000000e+00
0.000000e+00
0.000000e+00
0.000000e+00
0.000000e+00
0.000000e+00
0.000000e+00
0.000000e+00
0.000000e+00
0.000000e+00
0.000000e+00
0.000000e+00
0.000000e+00
0.000000e+00
0.000000e+00
0.000000e+00
0.000000e+00
0.000000e+00
0.000000e+00
0.000000e+00
0.000000e+00
0.000000e+00
0.000000e+00
0.000000e+00
0.000000e+00
0.000000e+00
0.000000e+00
0.000000e+00
0.000000e+00
0.000000e+00
0.000000e+00
0.000000e+00
0.000000e+00
0.000000e+00
0.000000e+00
0.000000e+00
0.000000e+00
0.000000e+00
0.000000e+00
0.000000e+00
0.000000e+00
0.000000e+00
0.000000e+00
0.000000e+00
0.000000e+00
0.000000e+00
0.000000e+00
0.000000e+00
0.000000e+00
0.000000e+00
0.000000e+00
0.000000e+00
0.000000e+00
0.000000e+00
0.000000e+00
0.000000e+00
0.000000e+00
0.000000e+00
0.000000e+00
0.000000e+00
0.000000e+00
0.000000e+00
0.000000e+00
0.000000e+00
0.000000e+00
0.000000e+00
0.000000e+00
0.000000e+00
0.000000e+00
0.000000e+00
0.000000e+00
0.000000e+00
0.000000e+00
0.000000e+00
0.000000e+00
0.000000e+00
0.000000e+00
0.000000e+00
0.000000e+00
0.000000e+00
0.000000e+00
0.000000e+00
0.000000e+00
0.000000e+00
0.000000e+00
0.000000e+00
0.000000e+00
0.000000e+00
0.000000e+00
0.000000e+00
0.000000e+00
0.000000e+00
0.000000e+00
0.000000e+00
0.000000e+00
0.000000e+00
0.000000e+00
0.000000e+00
0.000000e+00
0.000000e+00
0.000000e+00
0.000000e+00
0.000000e+00
0.000000e+00
0.000000e+00
0.000000e+00
0.000000e+00
0.000000e+00
0.000000e+00
0.000000e+00
0.000000e+00
0.000000e+00
0.000000e+00
0.000000e+00
0.000000e+00
0.000000e+00
0.000000e+00
0.000000e+00
0.000000e+00
0.000000e+00
0.000000e+00
0.000000e+00
0.000000e+00
0.000000e+00
0.000000e+00
0.000000e+00
0.000000e+00
0.000000e+00
0.000000e+00
0.000000e+00
0.000000e+00
0.000000e+00
0.000000e+00
0.000000e+00
0.000000e+00
0.000000e+00
0.000000e+00
0.000000e+00
0.000000e+00
0.000000e+00
0.000000e+00
0.000000e+00
0.000000e+00
0.000000e+00
0.000000e+00
0.000000e+00
0.000000e+00
0.000000e+00
0.000000e+00
0.000000e+00
0.000000e+00
0.000000e+00
0.000000e+00
0.000000e+00
0.000000e+00
0.000000e+00
0.000000e+00
0.000000e+00
0.000000e+00
0.000000e+00
0.000000e+00
0.000000e+00
0.000000e+00
0.000000e+00
0.000000e+00
0.000000e+00
0.000000e+00
0.000000e+00
0.000000e+00
0.000000e+00
0.000000e+00
0.000000e+00
0.000000e+00
0.000000e+00
0.000000e+00
0.000000e+00
0.000000e+00
0.000000e+00
0.000000e+00
0.000000e+00
0.000000e+00
0.000000e+00
0.000000e+00
0.000000e+00
0.000000e+00
0.000000e+00
0.000000e+00
0.000000e+00
0.000000e+00
0.000000e+00
0.000000e+00
0.000000e+00
0.000000e+00
0.000000e+00
0.000000e+00
0.000000e+00
0.000000e+00
0.000000e+00
0.000000e+00
0.000000e+00
0.000000e+00
0.000000e+00
0.000000e+00
0.000000e+00
0.000000e+00
0.000000e+00
0.000000e+00
0.000000e+00
0.000000e+00
0.000000e+00
0.000000e+00
0.000000e+00
0.000000e+00
0.000000e+00
0.000000e+00
0.000000e+00
0.000000e+00
0.000000e+00
0.000000e+00
0.000000e+00
0.000000e+00
0.000000e+00
0.000000e+00
0.000000e+00
0.000000e+00
0.000000e+00
0.000000e+00
0.000000e+00
0.000000e+00
0.000000e+00
0.000000e+00
0.000000e+00
0.000000e+00
0.000000e+00
0.000000e+00
0.000000e+00
0.000000e+00
0.000000e+00
0.000000e+00
0.000000e+00
0.000000e+00
0.000000e+00
0.000000e+00
0.000000e+00
0.000000e+00
0.000000e+00
0.000000e+00
0.000000e+00
0.000000e+00
0.000000e+00
0.000000e+00
0.000000e+00
0.000000e+00
0.000000e+00
0.000000e+00
0.000000e+00
0.000000e+00
0.000000e+00
0.000000e+00
0.000000e+00
0.000000e+00
0.000000e+00
0.000000e+00
0.000000e+00
0.000000e+00
0.000000e+00
0.000000e+00
0.000000e+00
0.000000e+00
0.000000e+00
0.000000e+00
0.000000e+00
0.000000e+00
0.000000e+00
0.000000e+00
0.000000e+00
0.000000e+00
0.000000e+00
0.000000e+00
0.000000e+00
0.000000e+00
0.000000e+00
0.000000e+00
0.000000e+00
0.000000e+00
0.000000e+00
0.000000e+00
0.000000e+00
0.000000e+00
0.000000e+00
0.000000e+00
0.000000e+00
0.000000e+00
0.000000e+00
0.000000e+00
0.000000e+00
0.000000e+00
0.000000e+00
0.000000e+00
0.000000e+00
0.000000e+00
0.000000e+00
0.000000e+00
0.000000e+00
0.000000e+00
0.000000e+00
0.000000e+00
0.000000e+00
0.000000e+00
0.000000e+00
0.000000e+00
0.000000e+00
0.000000e+00
0.000000e+00
0.000000e+00
0.000000e+00
0.000000e+00
0.000000e+00
0.000000e+00
0.000000e+00
0.000000e+00
0.000000e+00
0.000000e+00
0.000000e+00
0.000000e+00
0.000000e+00
0.000000e+00
0.000000e+00
0.000000e+00
0.000000e+00
0.000000e+00
0.000000e+00
0.000000e+00
0.000000e+00
0.000000e+00
0.000000e+00
0.000000e+00
0.000000e+00
0.000000e+00
0.000000e+00
0.000000e+00
0.000000e+00
0.000000e+00
0.000000e+00
0.000000e+00
0.000000e+00
0.000000e+00
0.000000e+00
0.000000e+00
0.000000e+00
0.000000e+00
0.000000e+00
0.000000e+00
0.000000e+00
0.000000e+00
0.000000e+00
0.000000e+00
0.000000e+00
0.000000e+00
0.000000e+00
0.000000e+00
0.000000e+00
0.000000e+00
0.000000e+00
0.000000e+00
0.000000e+00
0.000000e+00
0.000000e+00
0.000000e+00
0.000000e+00
0.000000e+00
0.000000e+00
0.000000e+00
0.000000e+00
0.000000e+00
0.000000e+00
0.000000e+00
0.000000e+00
0.000000e+00
0.000000e+00
0.000000e+00
0.000000e+00
0.000000e+00
0.000000e+00
0.000000e+00
0.000000e+00
0.000000e+00
0.000000e+00
0.000000e+00
0.000000e+00
0.000000e+00
0.000000e+00
0.000000e+00
0.000000e+00
0.000000e+00
0.000000e+00
0.000000e+00
0.000000e+00
0.000000e+00
0.000000e+00
0.000000e+00
0.000000e+00
0.000000e+00
0.000000e+00
0.000000e+00
0.000000e+00
0.000000e+00
0.000000e+00
0.000000e+00
0.000000e+00
0.000000e+00
0.000000e+00
0.000000e+00
0.000000e+00
0.000000e+00
0.000000e+00
0.000000e+00
0.000000e+00
0.000000e+00
0.000000e+00
0.000000e+00
0.000000e+00
0.000000e+00
0.000000e+00
0.000000e+00
0.000000e+00
0.000000e+00
0.000000e+00
0.000000e+00
0.000000e+00
0.000000e+00
0.000000e+00
0.000000e+00
0.000000e+00
0.000000e+00
0.000000e+00
0.000000e+00
0.000000e+00
0.000000e+00
0.000000e+00
0.000000e+00
0.000000e+00
0.000000e+00
0.000000e+00
0.000000e+00
0.000000e+00
0.000000e+00
0.000000e+00
0.000000e+00
0.000000e+00
0.000000e+00
0.000000e+00
0.000000e+00
0.000000e+00
0.000000e+00
0.000000e+00
0.000000e+00
0.000000e+00
0.000000e+00
0.000000e+00
0.000000e+00
0.000000e+00
0.000000e+00
0.000000e+00
0.000000e+00
0.000000e+00
0.000000e+00
0.000000e+00
0.000000e+00
0.000000e+00
0.000000e+00
0.000000e+00
0.000000e+00
0.000000e+00
0.000000e+00
0.000000e+00
0.000000e+00
0.000000e+00
0.000000e+00
0.000000e+00
0.000000e+00
0.000000e+00
0.000000e+00
0.000000e+00
0.000000e+00
0.000000e+00
0.000000e+00
0.000000e+00
0.000000e+00
0.000000e+00
0.000000e+00
0.000000e+00
0.000000e+00
0.000000e+00
0.000000e+00
0.000000e+00
0.000000e+00
0.000000e+00
0.000000e+00
0.000000e+00
0.000000e+00
0.000000e+00
0.000000e+00
0.000000e+00
0.000000e+00
0.000000e+00
0.000000e+00
0.000000e+00
0.000000e+00
0.000000e+00
0.000000e+00
0.000000e+00
0.000000e+00
0.000000e+00
0.000000e+00
0.000000e+00
0.000000e+00
0.000000e+00
0.000000e+00
0.000000e+00
0.000000e+00
0.000000e+00
0.000000e+00
0.000000e+00
0.000000e+00
0.000000e+00
0.000000e+00
0.000000e+00
0.000000e+00
0.000000e+00
0.000000e+00
0.000000e+00
0.000000e+00
0.000000e+00
0.000000e+00
0.000000e+00
0.000000e+00
0.000000e+00
0.000000e+00
0.000000e+00
0.000000e+00
0.000000e+00
0.000000e+00
0.000000e+00
0.000000e+00
0.000000e+00
0.000000e+00
0.000000e+00
0.000000e+00
0.000000e+00
0.000000e+00
0.000000e+00
0.000000e+00
0.000000e+00
0.000000e+00
0.000000e+00
0.000000e+00
0.000000e+00
0.000000e+00
0.000000e+00
0.000000e+00
0.000000e+00
0.000000e+00
0.000000e+00
0.000000e+00
0.000000e+00
0.000000e+00
0.000000e+00
0.000000e+00
0.000000e+00
0.000000e+00
0.000000e+00
0.000000e+00
0.000000e+00
0.000000e+00
0.000000e+00
0.000000e+00
0.000000e+00
0.000000e+00
0.000000e+00
0.000000e+00
0.000000e+00
0.000000e+00
0.000000e+00
0.000000e+00
0.000000e+00
0.000000e+00
0.000000e+00
0.000000e+00
0.000000e+00
0.000000e+00
0.000000e+00
0.000000e+00
0.000000e+00
0.000000e+00
0.000000e+00
0.000000e+00
0.000000e+00
0.000000e+00
0.000000e+00
0.000000e+00
0.000000e+00
0.000000e+00
0.000000e+00
0.000000e+00
0.000000e+00
0.000000e+00
0.000000e+00
0.000000e+00
0.000000e+00
0.000000e+00
0.000000e+00
0.000000e+00
0.000000e+00
0.000000e+00
0.000000e+00
0.000000e+00
0.000000e+00
0.000000e+00
0.000000e+00
0.000000e+00
0.000000e+00
0.000000e+00
0.000000e+00
0.000000e+00
0.000000e+00
0.000000e+00
0.000000e+00
0.000000e+00
0.000000e+00
0.000000e+00
0.000000e+00
0.000000e+00
0.000000e+00
0.000000e+00
0.000000e+00
0.000000e+00
0.000000e+00
0.000000e+00
0.000000e+00
0.000000e+00
0.000000e+00
0.000000e+00
0.000000e+00
0.000000e+00
0.000000e+00
0.000000e+00
0.000000e+00
0.000000e+00
0.000000e+00
0.000000e+00
0.000000e+00
0.000000e+00
0.000000e+00
0.000000e+00
0.000000e+00
0.000000e+00
0.000000e+00
0.000000e+00
0.000000e+00
0.000000e+00
0.000000e+00
0.000000e+00
0.000000e+00
0.000000e+00
0.000000e+00
0.000000e+00
0.000000e+00
0.000000e+00
0.000000e+00
0.000000e+00
0.000000e+00
0.000000e+00
0.000000e+00
0.000000e+00
0.000000e+00
0.000000e+00
0.000000e+00
0.000000e+00
0.000000e+00
0.000000e+00
0.000000e+00
0.000000e+00
0.000000e+00
0.000000e+00
0.000000e+00
0.000000e+00
0.000000e+00
0.000000e+00
0.000000e+00
0.000000e+00
0.000000e+00
0.000000e+00
0.000000e+00
0.000000e+00
0.000000e+00
0.000000e+00
0.000000e+00
0.000000e+00
0.000000e+00
0.000000e+00
0.000000e+00
0.000000e+00
0.000000e+00
0.000000e+00
0.000000e+00
0.000000e+00
0.000000e+00
0.000000e+00
0.000000e+00
0.000000e+00
0.000000e+00
0.000000e+00
0.000000e+00
0.000000e+00
0.000000e+00
0.000000e+00
0.000000e+00
0.000000e+00
0.000000e+00
0.000000e+00
0.000000e+00
0.000000e+00
0.000000e+00
0.000000e+00
0.000000e+00
0.000000e+00
0.000000e+00
0.000000e+00
0.000000e+00
0.000000e+00
0.000000e+00
0.000000e+00
0.000000e+00
0.000000e+00
0.000000e+00
0.000000e+00
0.000000e+00
0.000000e+00
0.000000e+00
0.000000e+00
0.000000e+00
0.000000e+00
0.000000e+00
0.000000e+00
0.000000e+00
0.000000e+00
0.000000e+00
0.000000e+00
0.000000e+00
0.000000e+00
0.000000e+00
0.000000e+00
0.000000e+00
0.000000e+00
0.000000e+00
0.000000e+00
0.000000e+00
0.000000e+00
0.000000e+00
0.000000e+00
0.000000e+00
0.000000e+00
0.000000e+00
0.000000e+00
0.000000e+00
0.000000e+00
0.000000e+00
0.000000e+00
0.000000e+00
0.000000e+00
0.000000e+00
0.000000e+00
0.000000e+00
0.000000e+00
0.000000e+00
0.000000e+00
0.000000e+00
0.000000e+00
0.000000e+00
0.000000e+00
0.000000e+00
0.000000e+00
0.000000e+00
0.000000e+00
0.000000e+00
0.000000e+00
0.000000e+00
0.000000e+00
0.000000e+00
0.000000e+00
0.000000e+00
0.000000e+00
0.000000e+00
0.000000e+00
0.000000e+00
0.000000e+00
0.000000e+00
0.000000e+00
0.000000e+00
0.000000e+00
0.000000e+00
0.000000e+00
0.000000e+00
0.000000e+00
0.000000e+00
0.000000e+00
0.000000e+00
0.000000e+00
0.000000e+00
0.000000e+00
0.000000e+00
0.000000e+00
0.000000e+00
0.000000e+00
0.000000e+00
0.000000e+00
0.000000e+00
0.000000e+00
0.000000e+00
0.000000e+00
0.000000e+00
0.000000e+00
0.000000e+00
0.000000e+00
0.000000e+00
0.000000e+00
0.000000e+00
0.000000e+00
0.000000e+00
0.000000e+00
0.000000e+00
0.000000e+00
0.000000e+00
0.000000e+00
0.000000e+00
0.000000e+00
0.000000e+00
0.000000e+00
0.000000e+00
0.000000e+00
0.000000e+00
0.000000e+00
0.000000e+00
0.000000e+00
0.000000e+00
0.000000e+00
0.000000e+00
0.000000e+00
0.000000e+00
0.000000e+00
0.000000e+00
0.000000e+00
0.000000e+00
0.000000e+00
0.000000e+00
0.000000e+00
0.000000e+00
0.000000e+00
0.000000e+00
0.000000e+00
0.000000e+00
0.000000e+00
0.000000e+00
0.000000e+00
0.000000e+00
0.000000e+00
0.000000e+00
0.000000e+00
0.000000e+00
0.000000e+00
0.000000e+00
0.000000e+00
0.000000e+00
0.000000e+00
0.000000e+00
0.000000e+00
0.000000e+00
0.000000e+00
0.000000e+00
0.000000e+00
0.000000e+00
0.000000e+00
0.000000e+00
0.000000e+00
0.000000e+00
0.000000e+00
0.000000e+00
0.000000e+00
0.000000e+00
0.000000e+00
0.000000e+00
0.000000e+00
0.000000e+00
0.000000e+00
0.000000e+00
0.000000e+00
0.000000e+00
0.000000e+00
0.000000e+00
0.000000e+00
0.000000e+00
0.000000e+00
0.000000e+00
0.000000e+00
0.000000e+00
0.000000e+00
0.000000e+00
0.000000e+00
0.000000e+00
0.000000e+00
0.000000e+00
0.000000e+00
0.000000e+00
0.000000e+00
0.000000e+00
0.000000e+00
0.000000e+00
0.000000e+00
0.000000e+00
0.000000e+00
0.000000e+00
0.000000e+00
0.000000e+00
0.000000e+00
0.000000e+00
0.000000e+00
0.000000e+00
0.000000e+00
0.000000e+00
0.000000e+00
0.000000e+00
0.000000e+00
0.000000e+00
0.000000e+00
0.000000e+00
0.000000e+00
0.000000e+00
0.000000e+00
0.000000e+00
0.000000e+00
0.000000e+00
0.000000e+00
0.000000e+00
0.000000e+00
0.000000e+00
0.000000e+00
0.000000e+00
0.000000e+00
0.000000e+00
0.000000e+00
0.000000e+00
0.000000e+00
0.000000e+00
0.000000e+00
0.000000e+00
0.000000e+00
0.000000e+00
0.000000e+00
0.000000e+00
0.000000e+00
0.000000e+00
0.000000e+00
0.000000e+00
0.000000e+00
0.000000e+00
0.000000e+00
0.000000e+00
0.000000e+00
0.000000e+00
0.000000e+00
0.000000e+00
0.000000e+00
0.000000e+00
0.000000e+00
0.000000e+00
0.000000e+00
0.000000e+00
0.000000e+00
0.000000e+00
0.000000e+00
0.000000e+00
0.000000e+00
0.000000e+00
0.000000e+00
0.000000e+00
0.000000e+00
0.000000e+00
0.000000e+00
0.000000e+00
0.000000e+00
0.000000e+00
0.000000e+00
0.000000e+00
0.000000e+00
0.000000e+00
0.000000e+00
0.000000e+00
0.000000e+00
0.000000e+00
0.000000e+00
0.000000e+00
0.000000e+00
0.000000e+00
0.000000e+00
0.000000e+00
0.000000e+00
0.000000e+00
0.000000e+00
0.000000e+00
0.000000e+00
0.000000e+00
0.000000e+00
0.000000e+00
0.000000e+00
0.000000e+00
0.000000e+00
0.000000e+00
0.000000e+00
0.000000e+00
0.000000e+00
0.000000e+00
0.000000e+00
0.000000e+00
0.000000e+00
0.000000e+00
0.000000e+00
0.000000e+00
0.000000e+00
0.000000e+00
0.000000e+00
0.000000e+00
0.000000e+00
0.000000e+00
0.000000e+00
0.000000e+00
0.000000e+00
0.000000e+00
0.000000e+00
0.000000e+00
0.000000e+00
0.000000e+00
0.000000e+00
0.000000e+00
0.000000e+00
0.000000e+00
0.000000e+00
0.000000e+00
0.000000e+00
0.000000e+00
0.000000e+00
0.000000e+00
0.000000e+00
0.000000e+00
0.000000e+00
0.000000e+00
0.000000e+00
0.000000e+00
0.000000e+00
0.000000e+00
0.000000e+00
0.000000e+00
0.000000e+00
0.000000e+00
0.000000e+00
0.000000e+00
0.000000e+00
0.000000e+00
0.000000e+00
0.000000e+00
0.000000e+00
0.000000e+00
0.000000e+00
0.000000e+00
0.000000e+00
0.000000e+00
0.000000e+00
0.000000e+00
0.000000e+00
0.000000e+00
0.000000e+00
0.000000e+00
0.000000e+00
0.000000e+00
0.000000e+00
0.000000e+00
0.000000e+00
0.000000e+00
0.000000e+00
0.000000e+00
0.000000e+00
0.000000e+00
0.000000e+00
0.000000e+00
0.000000e+00
0.000000e+00
0.000000e+00
0.000000e+00
0.000000e+00
0.000000e+00
0.000000e+00
0.000000e+00
0.000000e+00
0.000000e+00
0.000000e+00
0.000000e+00
0.000000e+00
0.000000e+00
0.000000e+00
0.000000e+00
0.000000e+00
0.000000e+00
0.000000e+00
0.000000e+00
0.000000e+00
0.000000e+00
0.000000e+00
0.000000e+00
0.000000e+00
0.000000e+00
0.000000e+00
0.000000e+00
0.000000e+00
0.000000e+00
0.000000e+00
0.000000e+00
0.000000e+00
0.000000e+00
0.000000e+00
0.000000e+00
0.000000e+00
0.000000e+00
0.000000e+00
0.000000e+00
0.000000e+00
0.000000e+00
0.000000e+00
0.000000e+00
0.000000e+00
0.000000e+00
0.000000e+00
0.000000e+00
0.000000e+00
0.000000e+00
0.000000e+00
0.000000e+00
0.000000e+00
0.000000e+00
0.000000e+00
0.000000e+00
0.000000e+00
0.000000e+00
0.000000e+00
0.000000e+00
0.000000e+00
0.000000e+00
0.000000e+00
0.000000e+00
0.000000e+00
0.000000e+00
0.000000e+00
0.000000e+00
0.000000e+00
0.000000e+00
0.000000e+00
0.000000e+00
0.000000e+00
0.000000e+00
0.000000e+00
0.000000e+00
0.000000e+00
0.000000e+00
0.000000e+00
0.000000e+00
0.000000e+00
0.000000e+00
0.000000e+00
0.000000e+00
0.000000e+00
0.000000e+00
0.000000e+00
0.000000e+00
0.000000e+00
0.000000e+00
0.000000e+00
0.000000e+00
0.000000e+00
0.000000e+00
0.000000e+00
0.000000e+00
0.000000e+00
0.000000e+00
0.000000e+00
0.000000e+00
0.000000e+00
0.000000e+00
0.000000e+00
0.000000e+00
0.000000e+00
0.000000e+00
0.000000e+00
0.000000e+00
0.000000e+00
0.000000e+00
0.000000e+00
0.000000e+00
0.000000e+00
0.000000e+00
0.000000e+00
0.000000e+00
0.000000e+00
0.000000e+00
0.000000e+00
0.000000e+00
0.000000e+00
0.000000e+00
0.000000e+00
0.000000e+00
0.000000e+00
0.000000e+00
0.000000e+00
0.000000e+00
0.000000e+00
0.000000e+00
0.000000e+00
0.000000e+00
0.000000e+00
0.000000e+00
0.000000e+00
0.000000e+00
0.000000e+00
0.000000e+00
0.000000e+00
0.000000e+00
0.000000e+00
0.000000e+00
0.000000e+00
0.000000e+00
0.000000e+00
0.000000e+00
0.000000e+00
0.000000e+00
0.000000e+00
0.000000e+00
0.000000e+00
0.000000e+00
0.000000e+00
0.000000e+00
0.000000e+00
0.000000e+00
0.000000e+00
0.000000e+00
0.000000e+00
0.000000e+00
0.000000e+00
0.000000e+00
0.000000e+00
0.000000e+00
0.000000e+00
0.000000e+00
0.000000e+00
0.000000e+00
0.000000e+00
0.000000e+00
0.000000e+00
0.000000e+00
0.000000e+00
0.000000e+00
0.000000e+00
0.000000e+00
0.000000e+00
0.000000e+00
0.000000e+00
0.000000e+00
0.000000e+00
0.000000e+00
0.000000e+00
0.000000e+00
0.000000e+00
0.000000e+00
0.000000e+00
0.000000e+00
0.000000e+00
0.000000e+00
0.000000e+00
0.000000e+00
0.000000e+00
0.000000e+00
0.000000e+00
0.000000e+00
0.000000e+00
0.000000e+00
0.000000e+00
0.000000e+00
0.000000e+00
0.000000e+00
0.000000e+00
0.000000e+00
0.000000e+00
0.000000e+00
0.000000e+00
0.000000e+00
0.000000e+00
0.000000e+00
0.000000e+00
0.000000e+00
0.000000e+00
0.000000e+00
0.000000e+00
0.000000e+00
0.000000e+00
0.000000e+00
0.000000e+00
0.000000e+00
0.000000e+00
0.000000e+00
0.000000e+00
0.000000e+00
0.000000e+00
0.000000e+00
0.000000e+00
0.000000e+00
0.000000e+00
0.000000e+00
0.000000e+00
0.000000e+00
0.000000e+00
0.000000e+00
0.000000e+00
0.000000e+00
0.000000e+00
0.000000e+00
0.000000e+00
0.000000e+00
0.000000e+00
0.000000e+00
0.000000e+00
0.000000e+00
0.000000e+00
0.000000e+00
0.000000e+00
0.000000e+00
0.000000e+00
0.000000e+00
0.000000e+00
0.000000e+00
0.000000e+00
0.000000e+00
0.000000e+00
0.000000e+00
0.000000e+00
0.000000e+00
0.000000e+00
0.000000e+00
0.000000e+00
0.000000e+00
0.000000e+00
0.000000e+00
0.000000e+00
0.000000e+00
0.000000e+00
0.000000e+00
0.000000e+00
0.000000e+00
0.000000e+00
0.000000e+00
0.000000e+00
0.000000e+00
0.000000e+00
0.000000e+00
0.000000e+00
0.000000e+00
0.000000e+00
0.000000e+00
0.000000e+00
0.000000e+00
0.000000e+00
0.000000e+00
0.000000e+00
0.000000e+00
0.000000e+00
0.000000e+00
0.000000e+00
0.000000e+00
0.000000e+00
0.000000e+00
0.000000e+00
0.000000e+00
0.000000e+00
0.000000e+00
0.000000e+00
0.000000e+00
0.000000e+00
0.000000e+00
0.000000e+00
0.000000e+00
0.000000e+00
0.000000e+00
0.000000e+00
0.000000e+00
0.000000e+00
0.000000e+00
0.000000e+00
0.000000e+00
0.000000e+00
0.000000e+00
0.000000e+00
0.000000e+00
0.000000e+00
0.000000e+00
0.000000e+00
0.000000e+00
0.000000e+00
0.000000e+00
0.000000e+00
0.000000e+00
0.000000e+00
0.000000e+00
0.000000e+00
0.000000e+00
0.000000e+00
0.000000e+00
0.000000e+00
0.000000e+00
0.000000e+00
0.000000e+00
0.000000e+00
0.000000e+00
0.000000e+00
0.000000e+00
0.000000e+00
0.000000e+00
0.000000e+00
0.000000e+00
0.000000e+00
0.000000e+00
0.000000e+00
0.000000e+00
0.000000e+00
0.000000e+00
0.000000e+00
0.000000e+00
0.000000e+00
0.000000e+00
0.000000e+00
0.000000e+00
0.000000e+00
0.000000e+00
0.000000e+00
0.000000e+00
0.000000e+00
0.000000e+00
0.000000e+00
0.000000e+00
0.000000e+00
0.000000e+00
0.000000e+00
0.000000e+00
0.000000e+00
0.000000e+00
0.000000e+00
0.000000e+00
0.000000e+00
0.000000e+00
0.000000e+00
0.000000e+00
0.000000e+00
0.000000e+00
0.000000e+00
0.000000e+00
0.000000e+00
0.000000e+00
0.000000e+00
0.000000e+00
0.000000e+00
0.000000e+00
0.000000e+00
0.000000e+00
0.000000e+00
0.000000e+00
0.000000e+00
0.000000e+00
0.000000e+00
0.000000e+00
0.000000e+00
0.000000e+00
0.000000e+00
0.000000e+00
0.000000e+00
0.000000e+00
0.000000e+00
0.000000e+00
0.000000e+00
0.000000e+00
0.000000e+00
0.000000e+00
0.000000e+00
0.000000e+00
0.000000e+00
0.000000e+00
0.000000e+00
0.000000e+00
0.000000e+00
0.000000e+00
0.000000e+00
0.000000e+00
0.000000e+00
0.000000e+00
0.000000e+00
0.000000e+00
0.000000e+00
0.000000e+00
0.000000e+00
0.000000e+00
0.000000e+00
0.000000e+00
0.000000e+00
0.000000e+00
0.000000e+00
0.000000e+00
0.000000e+00
0.000000e+00
0.000000e+00
0.000000e+00
0.000000e+00
0.000000e+00
0.000000e+00
0.000000e+00
0.000000e+00
0.000000e+00
0.000000e+00
0.000000e+00
0.000000e+00
0.000000e+00
0.000000e+00
0.000000e+00
0.000000e+00
0.000000e+00
0.000000e+00
0.000000e+00
0.000000e+00
0.000000e+00
0.000000e+00
0.000000e+00
0.000000e+00
0.000000e+00
0.000000e+00
0.000000e+00
0.000000e+00
0.000000e+00
0.000000e+00
0.000000e+00
0.000000e+00
0.000000e+00
0.000000e+00
0.000000e+00
0.000000e+00
0.000000e+00
0.000000e+00
0.000000e+00
0.000000e+00
0.000000e+00
0.000000e+00
0.000000e+00
0.000000e+00
0.000000e+00
0.000000e+00
0.000000e+00
0.000000e+00
0.000000e+00
0.000000e+00
0.000000e+00
0.000000e+00
0.000000e+00
0.000000e+00
0.000000e+00
0.000000e+00
0.000000e+00
0.000000e+00
0.000000e+00
0.000000e+00
0.000000e+00
0.000000e+00
0.000000e+00
0.000000e+00
0.000000e+00
0.000000e+00
0.000000e+00
0.000000e+00
0.000000e+00
0.000000e+00
0.000000e+00
0.000000e+00
0.000000e+00
0.000000e+00
0.000000e+00
0.000000e+00
0.000000e+00
0.000000e+00
0.000000e+00
0.000000e+00
0.000000e+00
0.000000e+00
0.000000e+00
0.000000e+00
0.000000e+00
0.000000e+00
0.000000e+00
0.000000e+00
0.000000e+00
0.000000e+00
0.000000e+00
0.000000e+00
0.000000e+00
0.000000e+00
0.000000e+00
0.000000e+00
0.000000e+00
0.000000e+00
0.000000e+00
0.000000e+00
0.000000e+00
0.000000e+00
0.000000e+00
0.000000e+00
0.000000e+00
0.000000e+00
0.000000e+00
0.000000e+00
0.000000e+00
0.000000e+00
0.000000e+00
0.000000e+00
0.000000e+00
0.000000e+00
0.000000e+00
0.000000e+00
0.000000e+00
0.000000e+00
0.000000e+00
0.000000e+00
0.000000e+00
0.000000e+00
0.000000e+00
0.000000e+00
0.000000e+00
0.000000e+00
0.000000e+00
0.000000e+00
0.000000e+00
0.000000e+00
0.000000e+00
0.000000e+00
0.000000e+00
0.000000e+00
0.000000e+00
0.000000e+00
0.000000e+00
0.000000e+00
0.000000e+00
0.000000e+00
0.000000e+00
0.000000e+00
0.000000e+00
0.000000e+00
0.000000e+00
0.000000e+00
0.000000e+00
0.000000e+00
0.000000e+00
0.000000e+00
0.000000e+00
0.000000e+00
0.000000e+00
0.000000e+00
0.000000e+00
0.000000e+00
0.000000e+00
0.000000e+00
0.000000e+00
0.000000e+00
0.000000e+00
0.000000e+00
0.000000e+00
0.000000e+00
0.000000e+00
0.000000e+00
0.000000e+00
0.000000e+00
0.000000e+00
0.000000e+00
0.000000e+00
0.000000e+00
0.000000e+00
0.000000e+00
0.000000e+00
0.000000e+00
0.000000e+00
0.000000e+00
0.000000e+00
0.000000e+00
0.000000e+00
0.000000e+00
0.000000e+00
0.000000e+00
0.000000e+00
0.000000e+00
0.000000e+00
0.000000e+00
0.000000e+00
0.000000e+00
0.000000e+00
0.000000e+00
0.000000e+00
0.000000e+00
0.000000e+00
0.000000e+00
0.000000e+00
0.000000e+00
0.000000e+00
0.000000e+00
0.000000e+00
0.000000e+00
0.000000e+00
0.000000e+00
0.000000e+00
0.000000e+00
0.000000e+00
0.000000e+00
0.000000e+00
0.000000e+00
0.000000e+00
0.000000e+00
0.000000e+00
0.000000e+00
0.000000e+00
0.000000e+00
0.000000e+00
0.000000e+00
0.000000e+00
0.000000e+00
0.000000e+00
0.000000e+00
0.000000e+00
0.000000e+00
0.000000e+00
0.000000e+00
0.000000e+00
0.000000e+00
0.000000e+00
0.000000e+00
0.000000e+00
0.000000e+00
0.000000e+00
0.000000e+00
0.000000e+00
0.000000e+00
0.000000e+00
0.000000e+00
0.000000e+00
0.000000e+00
0.000000e+00
0.000000e+00
0.000000e+00
0.000000e+00
0.000000e+00
0.000000e+00
0.000000e+00
0.000000e+00
0.000000e+00
0.000000e+00
0.000000e+00
0.000000e+00
0.000000e+00
0.000000e+00
0.000000e+00
0.000000e+00
0.000000e+00
0.000000e+00
0.000000e+00
0.000000e+00
0.000000e+00
0.000000e+00
0.000000e+00
0.000000e+00
0.000000e+00
0.000000e+00
0.000000e+00
0.000000e+00
0.000000e+00
0.000000e+00
0.000000e+00
0.000000e+00
0.000000e+00
0.000000e+00
0.000000e+00
0.000000e+00
0.000000e+00
0.000000e+00
0.000000e+00
0.000000e+00
0.000000e+00
0.000000e+00
0.000000e+00
0.000000e+00
0.000000e+00
0.000000e+00
0.000000e+00
0.000000e+00
0.000000e+00
0.000000e+00
0.000000e+00
0.000000e+00
0.000000e+00
0.000000e+00
0.000000e+00
0.000000e+00
0.000000e+00
0.000000e+00
0.000000e+00
0.000000e+00
0.000000e+00
0.000000e+00
0.000000e+00
0.000000e+00
0.000000e+00
0.000000e+00
0.000000e+00
0.000000e+00
0.000000e+00
0.000000e+00
0.000000e+00
0.000000e+00
0.000000e+00
0.000000e+00
0.000000e+00
0.000000e+00
0.000000e+00
0.000000e+00
0.000000e+00
0.000000e+00
0.000000e+00
0.000000e+00
0.000000e+00
0.000000e+00
0.000000e+00
0.000000e+00
0.000000e+00
0.000000e+00
0.000000e+00
0.000000e+00
0.000000e+00
0.000000e+00
0.000000e+00
0.000000e+00
0.000000e+00
0.000000e+00
0.000000e+00
0.000000e+00
0.000000e+00
0.000000e+00
0.000000e+00
0.000000e+00
0.000000e+00
0.000000e+00
0.000000e+00
0.000000e+00
0.000000e+00
0.000000e+00
0.000000e+00
0.000000e+00
0.000000e+00
0.000000e+00
0.000000e+00
0.000000e+00
0.000000e+00
0.000000e+00
0.000000e+00
0.000000e+00
0.000000e+00
0.000000e+00
0.000000e+00
0.000000e+00
0.000000e+00
0.000000e+00
0.000000e+00
0.000000e+00
0.000000e+00
0.000000e+00
0.000000e+00
0.000000e+00
0.000000e+00
0.000000e+00
0.000000e+00
0.000000e+00
0.000000e+00
0.000000e+00
0.000000e+00
0.000000e+00
0.000000e+00
0.000000e+00
0.000000e+00
0.000000e+00
0.000000e+00
0.000000e+00
0.000000e+00
0.000000e+00
0.000000e+00
0.000000e+00
0.000000e+00
0.000000e+00
0.000000e+00
0.000000e+00
0.000000e+00
0.000000e+00
0.000000e+00
0.000000e+00
0.000000e+00
0.000000e+00
0.000000e+00
0.000000e+00
0.000000e+00
0.000000e+00
0.000000e+00
0.000000e+00
0.000000e+00
0.000000e+00
0.000000e+00
0.000000e+00
0.000000e+00
0.000000e+00
0.000000e+00
0.000000e+00
0.000000e+00
0.000000e+00
0.000000e+00
0.000000e+00
0.000000e+00
0.000000e+00
0.000000e+00
0.000000e+00
0.000000e+00
0.000000e+00
0.000000e+00
0.000000e+00
0.000000e+00
0.000000e+00
0.000000e+00
0.000000e+00
0.000000e+00
0.000000e+00
0.000000e+00
0.000000e+00
0.000000e+00
0.000000e+00
0.000000e+00
0.000000e+00
0.000000e+00
0.000000e+00
0.000000e+00
0.000000e+00
0.000000e+00
0.000000e+00
0.000000e+00
0.000000e+00
0.000000e+00
0.000000e+00
0.000000e+00
0.000000e+00
0.000000e+00
0.000000e+00
0.000000e+00
0.000000e+00
0.000000e+00
0.000000e+00
0.000000e+00
0.000000e+00
0.000000e+00
0.000000e+00
0.000000e+00
0.000000e+00
0.000000e+00
0.000000e+00
0.000000e+00
0.000000e+00
0.000000e+00
0.000000e+00
0.000000e+00
0.000000e+00
0.000000e+00
0.000000e+00
0.000000e+00
0.000000e+00
0.000000e+00
0.000000e+00
0.000000e+00
0.000000e+00
0.000000e+00
0.000000e+00
0.000000e+00
0.000000e+00
0.000000e+00
0.000000e+00
0.000000e+00
0.000000e+00
0.000000e+00
0.000000e+00
0.000000e+00
0.000000e+00
0.000000e+00
0.000000e+00
0.000000e+00
0.000000e+00
0.000000e+00
0.000000e+00
0.000000e+00
0.000000e+00
0.000000e+00
0.000000e+00
0.000000e+00
0.000000e+00
0.000000e+00
0.000000e+00
0.000000e+00
0.000000e+00
0.000000e+00
0.000000e+00
0.000000e+00
0.000000e+00
0.000000e+00
0.000000e+00
0.000000e+00
0.000000e+00
0.000000e+00
0.000000e+00
0.000000e+00
0.000000e+00
0.000000e+00
0.000000e+00
0.000000e+00
0.000000e+00
0.000000e+00
0.000000e+00
0.000000e+00
0.000000e+00
0.000000e+00
0.000000e+00
0.000000e+00
0.000000e+00
0.000000e+00
0.000000e+00
0.000000e+00
0.000000e+00
0.000000e+00
0.000000e+00
0.000000e+00
0.000000e+00
0.000000e+00
0.000000e+00
0.000000e+00
0.000000e+00
0.000000e+00
0.000000e+00
0.000000e+00
0.000000e+00
0.000000e+00
0.000000e+00
0.000000e+00
0.000000e+00
0.000000e+00
0.000000e+00
0.000000e+00
0.000000e+00
0.000000e+00
0.000000e+00
0.000000e+00
0.000000e+00
0.000000e+00
0.000000e+00
0.000000e+00
0.000000e+00
0.000000e+00
0.000000e+00
0.000000e+00
0.000000e+00
0.000000e+00
0.000000e+00
0.000000e+00
0.000000e+00
0.000000e+00
0.000000e+00
0.000000e+00
0.000000e+00
0.000000e+00
0.000000e+00
0.000000e+00
0.000000e+00
0.000000e+00
0.000000e+00
0.000000e+00
0.000000e+00
0.000000e+00
0.000000e+00
0.000000e+00
0.000000e+00
0.000000e+00
0.000000e+00
0.000000e+00
0.000000e+00
0.000000e+00
0.000000e+00
0.000000e+00
0.000000e+00
0.000000e+00
0.000000e+00
0.000000e+00
0.000000e+00
0.000000e+00
0.000000e+00
0.000000e+00
0.000000e+00
0.000000e+00
0.000000e+00
0.000000e+00
0.000000e+00
0.000000e+00
0.000000e+00
0.000000e+00
0.000000e+00
0.000000e+00
0.000000e+00
0.000000e+00
0.000000e+00
0.000000e+00
0.000000e+00
0.000000e+00
0.000000e+00
0.000000e+00
0.000000e+00
0.000000e+00
0.000000e+00
0.000000e+00
0.000000e+00
0.000000e+00
0.000000e+00
0.000000e+00
0.000000e+00
0.000000e+00
0.000000e+00
0.000000e+00
0.000000e+00
0.000000e+00
0.000000e+00
0.000000e+00
0.000000e+00
0.000000e+00
0.000000e+00
0.000000e+00
0.000000e+00
0.000000e+00
0.000000e+00
0.000000e+00
0.000000e+00
0.000000e+00
0.000000e+00
0.000000e+00
0.000000e+00
0.000000e+00
0.000000e+00
0.000000e+00
0.000000e+00
0.000000e+00
0.000000e+00
0.000000e+00
0.000000e+00
0.000000e+00
0.000000e+00
0.000000e+00
0.000000e+00
0.000000e+00
0.000000e+00
0.000000e+00
0.000000e+00
0.000000e+00
0.000000e+00
0.000000e+00
0.000000e+00
0.000000e+00
0.000000e+00
0.000000e+00
0.000000e+00
0.000000e+00
0.000000e+00
0.000000e+00
0.000000e+00
0.000000e+00
0.000000e+00
0.000000e+00
0.000000e+00
0.000000e+00
0.000000e+00
0.000000e+00
0.000000e+00
0.000000e+00
0.000000e+00
0.000000e+00
0.000000e+00
0.000000e+00
0.000000e+00
0.000000e+00
0.000000e+00
0.000000e+00
0.000000e+00
0.000000e+00
0.000000e+00
0.000000e+00
0.000000e+00
0.000000e+00
0.000000e+00
0.000000e+00
0.000000e+00
0.000000e+00
0.000000e+00
0.000000e+00
0.000000e+00
0.000000e+00
0.000000e+00
0.000000e+00
0.000000e+00
0.000000e+00
0.000000e+00
0.000000e+00
0.000000e+00
0.000000e+00
0.000000e+00
0.000000e+00
0.000000e+00
0.000000e+00
0.000000e+00
0.000000e+00
0.000000e+00
0.000000e+00
0.000000e+00
0.000000e+00
0.000000e+00
0.000000e+00
0.000000e+00
0.000000e+00
0.000000e+00
0.000000e+00
0.000000e+00
0.000000e+00
0.000000e+00
0.000000e+00
0.000000e+00
0.000000e+00
0.000000e+00
0.000000e+00
0.000000e+00
0.000000e+00
0.000000e+00
0.000000e+00
0.000000e+00
0.000000e+00
0.000000e+00
0.000000e+00
0.000000e+00
0.000000e+00
0.000000e+00
0.000000e+00
0.000000e+00
0.000000e+00
0.000000e+00
0.000000e+00
0.000000e+00
0.000000e+00
0.000000e+00
0.000000e+00
0.000000e+00
0.000000e+00
0.000000e+00
0.000000e+00
0.000000e+00
0.000000e+00
0.000000e+00
0.000000e+00
0.000000e+00
0.000000e+00
0.000000e+00
0.000000e+00
0.000000e+00
0.000000e+00
0.000000e+00
0.000000e+00
0.000000e+00
0.000000e+00
0.000000e+00
0.000000e+00
0.000000e+00
0.000000e+00
0.000000e+00
0.000000e+00
0.000000e+00
0.000000e+00
0.000000e+00
0.000000e+00
0.000000e+00
0.000000e+00
0.000000e+00
0.000000e+00
0.000000e+00
0.000000e+00
0.000000e+00
0.000000e+00
0.000000e+00
0.000000e+00
0.000000e+00
0.000000e+00
0.000000e+00
0.000000e+00
0.000000e+00
0.000000e+00
0.000000e+00
0.000000e+00
0.000000e+00
0.000000e+00
0.000000e+00
0.000000e+00
0.000000e+00
0.000000e+00
0.000000e+00
0.000000e+00
0.000000e+00
0.000000e+00
0.000000e+00
0.000000e+00
0.000000e+00
0.000000e+00
0.000000e+00
0.000000e+00
0.000000e+00
0.000000e+00
0.000000e+00
0.000000e+00
0.000000e+00
0.000000e+00
0.000000e+00
0.000000e+00
0.000000e+00
0.000000e+00
0.000000e+00
0.000000e+00
0.000000e+00
0.000000e+00
0.000000e+00
0.000000e+00
0.000000e+00
0.000000e+00
0.000000e+00
0.000000e+00
0.000000e+00
0.000000e+00
0.000000e+00
0.000000e+00
0.000000e+00
0.000000e+00
0.000000e+00
0.000000e+00
0.000000e+00
0.000000e+00
0.000000e+00
0.000000e+00
0.000000e+00
0.000000e+00
0.000000e+00
0.000000e+00
0.000000e+00
0.000000e+00
0.000000e+00
0.000000e+00
0.000000e+00
0.000000e+00
0.000000e+00
0.000000e+00
0.000000e+00
0.000000e+00
0.000000e+00
0.000000e+00
0.000000e+00
0.000000e+00
0.000000e+00
0.000000e+00
0.000000e+00
0.000000e+00
0.000000e+00
0.000000e+00
0.000000e+00
0.000000e+00
0.000000e+00
0.000000e+00
0.000000e+00
0.000000e+00
0.000000e+00
0.000000e+00
0.000000e+00
0.000000e+00
0.000000e+00
0.000000e+00
0.000000e+00
0.000000e+00
0.000000e+00
0.000000e+00
0.000000e+00
0.000000e+00
0.000000e+00
0.000000e+00
0.000000e+00
0.000000e+00
0.000000e+00
0.000000e+00
0.000000e+00
0.000000e+00
0.000000e+00
0.000000e+00
0.000000e+00
0.000000e+00
0.000000e+00
0.000000e+00
0.000000e+00
0.000000e+00
0.000000e+00
0.000000e+00
0.000000e+00
0.000000e+00
0.000000e+00
0.000000e+00
0.000000e+00
0.000000e+00
0.000000e+00
0.000000e+00
0.000000e+00
0.000000e+00
0.000000e+00
0.000000e+00
0.000000e+00
0.000000e+00
0.000000e+00
0.000000e+00
0.000000e+00
0.000000e+00
0.000000e+00
0.000000e+00
0.000000e+00
0.000000e+00
0.000000e+00
0.000000e+00
0.000000e+00
0.000000e+00
0.000000e+00
0.000000e+00
0.000000e+00
0.000000e+00
0.000000e+00
0.000000e+00
0.000000e+00
0.000000e+00
0.000000e+00
0.000000e+00
0.000000e+00
0.000000e+00
0.000000e+00
0.000000e+00
0.000000e+00
0.000000e+00
0.000000e+00
0.000000e+00
0.000000e+00
0.000000e+00
0.000000e+00
0.000000e+00
0.000000e+00
0.000000e+00
0.000000e+00
0.000000e+00
0.000000e+00
0.000000e+00
0.000000e+00
0.000000e+00
0.000000e+00
0.000000e+00
0.000000e+00
0.000000e+00
0.000000e+00
0.000000e+00
0.000000e+00
0.000000e+00
0.000000e+00
0.000000e+00
0.000000e+00
0.000000e+00
0.000000e+00
0.000000e+00
0.000000e+00
0.000000e+00
0.000000e+00
0.000000e+00
0.000000e+00
0.000000e+00
0.000000e+00
0.000000e+00
0.000000e+00
0.000000e+00
0.000000e+00
0.000000e+00
0.000000e+00
0.000000e+00
0.000000e+00
0.000000e+00
0.000000e+00
0.000000e+00
0.000000e+00
0.000000e+00
0.000000e+00
0.000000e+00
0.000000e+00
0.000000e+00
0.000000e+00
0.000000e+00
0.000000e+00
0.000000e+00
0.000000e+00
0.000000e+00
0.000000e+00
0.000000e+00
0.000000e+00
0.000000e+00
0.000000e+00
0.000000e+00
0.000000e+00
0.000000e+00
0.000000e+00
0.000000e+00
0.000000e+00
0.000000e+00
0.000000e+00
0.000000e+00
0.000000e+00
0.000000e+00
0.000000e+00
0.000000e+00
0.000000e+00
0.000000e+00
0.000000e+00
0.000000e+00
0.000000e+00
0.000000e+00
0.000000e+00
0.000000e+00
0.000000e+00
0.000000e+00
0.000000e+00
0.000000e+00
0.000000e+00
0.000000e+00
0.000000e+00
0.000000e+00
0.000000e+00
0.000000e+00
0.000000e+00
0.000000e+00
0.000000e+00
0.000000e+00
0.000000e+00
0.000000e+00
0.000000e+00
0.000000e+00
0.000000e+00
0.000000e+00
0.000000e+00
0.000000e+00
0.000000e+00
0.000000e+00
0.000000e+00
0.000000e+00
0.000000e+00
0.000000e+00
0.000000e+00
0.000000e+00
0.000000e+00
0.000000e+00
0.000000e+00
0.000000e+00
0.000000e+00
0.000000e+00
0.000000e+00
0.000000e+00
0.000000e+00
0.000000e+00
0.000000e+00
0.000000e+00
0.000000e+00
0.000000e+00
0.000000e+00
0.000000e+00
0.000000e+00
0.000000e+00
0.000000e+00
0.000000e+00
0.000000e+00
0.000000e+00
0.000000e+00
0.000000e+00
0.000000e+00
0.000000e+00
0.000000e+00
0.000000e+00
0.000000e+00
0.000000e+00
0.000000e+00
0.000000e+00
0.000000e+00
0.000000e+00
0.000000e+00
0.000000e+00
0.000000e+00
0.000000e+00
0.000000e+00
0.000000e+00
0.000000e+00
0.000000e+00
0.000000e+00
0.000000e+00
0.000000e+00
0.000000e+00
0.000000e+00
0.000000e+00
0.000000e+00
0.000000e+00
0.000000e+00
0.000000e+00
0.000000e+00
0.000000e+00
0.000000e+00
0.000000e+00
0.000000e+00
0.000000e+00
0.000000e+00
0.000000e+00
0.000000e+00
0.000000e+00
0.000000e+00
0.000000e+00
0.000000e+00
0.000000e+00
0.000000e+00
0.000000e+00
0.000000e+00
0.000000e+00
0.000000e+00
0.000000e+00
0.000000e+00
0.000000e+00
0.000000e+00
0.000000e+00
0.000000e+00
0.000000e+00
0.000000e+00
0.000000e+00
0.000000e+00
0.000000e+00
0.000000e+00
0.000000e+00
0.000000e+00
0.000000e+00
0.000000e+00
0.000000e+00
0.000000e+00
0.000000e+00
0.000000e+00
0.000000e+00
0.000000e+00
0.000000e+00
0.000000e+00
0.000000e+00
0.000000e+00
0.000000e+00
0.000000e+00
0.000000e+00
0.000000e+00
0.000000e+00
0.000000e+00
0.000000e+00
0.000000e+00
0.000000e+00
0.000000e+00
0.000000e+00
0.000000e+00
0.000000e+00
0.000000e+00
0.000000e+00
0.000000e+00
0.000000e+00
0.000000e+00
0.000000e+00
0.000000e+00
0.000000e+00
0.000000e+00
0.000000e+00
0.000000e+00
0.000000e+00
0.000000e+00
0.000000e+00
0.000000e+00
0.000000e+00
0.000000e+00
0.000000e+00
0.000000e+00
0.000000e+00
0.000000e+00
0.000000e+00
0.000000e+00
0.000000e+00
0.000000e+00
0.000000e+00
0.000000e+00
0.000000e+00
0.000000e+00
0.000000e+00
0.000000e+00
0.000000e+00
0.000000e+00
0.000000e+00
0.000000e+00
0.000000e+00
0.000000e+00
0.000000e+00
0.000000e+00
0.000000e+00
0.000000e+00
0.000000e+00
0.000000e+00
0.000000e+00
0.000000e+00
0.000000e+00
0.000000e+00
0.000000e+00
0.000000e+00
0.000000e+00
0.000000e+00
0.000000e+00
0.000000e+00
0.000000e+00
0.000000e+00
0.000000e+00
0.000000e+00
0.000000e+00
0.000000e+00
0.000000e+00
0.000000e+00
0.000000e+00
0.000000e+00
0.000000e+00
0.000000e+00
0.000000e+00
0.000000e+00
0.000000e+00
0.000000e+00
0.000000e+00
0.000000e+00
0.000000e+00
0.000000e+00
0.000000e+00
0.000000e+00
0.000000e+00
0.000000e+00
6.858516e-04
0.000000e+00
6.858516e-04
0.000000e+00
4.697180e-04
4.697180e-04
2.172300e-03
2.172300e-03
1.639237e-02
6.247155e-03
1.639237e-02
6.247155e-03
3.286644e-03
3.286644e-03
1.740041e-03
1.740041e-03
9.434941e-03
1.856872e-02
9.434941e-03
1.856872e-02
0.000000e+00
0.000000e+00
0.000000e+00
0.000000e+00
0.000000e+00
0.000000e+00
0.000000e+00
0.000000e+00
0.000000e+00
0.000000e+00
0.000000e+00
0.000000e+00
0.000000e+00
0.000000e+00
0.000000e+00
0.000000e+00
0.000000e+00
0.000000e+00
0.000000e+00
0.000000e+00
6.163464e-05
0.000000e+00
6.163464e-05
0.000000e+00
1.419972e-04
1.419972e-04
4.913996e-03
4.913996e-03
1.190919e-02
1.013463e-03
1.190919e-02
1.013463e-03
2.497456e-02
2.497456e-02
5.166865e-02
5.166865e-02
6.581099e-02
3.647598e-02
6.581099e-02
3.647598e-02
5.431485e-02
5.431485e-02
2.855490e-02
2.855490e-02
4.191271e-02
7.294090e-02
4.191271e-02
7.294090e-02
0.000000e+00
0.000000e+00
0.000000e+00
0.000000e+00
0.000000e+00
0.000000e+00
0.000000e+00
0.000000e+00
0.000000e+00
0.000000e+00
0.000000e+00
0.000000e+00
0.000000e+00
0.000000e+00
0.000000e+00
0.000000e+00
0.000000e+00
0.000000e+00
1.583123e-04
1.583123e-04
9.667770e-05
0.000000e+00
9.667770e-05
0.000000e+00
2.103735e-03
2.103735e-03
1.648955e-02
1.648955e-02
1.193352e-02
1.602726e-03
1.193352e-02
1.602726e-03
3.685757e-02
3.685757e-02
5.820464e-02
5.820464e-02
6.120658e-02
3.388783e-02
6.120658e-02
3.388783e-02
6.566108e-02
6.566108e-02
3.895883e-02
3.895883e-02
3.709555e-02
6.683499e-02
3.709555e-02
6.683499e-02
0.000000e+00
0.000000e+00
0.000000e+00
0.000000e+00
0.000000e+00
0.000000e+00
0.000000e+00
0.000000e+00
0.000000e+00
0.000000e+00
0.000000e+00
0.000000e+00
0.000000e+00
0.000000e+00
0.000000e+00
0.000000e+00
0.000000e+00
0.000000e+00
0.000000e+00
0.000000e+00
0.000000e+00
0.000000e+00
0.000000e+00
0.000000e+00
4.687662e-04
4.687662e-04
4.883422e-03
4.883422e-03
1.758405e-03
9.830901e-05
1.758405e-03
9.830901e-05
2.132774e-02
2.132774e-02
4.470410e-02
4.470410e-02
1.562708e-02
7.622751e-03
1.562708e-02
7.622751e-03
4.824231e-02
4.824231e-02
2.496525e-02
2.496525e-02
7.222269e-03
1.627351e-02
7.222269e-03
1.627351e-02
0.000000e+00
0.000000e+00
0.000000e+00
0.000000e+00
0.000000e+00
0.000000e+00
0.000000e+00
0.000000e+00
0.000000e+00
0.000000e+00
0.000000e+00
0.000000e+00
0.000000e+00
0.000000e+00
0.000000e+00
0.000000e+00
0.000000e+00
0.000000e+00
0.000000e+00
0.000000e+00
0.000000e+00
0.000000e+00
0.000000e+00
0.000000e+00
0.000000e+00
0.000000e+00
0.000000e+00
0.000000e+00
0.000000e+00
0.000000e+00
0.000000e+00
0.000000e+00
6.041172e-04
6.041172e-04
2.287339e-03
2.287339e-03
0.000000e+00
0.000000e+00
0.000000e+00
0.000000e+00
3.145680e-03
3.145680e-03
1.478889e-03
1.478889e-03
3.243959e-05
3.243959e-05
3.243959e-05
3.243959e-05
0.000000e+00
0.000000e+00
0.000000e+00
0.000000e+00
0.000000e+00
0.000000e+00
0.000000e+00
0.000000e+00
0.000000e+00
0.000000e+00
0.000000e+00
0.000000e+00
0.000000e+00
0.000000e+00
0.000000e+00
0.000000e+00
0.000000e+00
0.000000e+00
0.000000e+00
0.000000e+00
0.000000e+00
0.000000e+00
0.000000e+00
0.000000e+00
0.000000e+00
0.000000e+00
0.000000e+00
0.000000e+00
0.000000e+00
0.000000e+00
0.000000e+00
0.000000e+00
0.000000e+00
0.000000e+00
0.000000e+00
0.000000e+00
0.000000e+00
0.000000e+00
0.000000e+00
0.000000e+00
0.000000e+00
0.000000e+00
0.000000e+00
0.000000e+00
0.000000e+00
0.000000e+00
0.000000e+00
0.000000e+00
0.000000e+00
0.000000e+00
0.000000e+00
0.000000e+00
0.000000e+00
0.000000e+00
0.000000e+00
0.000000e+00
0.000000e+00
0.000000e+00
0.000000e+00
0.000000e+00
0.000000e+00
0.000000e+00
0.000000e+00
0.000000e+00
0.000000e+00
0.000000e+00
0.000000e+00
0.000000e+00
0.000000e+00
0.000000e+00
0.000000e+00
0.000000e+00
0.000000e+00
0.000000e+00
0.000000e+00
0.000000e+00
0.000000e+00
0.000000e+00
0.000000e+00
0.000000e+00
0.000000e+00
0.000000e+00
0.000000e+00
0.000000e+00
0.000000e+00
0.000000e+00
0.000000e+00
0.000000e+00
0.000000e+00
0.000000e+00
0.000000e+00
0.000000e+00
0.000000e+00
0.000000e+00
0.000000e+00
0.000000e+00
0.000000e+00
0.000000e+00
0.000000e+00
0.000000e+00
0.000000e+00
0.000000e+00
0.000000e+00
0.000000e+00
0.000000e+00
0.000000e+00
0.000000e+00
0.000000e+00
0.000000e+00
0.000000e+00
0.000000e+00
0.000000e+00
0.000000e+00
0.000000e+00
0.000000e+00
0.000000e+00
0.000000e+00
0.000000e+00
0.000000e+00
0.000000e+00
0.000000e+00
0.000000e+00
0.000000e+00
0.000000e+00
0.000000e+00
0.000000e+00
0.000000e+00
0.000000e+00
0.000000e+00
0.000000e+00
0.000000e+00
0.000000e+00
0.000000e+00
0.000000e+00
0.000000e+00
0.000000e+00
0.000000e+00
0.000000e+00
0.000000e+00
0.000000e+00
0.000000e+00
0.000000e+00
0.000000e+00
0.000000e+00
0.000000e+00
0.000000e+00
0.000000e+00
0.000000e+00
0.000000e+00
0.000000e+00
0.000000e+00
0.000000e+00
0.000000e+00
0.000000e+00
0.000000e+00
0.000000e+00
0.000000e+00
0.000000e+00
0.000000e+00
0.000000e+00
0.000000e+00
0.000000e+00
0.000000e+00
0.000000e+00
0.000000e+00
0.000000e+00
0.000000e+00
0.000000e+00
0.000000e+00
0.000000e+00
0.000000e+00
0.000000e+00
0.000000e+00
0.000000e+00
0.000000e+00
0.000000e+00
0.000000e+00
0.000000e+00
0.000000e+00
0.000000e+00
0.000000e+00
0.000000e+00
0.000000e+00
0.000000e+00
0.000000e+00
0.000000e+00
0.000000e+00
0.000000e+00
0.000000e+00
0.000000e+00
0.000000e+00
0.000000e+00
0.000000e+00
0.000000e+00
0.000000e+00
0.000000e+00
0.000000e+00
0.000000e+00
0.000000e+00
0.000000e+00
0.000000e+00
0.000000e+00
0.000000e+00
0.000000e+00
0.000000e+00
0.000000e+00
0.000000e+00
0.000000e+00
0.000000e+00
0.000000e+00
0.000000e+00
0.000000e+00
0.000000e+00
0.000000e+00
0.000000e+00
0.000000e+00
0.000000e+00
0.000000e+00
0.000000e+00
0.000000e+00
0.000000e+00
0.000000e+00
0.000000e+00
0.000000e+00
0.000000e+00
0.000000e+00
0.000000e+00
0.000000e+00
0.000000e+00
0.000000e+00
0.000000e+00
0.000000e+00
0.000000e+00
0.000000e+00
0.000000e+00
0.000000e+00
0.000000e+00
0.000000e+00
0.000000e+00
0.000000e+00
0.000000e+00
0.000000e+00
0.000000e+00
0.000000e+00
0.000000e+00
0.000000e+00
0.000000e+00
0.000000e+00
0.000000e+00
0.000000e+00
0.000000e+00
0.000000e+00
0.000000e+00
0.000000e+00
0.000000e+00
0.000000e+00
0.000000e+00
0.000000e+00
0.000000e+00
0.000000e+00
0.000000e+00
0.000000e+00
0.000000e+00
0.000000e+00
0.000000e+00
0.000000e+00
0.000000e+00
0.000000e+00
0.000000e+00
0.000000e+00
0.000000e+00
0.000000e+00
0.000000e+00
0.000000e+00
0.000000e+00
0.000000e+00
0.000000e+00
0.000000e+00
0.000000e+00
0.000000e+00
0.000000e+00
0.000000e+00
0.000000e+00
0.000000e+00
0.000000e+00
0.000000e+00
0.000000e+00
0.000000e+00
0.000000e+00
0.000000e+00
0.000000e+00
0.000000e+00
0.000000e+00
0.000000e+00
0.000000e+00
0.000000e+00
0.000000e+00
0.000000e+00
0.000000e+00
0.000000e+00
0.000000e+00
0.000000e+00
0.000000e+00
0.000000e+00
0.000000e+00
0.000000e+00
0.000000e+00
0.000000e+00
0.000000e+00
0.000000e+00
0.000000e+00
0.000000e+00
0.000000e+00
0.000000e+00
0.000000e+00
0.000000e+00
0.000000e+00
0.000000e+00
0.000000e+00
0.000000e+00
0.000000e+00
0.000000e+00
0.000000e+00
0.000000e+00
0.000000e+00
0.000000e+00
0.000000e+00
0.000000e+00
0.000000e+00
0.000000e+00
0.000000e+00
0.000000e+00
0.000000e+00
0.000000e+00
0.000000e+00
0.000000e+00
0.000000e+00
0.000000e+00
0.000000e+00
0.000000e+00
0.000000e+00
0.000000e+00
0.000000e+00
0.000000e+00
0.000000e+00
0.000000e+00
0.000000e+00
0.000000e+00
0.000000e+00
0.000000e+00
0.000000e+00
0.000000e+00
0.000000e+00
0.000000e+00
0.000000e+00
0.000000e+00
0.000000e+00
0.000000e+00
0.000000e+00
0.000000e+00
0.000000e+00
0.000000e+00
0.000000e+00
0.000000e+00
0.000000e+00
0.000000e+00
0.000000e+00
0.000000e+00
0.000000e+00
0.000000e+00
0.000000e+00
0.000000e+00
0.000000e+00
0.000000e+00
0.000000e+00
0.000000e+00
0.000000e+00
0.000000e+00
0.000000e+00
0.000000e+00
0.000000e+00
0.000000e+00
0.000000e+00
0.000000e+00
0.000000e+00
0.000000e+00
0.000000e+00
0.000000e+00
0.000000e+00
0.000000e+00
0.000000e+00
0.000000e+00
0.000000e+00
0.000000e+00
0.000000e+00
0.000000e+00
0.000000e+00
0.000000e+00
0.000000e+00
0.000000e+00
0.000000e+00
0.000000e+00
0.000000e+00
0.000000e+00
0.000000e+00
0.000000e+00
0.000000e+00
0.000000e+00
0.000000e+00
0.000000e+00
0.000000e+00
0.000000e+00
0.000000e+00
0.000000e+00
0.000000e+00
0.000000e+00
0.000000e+00
0.000000e+00
0.000000e+00
0.000000e+00
0.000000e+00
0.000000e+00
0.000000e+00
0.000000e+00
0.000000e+00
0.000000e+00
0.000000e+00
0.000000e+00
0.000000e+00
0.000000e+00
0.000000e+00
0.000000e+00
0.000000e+00
0.000000e+00
0.000000e+00
0.000000e+00
0.000000e+00
0.000000e+00
0.000000e+00
0.000000e+00
0.000000e+00
0.000000e+00
0.000000e+00
0.000000e+00
0.000000e+00
0.000000e+00
0.000000e+00
0.000000e+00
0.000000e+00
0.000000e+00
0.000000e+00
0.000000e+00
0.000000e+00
0.000000e+00
0.000000e+00
0.000000e+00
0.000000e+00
0.000000e+00
0.000000e+00
0.000000e+00
0.000000e+00
0.000000e+00
0.000000e+00
0.000000e+00
0.000000e+00
0.000000e+00
0.000000e+00
0.000000e+00
0.000000e+00
0.000000e+00
0.000000e+00
0.000000e+00
0.000000e+00
0.000000e+00
0.000000e+00
0.000000e+00
0.000000e+00
0.000000e+00
0.000000e+00
0.000000e+00
0.000000e+00
0.000000e+00
0.000000e+00
0.000000e+00
0.000000e+00
0.000000e+00
0.000000e+00
0.000000e+00
0.000000e+00
0.000000e+00
0.000000e+00
0.000000e+00
0.000000e+00
0.000000e+00
0.000000e+00
0.000000e+00
0.000000e+00
0.000000e+00
0.000000e+00
0.000000e+00
0.000000e+00
0.000000e+00
0.000000e+00
0.000000e+00
0.000000e+00
0.000000e+00
0.000000e+00
0.000000e+00
0.000000e+00
0.000000e+00
0.000000e+00
0.000000e+00
0.000000e+00
0.000000e+00
0.000000e+00
0.000000e+00
0.000000e+00
0.000000e+00
0.000000e+00
0.000000e+00
0.000000e+00
0.000000e+00
0.000000e+00
0.000000e+00
0.000000e+00
0.000000e+00
0.000000e+00
0.000000e+00
0.000000e+00
0.000000e+00
0.000000e+00
0.000000e+00
0.000000e+00
0.000000e+00
0.000000e+00
0.000000e+00
0.000000e+00
0.000000e+00
0.000000e+00
0.000000e+00
0.000000e+00
0.000000e+00
0.000000e+00
0.000000e+00
0.000000e+00
0.000000e+00
0.000000e+00
0.000000e+00
0.000000e+00
0.000000e+00
0.000000e+00
0.000000e+00
0.000000e+00
0.000000e+00
0.000000e+00
0.000000e+00
0.000000e+00
0.000000e+00
0.000000e+00
0.000000e+00
0.000000e+00
0.000000e+00
0.000000e+00
0.000000e+00
0.000000e+00
0.000000e+00
0.000000e+00
0.000000e+00
0.000000e+00
0.000000e+00
0.000000e+00
0.000000e+00
0.000000e+00
0.000000e+00
0.000000e+00
0.000000e+00
0.000000e+00
0.000000e+00
0.000000e+00
0.000000e+00
0.000000e+00
0.000000e+00
0.000000e+00
0.000000e+00
0.000000e+00
0.000000e+00
0.000000e+00
0.000000e+00
0.000000e+00
0.000000e+00
0.000000e+00
0.000000e+00
0.000000e+00
0.000000e+00
0.000000e+00
0.000000e+00
0.000000e+00
0.000000e+00
0.000000e+00
0.000000e+00
0.000000e+00
0.000000e+00
0.000000e+00
0.000000e+00
0.000000e+00
0.000000e+00
0.000000e+00
0.000000e+00
0.000000e+00
0.000000e+00
0.000000e+00
0.000000e+00
0.000000e+00
0.000000e+00
0.000000e+00
0.000000e+00
0.000000e+00
0.000000e+00
0.000000e+00
0.000000e+00
0.000000e+00
0.000000e+00
0.000000e+00
0.000000e+00
0.000000e+00
0.000000e+00
0.000000e+00
0.000000e+00
0.000000e+00
0.000000e+00
0.000000e+00
0.000000e+00
0.000000e+00
0.000000e+00
0.000000e+00
0.000000e+00
0.000000e+00
0.000000e+00
0.000000e+00
0.000000e+00
0.000000e+00
0.000000e+00
0.000000e+00
0.000000e+00
0.000000e+00
0.000000e+00
0.000000e+00
0.000000e+00
0.000000e+00
0.000000e+00
0.000000e+00
0.000000e+00
0.000000e+00
0.000000e+00
0.000000e+00
0.000000e+00
0.000000e+00
0.000000e+00
0.000000e+00
0.000000e+00
0.000000e+00
0.000000e+00
0.000000e+00
0.000000e+00
0.000000e+00
0.000000e+00
0.000000e+00
0.000000e+00
0.000000e+00
0.000000e+00
0.000000e+00
0.000000e+00
0.000000e+00
0.000000e+00
0.000000e+00
0.000000e+00
0.000000e+00
0.000000e+00
0.000000e+00
0.000000e+00
0.000000e+00
0.000000e+00
0.000000e+00
0.000000e+00
0.000000e+00
0.000000e+00
0.000000e+00
0.000000e+00
0.000000e+00
0.000000e+00
0.000000e+00
0.000000e+00
0.000000e+00
0.000000e+00
0.000000e+00
0.000000e+00
0.000000e+00
0.000000e+00
0.000000e+00
0.000000e+00
0.000000e+00
0.000000e+00
0.000000e+00
0.000000e+00
0.000000e+00
0.000000e+00
0.000000e+00
0.000000e+00
0.000000e+00
0.000000e+00
0.000000e+00
0.000000e+00
0.000000e+00
0.000000e+00
0.000000e+00
0.000000e+00
0.000000e+00
0.000000e+00
0.000000e+00
0.000000e+00
0.000000e+00
0.000000e+00
0.000000e+00
0.000000e+00
0.000000e+00
0.000000e+00
0.000000e+00
0.000000e+00
0.000000e+00
0.000000e+00
0.000000e+00
0.000000e+00
0.000000e+00
0.000000e+00
0.000000e+00
0.000000e+00
0.000000e+00
0.000000e+00
0.000000e+00
0.000000e+00
0.000000e+00
0.000000e+00
0.000000e+00
0.000000e+00
0.000000e+00
0.000000e+00
0.000000e+00
0.000000e+00
0.000000e+00
0.000000e+00
0.000000e+00
0.000000e+00
0.000000e+00
0.000000e+00
0.000000e+00
0.000000e+00
0.000000e+00
0.000000e+00
0.000000e+00
0.000000e+00
0.000000e+00
0.000000e+00
0.000000e+00
0.000000e+00
0.000000e+00
0.000000e+00
0.000000e+00
0.000000e+00
0.000000e+00
0.000000e+00
0.000000e+00
0.000000e+00
0.000000e+00
0.000000e+00
0.000000e+00
0.000000e+00
0.000000e+00
0.000000e+00
0.000000e+00
0.000000e+00
0.000000e+00
0.000000e+00
0.000000e+00
0.000000e+00
0.000000e+00
0.000000e+00
0.000000e+00
0.000000e+00
0.000000e+00
0.000000e+00
0.000000e+00
0.000000e+00
0.000000e+00
0.000000e+00
0.000000e+00
0.000000e+00
0.000000e+00
0.000000e+00
0.000000e+00
0.000000e+00
0.000000e+00
0.000000e+00
0.000000e+00
0.000000e+00
0.000000e+00
0.000000e+00
0.000000e+00
0.000000e+00
0.000000e+00
0.000000e+00
0.000000e+00
0.000000e+00
0.000000e+00
0.000000e+00
0.000000e+00
0.000000e+00
0.000000e+00
0.000000e+00
0.000000e+00
0.000000e+00
0.000000e+00
0.000000e+00
0.000000e+00
0.000000e+00
0.000000e+00
0.000000e+00
0.000000e+00
0.000000e+00
0.000000e+00
0.000000e+00
0.000000e+00
0.000000e+00
0.000000e+00
0.000000e+00
0.000000e+00
0.000000e+00
0.000000e+00
0.000000e+00
0.000000e+00
0.000000e+00
0.000000e+00
0.000000e+00
0.000000e+00
0.000000e+00
0.000000e+00
0.000000e+00
0.000000e+00
0.000000e+00
0.000000e+00
0.000000e+00
0.000000e+00
0.000000e+00
0.000000e+00
0.000000e+00
0.000000e+00
0.000000e+00
0.000000e+00
0.000000e+00
0.000000e+00
0.000000e+00
0.000000e+00
0.000000e+00
0.000000e+00
0.000000e+00
0.000000e+00
0.000000e+00
0.000000e+00
0.000000e+00
0.000000e+00
0.000000e+00
0.000000e+00
0.000000e+00
0.000000e+00
0.000000e+00
0.000000e+00
0.000000e+00
0.000000e+00
0.000000e+00
0.000000e+00
0.000000e+00
0.000000e+00
0.000000e+00
0.000000e+00
0.000000e+00
0.000000e+00
0.000000e+00
0.000000e+00
0.000000e+00
0.000000e+00
0.000000e+00
0.000000e+00
0.000000e+00
0.000000e+00
0.000000e+00
0.000000e+00
0.000000e+00
0.000000e+00
0.000000e+00
0.000000e+00
0.000000e+00
0.000000e+00
0.000000e+00
0.000000e+00
0.000000e+00
0.000000e+00
0.000000e+00
0.000000e+00
0.000000e+00
0.000000e+00
0.000000e+00
0.000000e+00
0.000000e+00
0.000000e+00
0.000000e+00
0.000000e+00
0.000000e+00
0.000000e+00
0.000000e+00
0.000000e+00
0.000000e+00
0.000000e+00
0.000000e+00
0.000000e+00
0.000000e+00
0.000000e+00
0.000000e+00
0.000000e+00
0.000000e+00
0.000000e+00
0.000000e+00
0.000000e+00
0.000000e+00
0.000000e+00
0.000000e+00
0.000000e+00
0.000000e+00
0.000000e+00
0.000000e+00
0.000000e+00
0.000000e+00
0.000000e+00
0.000000e+00
0.000000e+00
0.000000e+00
0.000000e+00
0.000000e+00
0.000000e+00
0.000000e+00
0.000000e+00
0.000000e+00
0.000000e+00
0.000000e+00
0.000000e+00
0.000000e+00
0.000000e+00
0.000000e+00
2.678684e-04
2.659040e-07
2.678684e-04
2.659040e-07
6.404361e-05
6.404361e-05
6.404361e-05
6.404361e-05
1.720570e-03
1.322365e-03
1.720570e-03
1.322365e-03
2.132270e-05
2.132270e-05
7.202460e-05
7.202460e-05
1.629377e-03
1.266106e-03
1.629377e-03
1.266106e-03
5.070190e-05
5.070190e-05
0.000000e+00
0.000000e+00
1.349298e-04
1.164009e-03
1.349298e-04
1.164009e-03
0.000000e+00
0.000000e+00
0.000000e+00
0.000000e+00
0.000000e+00
0.000000e+00
0.000000e+00
0.000000e+00
0.000000e+00
0.000000e+00
0.000000e+00
0.000000e+00
0.000000e+00
0.000000e+00
0.000000e+00
0.000000e+00
0.000000e+00
0.000000e+00
0.000000e+00
0.000000e+00
0.000000e+00
0.000000e+00
0.000000e+00
0.000000e+00
0.000000e+00
0.000000e+00
0.000000e+00
0.000000e+00
0.000000e+00
0.000000e+00
0.000000e+00
0.000000e+00
0.000000e+00
0.000000e+00
0.000000e+00
0.000000e+00
0.000000e+00
0.000000e+00
0.000000e+00
0.000000e+00
0.000000e+00
0.000000e+00
0.000000e+00
0.000000e+00
0.000000e+00
0.000000e+00
0.000000e+00
0.000000e+00
0.000000e+00
0.000000e+00
0.000000e+00
0.000000e+00
0.000000e+00
0.000000e+00
0.000000e+00
0.000000e+00
0.000000e+00
0.000000e+00
0.000000e+00
0.000000e+00
0.000000e+00
0.000000e+00
0.000000e+00
0.000000e+00
0.000000e+00
0.000000e+00
0.000000e+00
0.000000e+00
0.000000e+00
0.000000e+00
0.000000e+00
0.000000e+00
0.000000e+00
0.000000e+00
0.000000e+00
0.000000e+00
0.000000e+00
0.000000e+00
0.000000e+00
0.000000e+00
0.000000e+00
0.000000e+00
0.000000e+00
0.000000e+00
0.000000e+00
0.000000e+00
0.000000e+00
0.000000e+00
1.562446e-04
1.562446e-04
1.965161e-03
1.965161e-03
6.964457e-03
6.964457e-03
1.092071e-02
1.092071e-02
1.043372e-02
1.043372e-02
9.564129e-03
9.564129e-03
5.627263e-03
5.627263e-03
7.481154e-04
7.481154e-04
1.642994e-05
1.642994e-05
0.000000e+00
0.000000e+00
0.000000e+00
0.000000e+00
0.000000e+00
0.000000e+00
0.000000e+00
0.000000e+00
0.000000e+00
0.000000e+00
0.000000e+00
0.000000e+00
0.000000e+00
0.000000e+00
0.000000e+00
0.000000e+00
0.000000e+00
0.000000e+00
0.000000e+00
0.000000e+00
0.000000e+00
0.000000e+00
0.000000e+00
0.000000e+00
0.000000e+00
0.000000e+00
0.000000e+00
0.000000e+00
0.000000e+00
0.000000e+00
0.000000e+00
0.000000e+00
0.000000e+00
0.000000e+00
0.000000e+00
0.000000e+00
0.000000e+00
0.000000e+00
0.000000e+00
0.000000e+00
0.000000e+00
0.000000e+00
0.000000e+00
0.000000e+00
0.000000e+00
0.000000e+00
0.000000e+00
0.000000e+00
0.000000e+00
0.000000e+00
0.000000e+00
0.000000e+00
0.000000e+00
0.000000e+00
0.000000e+00
0.000000e+00
0.000000e+00
0.000000e+00
0.000000e+00
0.000000e+00
0.000000e+00
0.000000e+00
0.000000e+00
0.000000e+00
0.000000e+00
0.000000e+00
0.000000e+00
0.000000e+00
0.000000e+00
0.000000e+00
0.000000e+00
0.000000e+00
0.000000e+00
0.000000e+00
0.000000e+00
0.000000e+00
0.000000e+00
0.000000e+00
0.000000e+00
0.000000e+00
0.000000e+00
0.000000e+00
0.000000e+00
0.000000e+00
0.000000e+00
0.000000e+00
0.000000e+00
0.000000e+00
0.000000e+00
0.000000e+00
0.000000e+00
0.000000e+00
0.000000e+00
0.000000e+00
0.000000e+00
0.000000e+00
0.000000e+00
0.000000e+00
0.000000e+00
0.000000e+00
0.000000e+00
0.000000e+00
0.000000e+00
0.000000e+00
0.000000e+00
0.000000e+00
0.000000e+00
0.000000e+00
0.000000e+00
0.000000e+00
0.000000e+00
0.000000e+00
0.000000e+00
0.000000e+00
0.000000e+00
0.000000e+00
0.000000e+00
0.000000e+00
0.000000e+00
0.000000e+00
0.000000e+00
0.000000e+00
0.000000e+00
0.000000e+00
0.000000e+00
0.000000e+00
0.000000e+00
0.000000e+00
0.000000e+00
0.000000e+00
0.000000e+00
0.000000e+00
0.000000e+00
0.000000e+00
0.000000e+00
0.000000e+00
0.000000e+00
0.000000e+00
0.000000e+00
0.000000e+00
0.000000e+00
0.000000e+00
0.000000e+00
0.000000e+00
0.000000e+00
0.000000e+00
0.000000e+00
0.000000e+00
0.000000e+00
0.000000e+00
0.000000e+00
0.000000e+00
0.000000e+00
0.000000e+00
0.000000e+00
0.000000e+00
0.000000e+00
0.000000e+00
0.000000e+00
0.000000e+00
0.000000e+00
0.000000e+00
0.000000e+00
0.000000e+00
0.000000e+00
0.000000e+00
0.000000e+00
0.000000e+00
0.000000e+00
0.000000e+00
0.000000e+00
0.000000e+00
0.000000e+00
0.000000e+00
0.000000e+00
0.000000e+00
0.000000e+00
0.000000e+00
0.000000e+00
0.000000e+00
0.000000e+00
0.000000e+00
0.000000e+00
0.000000e+00
0.000000e+00
0.000000e+00
0.000000e+00
0.000000e+00
0.000000e+00
0.000000e+00
0.000000e+00
0.000000e+00
0.000000e+00
0.000000e+00
0.000000e+00
0.000000e+00
0.000000e+00
0.000000e+00
0.000000e+00
0.000000e+00
0.000000e+00
0.000000e+00
0.000000e+00
0.000000e+00
0.000000e+00
0.000000e+00
0.000000e+00
0.000000e+00
0.000000e+00
0.000000e+00
0.000000e+00
0.000000e+00
0.000000e+00
0.000000e+00
0.000000e+00
0.000000e+00
0.000000e+00
0.000000e+00
0.000000e+00
0.000000e+00
0.000000e+00
0.000000e+00
0.000000e+00
0.000000e+00
0.000000e+00
0.000000e+00
0.000000e+00
0.000000e+00
0.000000e+00
0.000000e+00
0.000000e+00
0.000000e+00
0.000000e+00
0.000000e+00
0.000000e+00
0.000000e+00
0.000000e+00
0.000000e+00
0.000000e+00
0.000000e+00
0.000000e+00
0.000000e+00
0.000000e+00
0.000000e+00
0.000000e+00
0.000000e+00
0.000000e+00
0.000000e+00
0.000000e+00
0.000000e+00
0.000000e+00
0.000000e+00
0.000000e+00
0.000000e+00
0.000000e+00
0.000000e+00
0.000000e+00
0.000000e+00
0.000000e+00
0.000000e+00
0.000000e+00
0.000000e+00
0.000000e+00
0.000000e+00
0.000000e+00
0.000000e+00
0.000000e+00
0.000000e+00
0.000000e+00
0.000000e+00
0.000000e+00
0.000000e+00
0.000000e+00
0.000000e+00
0.000000e+00
0.000000e+00
0.000000e+00
0.000000e+00
0.000000e+00
0.000000e+00
0.000000e+00
0.000000e+00
0.000000e+00
0.000000e+00
0.000000e+00
0.000000e+00
0.000000e+00
0.000000e+00
0.000000e+00
0.000000e+00
0.000000e+00
0.000000e+00
0.000000e+00
0.000000e+00
0.000000e+00
0.000000e+00
0.000000e+00
0.000000e+00
0.000000e+00
0.000000e+00
0.000000e+00
0.000000e+00
0.000000e+00
0.000000e+00
0.000000e+00
0.000000e+00
0.000000e+00
0.000000e+00
0.000000e+00
0.000000e+00
0.000000e+00
0.000000e+00
0.000000e+00
0.000000e+00
0.000000e+00
0.000000e+00
0.000000e+00
0.000000e+00
0.000000e+00
0.000000e+00
0.000000e+00
0.000000e+00
0.000000e+00
0.000000e+00
0.000000e+00
0.000000e+00
0.000000e+00
0.000000e+00
0.000000e+00
0.000000e+00
0.000000e+00
0.000000e+00
0.000000e+00
0.000000e+00
0.000000e+00
0.000000e+00
0.000000e+00
0.000000e+00
0.000000e+00
0.000000e+00
0.000000e+00
0.000000e+00
0.000000e+00
0.000000e+00
0.000000e+00
0.000000e+00
0.000000e+00
0.000000e+00
0.000000e+00
0.000000e+00
0.000000e+00
0.000000e+00
0.000000e+00
0.000000e+00
0.000000e+00
0.000000e+00
0.000000e+00
0.000000e+00
0.000000e+00
0.000000e+00
0.000000e+00
0.000000e+00
0.000000e+00
0.000000e+00
0.000000e+00
0.000000e+00
0.000000e+00
0.000000e+00
0.000000e+00
0.000000e+00
0.000000e+00
0.000000e+00
0.000000e+00
0.000000e+00
0.000000e+00
0.000000e+00
0.000000e+00
0.000000e+00
0.000000e+00
0.000000e+00
0.000000e+00
0.000000e+00
0.000000e+00
0.000000e+00
0.000000e+00
0.000000e+00
0.000000e+00
0.000000e+00
0.000000e+00
0.000000e+00
0.000000e+00
0.000000e+00
0.000000e+00
0.000000e+00
0.000000e+00
0.000000e+00
0.000000e+00
0.000000e+00
0.000000e+00
0.000000e+00
0.000000e+00
0.000000e+00
0.000000e+00
0.000000e+00
0.000000e+00
0.000000e+00
SCALARS S11 float 1
LOOKUP_TABLE default
2.461744e+00
2.557016e+00
4.436528e+00
1.532743e+00
2.461744e+00
2.557016e+00
4.436528e+00
1.532743e+00
5.704315e-01
5.837876e+00
5.704315e-01
5.837876e+00
4.089974e+00
1.769390e+00
4.089974e+00
1.769390e+00
-1.156312e+00
-1.156312e+00
2.438657e-01
-6.196605e-02
1.737211e-01
3.149124e-01
2.438657e-01
-6.196605e-02
1.737211e-01
3.149124e-01
-4.338383e-01
-4.374823e-01
-4.338383e-01
-4.374823e-01
-3.530149e-01
-1.096078e-01
-3.530149e-01
-1.096078e-01
3.109171e-01
3.109171e-01
1.874850e-01
6.744257e-02
-9.308372e-02
1.874850e-01
6.744257e-02
-9.308372e-02
5.665223e-02
3.049280e-01
5.665223e-02
3.049280e-01
2.087821e-01
-1.116369e-03
2.087821e-01
-1.116369e-03
-5.813818e-02
-5.813818e-02
-2.225482e-01
-7.562262e-01
1.397464e-02
2.012647e-03
-2.225482e-01
-7.562262e-01
1.397464e-02
2.012647e-03
-1.286947e+00
-3.789169e-02
-1.286947e+00
-3.789169e-02
4.027574e-02
-1.480982e-01
4.027574e-02
-1.480982e-01
1.882796e-01
1.882796e-01
-1.075503e-01
-4.618021e-02
-1.290295e-01
-3.546538e-01
-1.075503e-01
-4.618021e-02
-1.290295e-01
-3.546538e-01
-1.479402e+00
-1.479402e+00
-1.210391e+00
-1.210391e+00
-1.044746e-01
8.801860e-02
-1.981240e-01
6.114097e-03
-1.044746e-01
8.801860e-02
-1.981240e-01
6.114097e-03
-3.368721e-03
-3.368721e-03
-6.565915e-02
-6.565915e-02
-6.008297e-02
-1.479793e-01
-3.076059e-01
-1.801951e-01
-6.008297e-02
-1.479793e-01
-3.076059e-01
-1.801951e-01
-3.178518e-02
-2.700336e-01
-3.178518e-02
-2.700336e-01
-9.970282e-02
-1.283899e-01
-9.970282e-02
-1.283899e-01
-1.399355e-01
-1.399355e-01
8.673583e-02
-5.023720e-02
-7.060293e-02
1.178395e-01
8.673583e-02
-5.023720e-02
-7.060293e-02
1.178395e-01
-1.815448e-01
2.539516e-02
-1.815448e-01
2.539516e-02
4.532494e-01
-1.972570e-02
4.532494e-01
-1.972570e-02
-7.963715e-02
-7.963715e-02
-1.581249e+00
-1.128064e+00
2.853150e+00
1.064042e+00
-1.581249e+00
-1.128064e+00
2.853150e+00
1.064042e+00
3.928361e-01
4.419074e+00
3.928361e-01
4.419074e+00
3.888758e-01
1.787037e+00
3.888758e-01
1.787037e+00
1.429152e+00
1.429152e+00
2.464839e-01
2.711696e-01
7.475298e-01
2.464839e-01
2.711696e-01
7.475298e-01
-2.674654e-01
-2.214003e-01
-2.674654e-01
-2.214003e-01
4.062076e-01
4.062076e-01
1.639364e-01
1.639364e-01
-2.552385e-01
-2.807005e-01
-2.552385e-01
-2.807005e-01
3.541676e-01
1.094251e+00
1.821080e+00
1.459876e+00
3.541676e-01
1.094251e+00
1.821080e+00
1.459876e+00
-4.511233e-01
-4.511233e-01
-1.759896e-01
-3.424775e-01
-3.247627e-01
-2.011319e-01
-1.759896e-01
-3.424775e-01
-3.247627e-01
-2.011319e-01
-1.553941e-02
-1.553941e-02
-3.103212e-02
-3.103212e-02
-1.969071e-01
-1.969071e-01
5.602905e-01
5.602905e-01
-3.860228e-01
-3.860228e-01
-1.505099e-01
-1.505099e-01
4.416786e-02
-1.180311e-01
4.416786e-02
-1.180311e-01
-4.387485e-01
-4.387485e-01
-4.342996e-01
-5.680564e-01
-4.342996e-01
-5.680564e-01
-5.059829e-01
-5.059829e-01
-1.322175e-01
1.516836e-01
-1.322175e-01
1.516836e-01
2.359384e-01
3.482533e-02
2.359384e-01
3.482533e-02
-2.398058e-01
4.408993e-02
-2.398058e-01
4.408993e-02
8.386028e-02
8.386028e-02
1.642500e-01
1.642500e-01
1.437548e-01
-1.298428e-01
1.437548e-01
-1.298428e-01
-1.645389e-01
-1.645389e-01
-9.840765e-02
1.137268e-01
-9.840765e-02
1.137268e-01
6.618963e-02
2.093151e-03
-6.479698e-02
7.203872e-02
6.618963e-02
2.093151e-03
-6.479698e-02
7.203872e-02
5.216892e-02
-6.015821e-02
5.216892e-02
-6.015821e-02
-6.320604e-02
-6.971379e-02
-6.320604e-02
-6.971379e-02
-1.585694e-01
-5.352450e-02
1.152407e-02
-4.206549e-02
-1.585694e-01
-5.352450e-02
1.152407e-02
-4.206549e-02
-1.640954e-03
-1.017035e-01
-1.640954e-03
-1.017035e-01
-1.832798e-02
4.718505e-02
-1.832798e-02
4.718505e-02
-2.787208e-03
-2.787208e-03
1.744499e-01
8.767770e-02
1.744499e-01
8.767770e-02
1.685228e-01
1.685228e-01
1.448795e-01
1.448795e-01
-2.249630e-01
7.237063e-02
3.069864e-03
-2.951125e-01
-2.249630e-01
7.237063e-02
3.069864e-03
-2.951125e-01
-2.192974e-02
-2.192974e-02
2.504701e-02
2.504701e-02
-3.650669e-01
-5.129652e-01
1.165628e-01
4.200038e-02
-3.650669e-01
-5.129652e-01
1.165628e-01
4.200038e-02
1.734920e-02
1.734920e-02
-1.895213e-01
9.326051e-02
5.086024e-04
-1.417267e-01
-1.895213e-01
9.326051e-02
5.086024e-04
-1.417267e-01
-1.549506e-01
-1.549506e-01
-6.141705e-02
1.275937e-01
-6.141705e-02
1.275937e-01
2.169900e-01
-2.996882e-02
2.169900e-01
-2.996882e-02
1.504245e-01
1.504245e-01
5.750041e-02
5.750041e-02
-1.460936e-01
-1.460936e-01
-1.573331e-01
1.507340e-01
-1.573331e-01
1.507340e-01
-1.529179e-01
-9.714749e-02
-1.529179e-01
-9.714749e-02
8.832734e-02
8.832734e-02
-3.767838e-02
-4.587422e-02
2.469478e-01
2.862534e-01
-3.767838e-02
-4.587422e-02
2.469478e-01
2.862534e-01
-8.292365e-03
-8.292365e-03
1.327964e-01
1.327964e-01
-5.318867e-01
-9.554843e-01
2.791832e-01
-1.491577e-01
-5.318867e-01
-9.554843e-01
2.791832e-01
-1.491577e-01
2.865181e-01
2.865181e-01
1.368085e-01
1.368085e-01
-3.073814e-02
-3.073814e-02
1.284663e+00
7.057876e-02
1.284663e+00
7.057876e-02
1.351118e+00
1.351118e+00
1.540687e-01
1.540687e-01
-8.399090e-01
-4.140140e-01
-8.399090e-01
-4.140140e-01
-1.616672e-01
-1.616672e-01
-1.852287e-02
-1.852287e-02
1.402808e-01
-1.672188e-02
1.402808e-01
-1.672188e-02
-5.398839e-02
-1.701954e-01
-5.398839e-02
-1.701954e-01
-8.849486e-01
-6.940372e-01
-1.199242e+00
-1.135797e+00
-8.849486e-01
-6.940372e-01
-1.199242e+00
-1.135797e+00
2.289343e-01
2.289343e-01
2.395790e-01
2.395790e-01
-1.283843e+00
-5.766756e-01
-1.283843e+00
-5.766756e-01
5.541333e+00
2.893306e+00
5.541333e+00
2.893306e+00
8.508835e-03
8.508835e-03
8.336755e-03
8.336755e-03
-3.447993e-02
1.808773e-01
-3.447993e-02
1.808773e-01
-5.856332e-03
-5.856332e-03
-8.633785e-02
7.736436e-03
-8.633785e-02
7.736436e-03
3.986524e-02
3.986524e-02
1.010491e-01
1.010491e-01
8.004546e-02
8.004546e-02
2.999530e-02
3.163235e-02
2.999530e-02
3.163235e-02
9.926097e-02
9.926097e-02
4.071479e-02
4.071479e-02
7.879488e-03
7.974570e-02
7.879488e-03
7.974570e-02
-5.252198e-02
-5.252198e-02
8.476086e-02
8.476086e-02
-1.076973e-01
-9.606229e-02
-1.076973e-01
-9.606229e-02
6.167333e-02
6.167333e-02
2.746436e-04
2.746436e-04
1.054679e-01
-4.343158e-02
1.054679e-01
-4.343158e-02
3.004420e-02
-2.491551e-01
3.004420e-02
-2.491551e-01
-4.056673e-02
-4.056673e-02
-1.094529e-01
3.293189e-02
-1.094529e-01
3.293189e-02
-1.398348e-01
-1.398348e-01
4.987463e-03
4.987463e-03
7.706822e-02
7.706822e-02
1.348924e-01
1.559154e-02
1.348924e-01
1.559154e-02
-1.397024e-02
-1.397024e-02
1.462862e-02
1.462862e-02
-9.792717e-03
-4.374941e-02
-9.792717e-03
-4.374941e-02
9.328028e-02
9.328028e-02
-2.251745e-02
-2.251745e-02
9.057886e-02
2.970761e-02
9.057886e-02
2.970761e-02
-7.565206e-02
-7.565206e-02
7.523440e-03
7.523440e-03
-2.132742e-03
5.181337e-02
-2.132742e-03
5.181337e-02
3.586324e-02
5.395322e-03
3.586324e-02
5.395322e-03
-4.296308e-02
-4.296308e-02
8.491619e-02
2.490806e-02
8.491619e-02
2.490806e-02
-9.241520e-02
-9.241520e-02
-7.677011e-02
-7.677011e-02
-4.256839e-02
-4.256839e-02
-9.655113e-02
-1.079345e-04
-9.655113e-02
-1.079345e-04
6.936681e-03
6.936681e-03
-9.487438e-03
-9.487438e-03
-5.287087e-03
1.655278e-02
-5.287087e-03
1.655278e-02
-2.603821e-02
-2.603821e-02
7.539993e-02
7.539993e-02
1.431264e-01
-6.338776e-02
1.431264e-01
-6.338776e-02
6.926550e-02
6.926550e-02
-3.929385e-02
-3.929385e-02
-1.120620e-01
8.847645e-02
-1.120620e-01
8.847645e-02
-6.057566e-02
1.013089e-01
-6.057566e-02
1.013089e-01
-3.030689e-02
-3.030689e-02
4.431462e-02
-4.356285e-02
4.431462e-02
-4.356285e-02
1.077414e-01
1.077414e-01
9.208126e-02
9.208126e-02
-8.929855e-02
-8.929855e-02
-4.896466e-02
2.798141e-02
-4.896466e-02
2.798141e-02
-1.294821e-01
-1.294821e-01
-1.767864e-02
-1.767864e-02
1.488806e-02
-2.100132e-02
1.488806e-02
-2.100132e-02
-1.147446e-01
-1.147446e-01
-1.815189e-03
-1.815189e-03
-6.655057e-02
3.228907e-02
-6.655057e-02
3.228907e-02
-1.380429e-02
-1.380429e-02
-1.230103e-01
-1.230103e-01
8.521422e-02
-9.866455e-02
8.521422e-02
-9.866455e-02
-1.142333e-02
-7.518794e-02
-1.142333e-02
-7.518794e-02
1.103262e-01
1.103262e-01
1.031275e-01
-2.836511e-02
1.031275e-01
-2.836511e-02
8.414378e-02
8.414378e-02
-5.552599e-02
-5.552599e-02
5.220256e-02
5.220256e-02
-2.670122e-02
-1.849289e-02
-2.670122e-02
-1.849289e-02
8.310030e-02
8.310030e-02
7.107262e-02
7.107262e-02
-7.564974e-02
2.102839e-02
-7.564974e-02
2.102839e-02
8.112061e-02
8.112061e-02
3.901108e-02
3.901108e-02
5.206233e-02
1.129972e-02
5.206233e-02
1.129972e-02
2.522373e-02
2.522373e-02
5.229023e-02
5.229023e-02
-6.085094e-02
3.835122e-04
-6.085094e-02
3.835122e-04
-3.513994e-02
-3.895335e-03
-3.513994e-02
-3.895335e-03
1.129869e-01
1.129869e-01
3.962430e-02
-3.147064e-02
3.962430e-02
-3.147064e-02
1.475474e-02
1.475474e-02
2.093697e-01
2.093697e-01
6.880185e-02
6.880185e-02
8.348411e-02
1.720683e-01
8.348411e-02
1.720683e-01
-8.144729e-02
-8.144729e-02
-4.451303e-02
-4.451303e-02
-1.514345e-02
-7.124041e-02
-1.514345e-02
-7.124041e-02
-4.596741e-02
-4.596741e-02
-9.330167e-02
-9.330167e-02
-2.545706e-02
-2.603788e-02
-2.545706e-02
-2.603788e-02
-2.141689e-02
-2.141689e-02
1.094920e-01
1.094920e-01
1.670433e-02
2.947898e-02
1.670433e-02
2.947898e-02
9.151122e-03
-3.752585e-02
9.151122e-03
-3.752585e-02
4.131001e-02
4.131001e-02
8.831698e-03
-7.733253e-02
8.831698e-03
-7.733253e-02
-1.439479e-01
-1.439479e-01
1.507410e-02
1.507410e-02
2.908097e-02
2.908097e-02
1.491473e-01
3.194489e-03
1.491473e-01
3.194489e-03
7.723153e-02
7.723153e-02
7.525924e-04
7.525924e-04
7.524945e-02
8.231906e-02
7.524945e-02
8.231906e-02
-4.726490e-02
-4.726490e-02
3.033005e-02
3.033005e-02
-1.174237e-02
5.033379e-02
-1.174237e-02
5.033379e-02
5.979111e-02
5.979111e-02
3.841665e-03
3.841665e-03
3.271284e-02
4.466449e-02
3.271284e-02
4.466449e-02
-1.748087e-02
-6.639172e-03
-1.748087e-02
-6.639172e-03
4.406756e-02
4.406756e-02
1.537528e-01
1.573817e-01
1.537528e-01
1.573817e-01
6.984825e-02
6.984825e-02
8.069725e-02
8.069725e-02
1.774979e-01
1.774979e-01
-3.121859e-04
3.403875e-02
-3.121859e-04
3.403875e-02
-1.910431e-02
-1.910431e-02
-2.822690e-02
-2.822690e-02
-6.080145e-02
-7.715186e-02
-6.080145e-02
-7.715186e-02
1.342914e-02
1.342914e-02
-9.968364e-02
-9.968364e-02
-9.313589e-02
-1.435064e-01
-9.313589e-02
-1.435064e-01
-2.844496e-03
-2.844496e-03
-3.426816e-02
-3.426816e-02
2.939724e-02
6.043069e-02
2.939724e-02
6.043069e-02
1.016206e-01
3.353340e-02
1.016206e-01
3.353340e-02
1.355871e-01
1.355871e-01
1.226091e-01
-5.060277e-04
1.226091e-01
-5.060277e-04
4.791903e-02
4.791903e-02
-6.439359e-02
-6.439359e-02
-1.338597e-01
-1.338597e-01
-1.209626e-01
-6.324681e-02
-1.209626e-01
-6.324681e-02
-5.344695e-03
-5.344695e-03
-1.115695e-01
-1.115695e-01
-1.327576e-01
-1.688060e-02
-1.327576e-01
-1.688060e-02
-9.609532e-02
-9.609532e-02
1.663479e-02
1.663479e-02
1.237559e-02
-5.823419e-02
1.237559e-02
-5.823419e-02
-8.759190e-03
-8.759190e-03
4.115561e-02
4.115561e-02
4.633052e-02
-5.860484e-03
4.633052e-02
-5.860484e-03
-3.402267e-02
2.912885e-02
-3.402267e-02
2.912885e-02
4.135940e-02
4.135940e-02
-1.765633e-01
-2.054932e-01
-1.765633e-01
-2.054932e-01
-6.572228e-02
-6.572228e-02
-1.963711e-02
-1.963711e-02
-8.722266e-02
-8.722266e-02
3.000548e-02
-9.645472e-03
3.000548e-02
-9.645472e-03
-1.127001e-02
-1.127001e-02
-1.142631e-01
-1.142631e-01
3.988146e-02
6.699817e-02
3.988146e-02
6.699817e-02
3.672824e-03
3.672824e-03
1.587614e-02
1.587614e-02
-1.047041e-02
7.428003e-02
-1.047041e-02
7.428003e-02
-2.870970e-02
-2.870970e-02
5.274809e-02
5.274809e-02
5.552191e-02
-1.009653e-02
5.552191e-02
-1.009653e-02
-1.754286e-01
-6.409107e-02
-1.754286e-01
-6.409107e-02
-1.845391e-01
-1.845391e-01
-1.307870e-01
-4.190737e-02
-1.307870e-01
-4.190737e-02
-3.269351e-02
-3.269351e-02
-1.005253e-01
-1.005253e-01
-5.697569e-04
-5.697569e-04
-1.069993e-02
-8.542672e-02
-1.069993e-02
-8.542672e-02
1.094646e-01
1.094646e-01
1.022670e-01
1.022670e-01
-9.160138e-02
-1.590098e-02
-9.160138e-02
-1.590098e-02
5.200089e-02
5.200089e-02
2.325306e-02
2.325306e-02
-1.868527e-03
-2.720060e-02
-1.868527e-03
-2.720060e-02
-1.364314e-02
-1.364314e-02
-5.964320e-02
-5.964320e-02
-3.847898e-02
-7.353101e-02
-3.847898e-02
-7.353101e-02
-1.216967e-01
-8.439351e-02
-1.216967e-01
-8.439351e-02
-1.023382e-01
-1.023382e-01
4.478550e-02
-1.194757e-01
4.478550e-02
-1.194757e-01
-1.118905e-01
-1.118905e-01
-5.245455e-02
-5.245455e-02
-1.099736e-02
-1.099736e-02
-8.018009e-02
5.049118e-02
-8.018009e-02
5.049118e-02
-3.529058e-02
-3.529058e-02
-4.988269e-03
-4.988269e-03
1.769712e-01
1.173089e-01
1.769712e-01
1.173089e-01
9.241337e-02
9.241337e-02
1.300180e-01
1.300180e-01
1.070876e-01
1.379625e-01
1.070876e-01
1.379625e-01
1.648892e-02
1.648892e-02
-9.510247e-02
-9.510247e-02
-1.181538e-01
1.882296e-02
-1.181538e-01
1.882296e-02
8.239824e-03
3.521645e-02
8.239824e-03
3.521645e-02
6.235855e-02
6.235855e-02
9.920850e-03
3.190539e-02
9.920850e-03
3.190539e-02
-7.761146e-04
-7.761146e-04
5.839776e-02
5.839776e-02
-2.355819e-02
-2.355819e-02
4.250318e-02
2.008611e-02
4.250318e-02
2.008611e-02
-3.215863e-02
-3.215863e-02
6.040774e-02
6.040774e-02
-3.117829e-02
-8.682006e-02
-3.117829e-02
-8.682006e-02
1.248765e-01
1.248765e-01
2.578247e-02
2.578247e-02
1.454058e-03
-1.219564e-02
1.454058e-03
-1.219564e-02
-2.868077e-02
-2.868077e-02
-3.169496e-02
-3.169496e-02
-8.396758e-02
-1.491224e-02
-8.396758e-02
-1.491224e-02
4.263447e-02
-7.842929e-02
4.263447e-02
-7.842929e-02
-3.293882e-03
-3.293882e-03
7.045101e-03
1.280353e-01
7.045101e-03
1.280353e-01
3.024378e-03
3.024378e-03
-6.111671e-02
-6.111671e-02
6.941065e-02
6.941065e-02
5.492351e-02
-1.881254e-01
5.492351e-02
-1.881254e-01
3.595318e-02
3.595318e-02
-5.921773e-02
-5.921773e-02
-1.247617e-01
3.371143e-02
-1.247617e-01
3.371143e-02
-9.041121e-02
-9.041121e-02
-4.139131e-02
-4.139131e-02
6.776522e-02
8.085335e-02
6.776522e-02
8.085335e-02
8.089996e-03
8.089996e-03
-4.408849e-02
-4.408849e-02
-2.516576e-02
-2.978215e-02
-2.516576e-02
-2.978215e-02
3.188733e-02
3.954583e-02
4.467994e-02
2.635675e-01
3.188733e-02
3.954583e-02
4.467994e-02
2.635675e-01
-5.435294e-02
5.011501e-02
-5.435294e-02
5.011501e-02
1.265815e-01
2.180030e-01
1.265815e-01
2.180030e-01
2.663131e-01
2.663131e-01
2.474430e-02
7.581174e-02
2.474430e-02
7.581174e-02
2.450127e-02
3.812999e-02
2.450127e-02
3.812999e-02
-7.320594e-02
3.156119e-02
-7.320594e-02
3.156119e-02
-2.895092e-02
6.508208e-02
-2.895092e-02
6.508208e-02
3.459036e-02
3.459036e-02
1.634962e-01
-9.552983e-02
1.634962e-01
-9.552983e-02
1.071885e-01
1.071885e-01
2.790814e-02
-8.582233e-03
2.790814e-02
-8.582233e-03
-1.193427e-01
-1.193427e-01
3.090304e-03
3.090304e-03
-4.210722e-02
-4.210722e-02
5.732670e-02
5.382676e-02
5.732670e-02
5.382676e-02
-5.138857e-03
-5.138857e-03
7.975077e-02
7.975077e-02
5.480907e-02
3.646875e-02
5.480907e-02
3.646875e-02
7.689782e-02
7.689782e-02
1.306469e-01
2.009459e-01
1.306469e-01
2.009459e-01
1.055883e-01
1.055883e-01
1.840689e-01
1.840689e-01
1.122386e-01
1.122386e-01
1.352095e-01
1.851080e-02
1.352095e-01
1.851080e-02
-2.967899e-02
-2.967899e-02
4.875653e-02
4.875653e-02
8.938508e-02
-4.711547e-02
8.938508e-02
-4.711547e-02
1.447194e-01
1.447194e-01
2.764394e-02
-8.099895e-02
2.764394e-02
-8.099895e-02
-1.907353e-02
-1.907353e-02
4.751796e-02
4.751796e-02
1.002104e-01
1.002104e-01
2.346730e-02
3.635420e-02
2.346730e-02
3.635420e-02
2.279177e-02
2.279177e-02
-1.333584e-01
-1.333584e-01
-2.086963e-02
1.667319e-01
-2.086963e-02
1.667319e-01
-6.742770e-02
-6.742770e-02
3.333839e-02
8.265903e-02
3.333839e-02
8.265903e-02
2.571139e-02
2.571139e-02
-7.030520e-02
-7.030520e-02
-8.827004e-02
-8.827004e-02
-6.018487e-02
4.576783e-02
-6.018487e-02
4.576783e-02
1.924797e-02
1.924797e-02
-2.650416e-02
-2.650416e-02
6.384343e-02
-2.239077e-01
6.384343e-02
-2.239077e-01
1.104240e-01
1.104240e-01
1.480767e-01
2.195453e-02
1.480767e-01
2.195453e-02
-3.609004e-01
-3.609004e-01
3.272304e-02
3.272304e-02
3.814225e-02
3.814225e-02
9.406220e-02
4.542230e-02
9.406220e-02
4.542230e-02
-5.056001e-02
-5.056001e-02
-6.279877e-03
-6.279877e-03
-3.715810e-01
-1.668230e-01
-3.715810e-01
-1.668230e-01
8.684427e-02
8.684427e-02
4.949497e-02
-1.266122e-01
4.949497e-02
-1.266122e-01
-7.853822e-02
-7.853822e-02
-4.234322e-02
-4.234322e-02
-1.799625e-01
-1.799625e-01
-1.116728e-02
7.469622e-02
-1.116728e-02
7.469622e-02
1.745397e-01
1.745397e-01
1.644788e-01
1.644788e-01
-3.197762e-02
9.544095e-04
-3.197762e-02
9.544095e-04
5.875292e-02
5.875292e-02
3.516061e-02
3.516061e-02
-4.075428e-02
4.069760e-02
-4.075428e-02
4.069760e-02
1.331109e-02
1.331109e-02
5.864394e-02
5.864394e-02
1.042322e-01
-5.787112e-02
1.042322e-01
-5.787112e-02
3.719889e-03
3.719889e-03
-9.683410e-02
-9.683410e-02
-6.830508e-02
8.561053e-03
-6.830508e-02
8.561053e-03
-6.666764e-02
-6.666764e-02
-1.223303e-02
-1.223303e-02
5.347124e-02
6.880773e-01
5.347124e-02
6.880773e-01
-1.183445e-01
-1.183445e-01
-1.564010e-01
-3.227839e-01
-1.564010e-01
-3.227839e-01
5.100964e-01
5.100964e-01
1.182146e-01
1.182146e-01
6.716901e-02
6.716901e-02
-1.714191e-01
1.146379e-02
-1.714191e-01
1.146379e-02
3.623140e-02
3.623140e-02
-4.331982e-02
-4.331982e-02
9.607620e-02
8.883304e-02
9.607620e-02
8.883304e-02
5.417313e-02
5.417313e-02
7.132542e-02
7.132542e-02
-1.079446e-01
-1.522879e-02
-1.079446e-01
-1.522879e-02
8.540637e-03
8.540637e-03
5.291404e-02
5.291404e-02
-7.035447e-02
-2.283195e-01
-7.035447e-02
-2.283195e-01
-3.756468e-02
-3.756468e-02
-5.540438e-02
-5.540438e-02
5.951156e-02
-1.978780e-02
5.951156e-02
-1.978780e-02
-5.674093e-02
-5.674093e-02
4.879733e-02
4.879733e-02
8.318891e-02
8.318891e-02
-1.595867e-01
-1.595867e-01
-1.376725e-01
9.136560e-02
-1.376725e-01
9.136560e-02
6.288058e-02
6.288058e-02
9.386107e-02
9.386107e-02
7.342552e-03
-8.034789e-02
7.342552e-03
-8.034789e-02
-3.390455e-01
-3.390455e-01
-2.342815e-01
-2.342815e-01
-2.658782e-01
-2.797854e-01
-2.658782e-01
-2.797854e-01
1.546941e-01
1.546941e-01
8.692115e-02
8.692115e-02
5.732662e-01
3.482837e-01
5.732662e-01
3.482837e-01
4.151924e-01
4.151924e-01
8.838844e-01
8.838844e-01
6.118770e-01
1.751523e-01
6.118770e-01
1.751523e-01
-1.144870e-01
-1.144870e-01
2.511211e-01
2.511211e-01
-7.386861e-02
-2.000414e-01
-7.386861e-02
-2.000414e-01
-5.546392e-01
-5.546392e-01
-4.832516e-01
-4.832516e-01
-5.291713e-01
-2.318509e-01
-5.291713e-01
-2.318509e-01
-3.595642e-01
2.496695e-01
-3.595642e-01
2.496695e-01
-2.102498e-01
-6.932508e-02
-2.102498e-01
-6.932508e-02
1.178816e-01
6.890085e-02
1.178816e-01
6.890085e-02
1.075143e-01
7.947974e-03
-6.230259e-02
1.217778e-01
1.075143e-01
7.947974e-03
-6.230259e-02
1.217778e-01
2.452689e-01
-6.741998e-02
2.452689e-01
-6.741998e-02
-2.310214e-02
-6.322222e-02
-2.310214e-02
-6.322222e-02
7.589295e-02
7.589295e-02
3.798198e-02
-6.371125e-02
3.079504e-03
-3.839281e-02
3.798198e-02
-6.371125e-02
3.079504e-03
-3.839281e-02
-1.463862e-02
3.695382e-02
-1.463862e-02
3.695382e-02
5.484408e-02
1.080633e-01
5.484408e-02
1.080633e-01
4.302017e-03
4.302017e-03
-1.113881e-01
1.377631e-03
-3.593839e-02
-9.635597e-02
-1.113881e-01
1.377631e-03
-3.593839e-02
-9.635597e-02
1.365487e-01
4.488882e-02
1.365487e-01
4.488882e-02
-6.045763e-02
-8.291507e-02
-6.045763e-02
-8.291507e-02
9.970914e-02
9.970914e-02
2.296793e-02
-7.710428e-02
-3.908071e-03
2.296793e-02
-7.710428e-02
-3.908071e-03
-7.620461e-02
1.091318e-01
-7.620461e-02
1.091318e-01
1.099290e-01
-1.336855e-01
1.099290e-01
-1.336855e-01
-2.512642e-01
-2.512642e-01
6.949784e-02
3.396622e-03
-4.703370e-03
-1.242157e-01
6.949784e-02
3.396622e-03
-4.703370e-03
-1.242157e-01
5.923604e-02
5.923604e-02
-6.614442e-02
-6.614442e-02
1.007253e-02
8.589858e-02
1.440655e-01
-4.884457e-02
1.007253e-02
8.589858e-02
1.440655e-01
-4.884457e-02
1.885527e-01
-2.765994e-02
1.885527e-01
-2.765994e-02
-2.028267e-01
3.368305e-02
-2.028267e-01
3.368305e-02
-1.130790e-01
-1.130790e-01
4.508157e-01
3.191017e-01
1.237547e-01
5.168051e-01
4.508157e-01
3.191017e-01
1.237547e-01
5.168051e-01
-3.397554e-02
-3.397554e-02
-2.067326e-01
-2.067326e-01
4.719858e-01
4.719858e-01
-2.142489e-02
-8.027055e-02
-2.142489e-02
-8.027055e-02
2.344371e-02
2.344371e-02
-1.036979e-01
-6.073786e-02
-1.036979e-01
-6.073786e-02
7.638647e-02
7.638647e-02
4.973849e-02
-3.370876e-02
5.809996e-02
3.220300e-02
4.973849e-02
-3.370876e-02
5.809996e-02
3.220300e-02
2.597353e-02
2.597353e-02
7.747457e-04
1.679202e-02
7.747457e-04
1.679202e-02
-1.772712e-02
-1.772712e-02
2.246779e-02
-1.060145e-02
1.519576e-02
3.050921e-02
2.246779e-02
-1.060145e-02
1.519576e-02
3.050921e-02
-5.377922e-02
-4.692235e-02
-5.377922e-02
-4.692235e-02
4.376396e-03
4.376396e-03
9.987792e-03
-3.107502e-02
9.987792e-03
-3.107502e-02
3.228972e-02
3.228972e-02
-1.573399e-01
3.333233e-02
4.893445e-02
-3.118792e-01
-1.573399e-01
3.333233e-02
4.893445e-02
-3.118792e-01
1.030433e-03
1.030433e-03
9.945249e-02
9.945249e-02
1.364016e-01
2.155976e-02
1.364016e-01
2.155976e-02
1.392158e-01
1.392158e-01
-3.556670e-01
1.736335e-02
-3.556670e-01
1.736335e-02
-5.641620e-03
5.890904e-02
4.340420e-02
-5.641620e-03
5.890904e-02
4.340420e-02
-7.521792e-02
-7.521792e-02
5.494028e-02
5.494028e-02
4.231298e-03
-6.582141e-02
-1.105563e-01
-6.889866e-02
4.231298e-03
-6.582141e-02
-1.105563e-01
-6.889866e-02
-8.565308e-02
7.062878e-02
-8.565308e-02
7.062878e-02
-1.802404e-01
-1.802404e-01
-2.249696e-01
-2.249696e-01
-4.104562e-01
-4.965591e-01
-2.093286e-01
-8.543676e-02
-4.104562e-01
-4.965591e-01
-2.093286e-01
-8.543676e-02
-2.395682e-01
-1.577317e-01
-2.395682e-01
-1.577317e-01
8.037638e-02
-4.299633e-02
8.037638e-02
-4.299633e-02
-1.147236e-01
-1.147236e-01
2.200773e-01
4.516668e-02
3.016146e-02
2.939542e-03
2.200773e-01
4.516668e-02
3.016146e-02
2.939542e-03
2.772427e-01
2.772427e-01
9.194237e-02
9.194237e-02
1.737983e-01
1.737983e-01
-3.985582e-02
-3.985582e-02
-4.228711e-02
-1.616587e-01
-4.228711e-02
-1.616587e-01
7.832672e-02
5.114993e-02
-1.066386e-01
3.907282e-01
7.832672e-02
5.114993e-02
-1.066386e-01
3.907282e-01
2.959378e-01
-1.227566e-01
2.959378e-01
-1.227566e-01
6.304089e-02
-1.630013e-01
6.304089e-02
-1.630013e-01
6.993241e-01
6.993241e-01
-1.132259e-01
-5.210678e-02
-1.132259e-01
-5.210678e-02
2.181988e-01
2.181988e-01
-1.611784e-01
-1.380164e-01
-1.611784e-01
-1.380164e-01
-2.670815e-01
-2.670815e-01
2.760513e-01
9.411887e-02
2.760513e-01
9.411887e-02
4.800359e-01
4.800359e-01
4.242722e-01
4.242722e-01
8.087459e-02
8.087459e-02
2.898510e-01
1.472311e-01
2.898510e-01
1.472311e-01
6.647689e-01
6.647689e-01
1.460641e-01
2.356851e-02
1.460641e-01
2.356851e-02
-2.710999e-01
-5.779236e-02
-2.710999e-01
-5.779236e-02
-1.305565e-01
6.166149e-02
5.531763e-02
-2.755573e-01
-1.305565e-01
6.166149e-02
5.531763e-02
-2.755573e-01
7.696926e-02
1.736640e-02
7.696926e-02
1.736640e-02
5.027917e-02
5.027917e-02
3.126549e-02
-4.074173e-02
3.126549e-02
-4.074173e-02
8.508493e-02
8.508493e-02
8.070254e-02
8.070254e-02
-1.167470e-01
-1.167470e-01
4.023734e-01
2.090041e-02
4.023734e-01
2.090041e-02
1.223348e-01
-9.211887e-02
1.223348e-01
-9.211887e-02
-1.347562e-01
-1.347562e-01
-8.760352e-02
-8.760352e-02
-1.283007e-01
-1.283007e-01
3.883524e-02
3.883524e-02
-1.111096e-01
-1.111096e-01
-1.295691e-02
-1.295691e-02
-7.598707e-02
-7.886019e-02
-7.598707e-02
-7.886019e-02
-1.090527e-01
-2.491102e-02
-1.090527e-01
-2.491102e-02
3.337524e-01
3.337524e-01
-9.790538e-02
-9.790538e-02
1.565341e-01
1.565341e-01
-2.338236e-02
-2.338236e-02
4.927695e-02
2.074655e-01
4.927695e-02
2.074655e-01
-1.074121e-01
-1.074121e-01
2.760927e-02
-1.017944e-02
2.760927e-02
-1.017944e-02
4.339915e-02
4.339915e-02
2.135669e-03
5.230240e-02
2.135669e-03
5.230240e-02
-1.468690e-01
9.106972e-02
-1.468690e-01
9.106972e-02
1.869967e-01
5.617802e-02
1.869967e-01
5.617802e-02
-1.174746e-01
3.003823e-02
-1.174746e-01
3.003823e-02
-5.715430e-02
-1.136206e-02
-5.715430e-02
-1.136206e-02
1.253289e-02
7.601485e-02
1.253289e-02
7.601485e-02
-7.362878e-03
-1.091826e-02
-7.362878e-03
-1.091826e-02
-5.874686e-02
2.118520e-02
-5.874686e-02
2.118520e-02
3.112491e-03
8.607808e-02
3.112491e-03
8.607808e-02
2.828196e-02
-1.852398e-02
2.828196e-02
-1.852398e-02
9.726896e-02
-1.066820e-02
9.726896e-02
-1.066820e-02
4.367817e-02
-5.508199e-02
4.367817e-02
-5.508199e-02
-2.751887e-02
-7.872540e-02
-2.751887e-02
-7.872540e-02
9.385456e-02
2.641469e-02
9.385456e-02
2.641469e-02
8.496585e-03
-6.719722e-02
8.496585e-03
-6.719722e-02
3.486889e-02
1.627570e-02
3.486889e-02
1.627570e-02
-1.027985e-01
-6.309260e-02
-1.027985e-01
-6.309260e-02
2.302298e-02
1.635483e-02
2.302298e-02
1.635483e-02
2.762297e-02
6.319358e-02
2.762297e-02
6.319358e-02
9.946852e-02
4.888110e-02
9.946852e-02
4.888110e-02
-7.267981e-02
7.069953e-02
-7.267981e-02
7.069953e-02
3.566350e-02
-2.565854e-02
3.566350e-02
-2.565854e-02
-1.948043e-03
4.383599e-02
-1.948043e-03
4.383599e-02
-1.479998e-02
-9.634393e-02
-1.479998e-02
-9.634393e-02
-3.491593e-02
5.823252e-02
-3.491593e-02
5.823252e-02
1.200113e-02
1.929276e-02
1.200113e-02
1.929276e-02
-3.663260e-04
-5.705111e-02
-3.663260e-04
-5.705111e-02
8.810156e-02
-6.517274e-02
8.810156e-02
-6.517274e-02
9.053982e-03
-3.812036e-02
9.053982e-03
-3.812036e-02
-6.130075e-02
-6.489198e-03
-6.130075e-02
-6.489198e-03
1.606589e-02
5.151596e-02
1.606589e-02
5.151596e-02
2.953048e-02
5.340079e-03
2.953048e-02
5.340079e-03
4.693684e-02
1.138787e-01
4.693684e-02
1.138787e-01
-2.556208e-02
8.647581e-02
-2.556208e-02
8.647581e-02
-1.485754e-03
6.984070e-02
-1.485754e-03
6.984070e-02
4.611611e-02
2.158691e-02
4.611611e-02
2.158691e-02
-3.139869e-02
-1.122029e-01
-3.139869e-02
-1.122029e-01
2.953115e-02
-1.276581e-02
2.953115e-02
-1.276581e-02
-3.159168e-03
-6.259462e-02
-3.159168e-03
-6.259462e-02
1.027119e-01
4.011531e-02
1.027119e-01
4.011531e-02
4.971304e-03
-7.630309e-02
4.971304e-03
-7.630309e-02
2.329100e-02
2.279540e-02
2.329100e-02
2.279540e-02
-2.111391e-02
-2.111391e-02
-5.891616e-02
-5.891616e-02
-5.629347e-02
3.584632e-02
-5.629347e-02
3.584632e-02
-6.415957e-02
-6.415957e-02
5.404658e-03
5.404658e-03
1.140767e-02
-6.138148e-02
1.140767e-02
-6.138148e-02
5.439642e-02
5.439642e-02
4.519015e-02
4.519015e-02
-8.040149e-03
-1.268101e-01
-8.040149e-03
-1.268101e-01
-5.165682e-02
-5.165682e-02
2.052171e-02
2.052171e-02
4.025652e-02
-7.344212e-02
4.025652e-02
-7.344212e-02
-1.772662e-02
-1.772662e-02
-1.579932e-02
-1.579932e-02
-9.521612e-02
1.066754e-01
-9.521612e-02
1.066754e-01
3.379983e-02
3.379983e-02
-3.439280e-02
-3.439280e-02
-2.726013e-02
2.512094e-02
-2.726013e-02
2.512094e-02
1.160351e-02
1.160351e-02
-2.365575e-02
-2.365575e-02
-1.984882e-02
-1.262640e-02
-1.984882e-02
-1.262640e-02
3.718611e-02
3.718611e-02
3.464799e-02
3.464799e-02
7.361294e-02
7.860903e-02
7.361294e-02
7.860903e-02
-6.161221e-02
-6.161221e-02
4.030355e-02
4.030355e-02
5.555403e-02
1.071171e-02
5.555403e-02
1.071171e-02
2.097918e-03
2.097918e-03
-4.746296e-02
-4.746296e-02
3.282324e-03
-9.900099e-02
3.282324e-03
-9.900099e-02
1.680336e-02
1.680336e-02
-3.050723e-03
-3.050723e-03
-1.191577e-03
4.034276e-02
-1.191577e-03
4.034276e-02
-6.591151e-02
-6.591151e-02
-5.729046e-03
-5.729046e-03
-7.242827e-02
7.833480e-04
-7.242827e-02
7.833480e-04
5.715660e-02
5.715660e-02
8.656629e-03
8.656629e-03
5.961984e-03
-2.861099e-02
5.961984e-03
-2.861099e-02
4.027545e-03
4.027545e-03
2.932346e-02
2.932346e-02
-1.308881e-01
-6.187309e-02
-1.308881e-01
-6.187309e-02
1.118971e-01
1.118971e-01
3.325516e-02
3.325516e-02
-3.079140e-02
-3.268674e-02
-3.079140e-02
-3.268674e-02
7.468794e-03
7.468794e-03
4.688442e-02
4.688442e-02
3.187002e-02
1.305199e-01
3.187002e-02
1.305199e-01
-5.051355e-02
-5.051355e-02
2.219564e-02
2.219564e-02
1.893044e-02
-7.204459e-02
1.893044e-02
-7.204459e-02
-1.269884e-02
-1.269884e-02
-2.676736e-02
-2.676736e-02
-8.813894e-02
1.689910e-02
-8.813894e-02
1.689910e-02
1.237626e-01
1.237626e-01
3.079360e-02
3.079360e-02
8.952049e-03
-2.405015e-02
8.952049e-03
-2.405015e-02
-7.277276e-02
-7.277276e-02
-2.715950e-02
-2.715950e-02
2.057318e-02
1.264340e-02
2.057318e-02
1.264340e-02
6.957318e-02
6.957318e-02
4.834553e-02
4.834553e-02
3.909963e-02
1.149470e-02
3.909963e-02
1.149470e-02
-2.429207e-02
-2.429207e-02
-5.773605e-02
-5.773605e-02
4.913132e-02
-6.140682e-02
4.913132e-02
-6.140682e-02
3.553285e-02
3.553285e-02
9.628840e-02
9.628840e-02
-2.788598e-02
9.008135e-02
-2.788598e-02
9.008135e-02
3.065322e-02
3.065322e-02
2.585567e-02
2.585567e-02
8.927065e-03
3.696214e-03
8.927065e-03
3.696214e-03
1.905662e-02
1.905662e-02
-9.235187e-02
-9.235187e-02
-6.671565e-02
-3.565355e-02
-6.671565e-02
-3.565355e-02
-1.524673e-02
-1.524673e-02
2.233780e-02
2.233780e-02
1.099446e-01
-1.688559e-04
1.099446e-01
-1.688559e-04
-5.609957e-02
-5.609957e-02
3.153883e-02
3.153883e-02
-2.563315e-02
2.672443e-02
-2.563315e-02
2.672443e-02
2.443852e-02
2.443852e-02
-2.429482e-02
-2.429482e-02
-4.497245e-02
-2.311469e-04
-4.497245e-02
-2.311469e-04
-2.535098e-02
-2.535098e-02
-4.996308e-02
-4.996308e-02
-1.739922e-02
-5.914899e-03
-1.739922e-02
-5.914899e-03
1.013981e-02
1.013981e-02
-3.774300e-02
-3.774300e-02
-7.033667e-02
9.954686e-03
-7.033667e-02
9.954686e-03
-3.856960e-02
-3.856960e-02
-6.150116e-04
-6.150116e-04
4.973628e-02
-4.967393e-02
4.973628e-02
-4.967393e-02
3.289665e-02
3.289665e-02
2.647430e-02
2.647430e-02
-5.888756e-02
-1.881047e-02
-5.888756e-02
-1.881047e-02
3.501009e-02
3.501009e-02
-9.958333e-03
-9.958333e-03
-2.663376e-02
8.237605e-02
-2.663376e-02
8.237605e-02
4.381933e-02
4.381933e-02
4.984404e-02
4.984404e-02
5.429427e-02
-8.100632e-02
5.429427e-02
-8.100632e-02
-1.098598e-01
-1.098598e-01
-2.149914e-02
-2.149914e-02
4.692686e-02
3.422631e-02
4.692686e-02
3.422631e-02
1.640072e-02
1.640072e-02
1.762563e-02
1.762563e-02
-5.517048e-02
4.868472e-02
-5.517048e-02
4.868472e-02
6.374600e-03
6.374600e-03
-5.246578e-02
-5.246578e-02
-4.921873e-02
-8.352045e-02
-4.921873e-02
-8.352045e-02
-1.658721e-02
-1.658721e-02
1.611140e-02
1.611140e-02
-1.474085e-02
1.632178e-02
-1.474085e-02
1.632178e-02
4.515281e-02
4.515281e-02
4.182066e-02
4.182066e-02
2.124883e-02
1.766245e-02
2.124883e-02
1.766245e-02
-5.012867e-02
-5.012867e-02
2.432506e-02
2.432506e-02
6.551800e-02
-6.037422e-02
6.551800e-02
-6.037422e-02
3.989155e-02
3.989155e-02
-4.578323e-02
-4.578323e-02
-3.654970e-02
-3.133695e-03
-3.654970e-02
-3.133695e-03
-7.656955e-03
-7.656955e-03
-1.783433e-02
-1.783433e-02
-5.423333e-02
2.104161e-02
-5.423333e-02
2.104161e-02
-3.232227e-02
-3.232227e-02
-4.483915e-02
-4.483915e-02
-2.356676e-02
8.372765e-02
-2.356676e-02
8.372765e-02
5.263708e-02
5.263708e-02
2.145744e-02
2.145744e-02
3.386857e-02
-2.747043e-02
3.386857e-02
-2.747043e-02
-3.636960e-02
-3.636960e-02
3.330315e-03
3.330315e-03
-4.871900e-02
-1.349382e-03
-4.871900e-02
-1.349382e-03
-2.211221e-02
-2.211221e-02
-6.183322e-02
-6.183322e-02
7.033469e-02
9.163483e-02
7.033469e-02
9.163483e-02
-8.654066e-03
-8.654066e-03
-1.881286e-02
-1.881286e-02
6.147369e-02
-2.820036e-02
6.147369e-02
-2.820036e-02
-1.673630e-02
-1.673630e-02
6.200145e-02
6.200145e-02
-8.691878e-03
-9.017358e-03
-8.691878e-03
-9.017358e-03
9.174538e-02
9.174538e-02
4.831261e-02
4.831261e-02
-8.206838e-02
-5.572966e-02
-8.206838e-02
-5.572966e-02
5.877807e-03
5.877807e-03
-6.987382e-03
-6.987382e-03
-7.628672e-02
-1.103584e-01
-7.628672e-02
-1.103584e-01
-9.113141e-03
-9.113141e-03
-2.793744e-02
-2.793744e-02
-8.885387e-03
5.747997e-02
-8.885387e-03
5.747997e-02
4.640531e-02
4.640531e-02
1.060015e-02
1.060015e-02
3.913395e-02
-2.181825e-02
3.913395e-02
-2.181825e-02
-3.894410e-02
-3.894410e-02
3.240295e-02
3.240295e-02
-7.296492e-02
-6.589973e-02
-7.296492e-02
-6.589973e-02
7.077108e-02
7.077108e-02
5.184740e-02
5.184740e-02
2.864513e-02
1.144041e-01
2.864513e-02
1.144041e-01
-2.880651e-02
-2.880651e-02
-6.546614e-03
-6.546614e-03
2.335679e-02
1.244861e-02
2.335679e-02
1.244861e-02
-1.035348e-02
-1.035348e-02
-6.733024e-02
-6.733024e-02
1.538668e-01
2.991926e-02
1.538668e-01
2.991926e-02
2.467958e-02
2.827934e-02
2.467958e-02
2.827934e-02
-3.926204e-02
-3.926204e-02
1.343626e-02
1.862925e-02
1.343626e-02
1.862925e-02
1.503612e-01
1.503612e-01
-6.737470e-02
-6.737470e-02
2.919349e-02
2.919349e-02
1.003032e-01
2.847846e-02
1.003032e-01
2.847846e-02
1.934018e-01
1.934018e-01
1.687028e-01
1.687028e-01
-2.224569e-01
-1.057208e-01
-2.224569e-01
-1.057208e-01
-1.960046e-01
-1.960046e-01
-2.886182e-01
-2.886182e-01
6.654727e-02
-2.000548e-02
6.654727e-02
-2.000548e-02
5.567542e-02
5.567542e-02
1.612618e-01
1.612618e-01
1.198905e-01
6.921278e-02
1.198905e-01
6.921278e-02
9.609778e-02
9.609778e-02
1.312285e-01
1.312285e-01
1.074283e-01
1.379281e-01
1.074283e-01
1.379281e-01
4.332100e-03
4.332100e-03
-3.400454e-01
-3.400454e-01
-3.703954e-01
-8.451817e-02
-3.703954e-01
-8.451817e-02
-4.445332e-01
-4.445332e-01
-3.702059e-01
-3.702059e-01
-3.968052e-01
-4.259234e-01
-3.968052e-01
-4.259234e-01
-3.084844e-02
2.172112e-01
-3.084844e-02
2.172112e-01
1.419379e-02
1.419379e-02
-9.873300e-02
1.848177e-02
-9.873300e-02
1.848177e-02
9.441024e-02
9.441024e-02
2.358421e-02
2.358421e-02
1.331056e-02
1.331056e-02
9.745227e-02
-5.908935e-02
9.745227e-02
-5.908935e-02
-1.544289e-01
-1.544289e-01
-2.773167e-01
-2.773167e-01
1.622112e-02
5.928105e-02
1.622112e-02
5.928105e-02
-3.650144e-02
-3.650144e-02
1.431646e-01
1.431646e-01
5.569952e-02
-3.404905e-02
5.569952e-02
-3.404905e-02
1.427366e-01
1.427366e-01
6.649286e-02
6.649286e-02
-2.323546e-02
1.595499e-01
-2.323546e-02
1.595499e-01
2.939973e-02
2.939973e-02
1.169485e-01
1.169485e-01
4.167622e-02
-1.758496e-02
4.167622e-02
-1.758496e-02
1.366379e-01
1.366379e-01
-3.067210e-02
-3.067210e-02
1.517610e-01
1.398145e-01
1.517610e-01
1.398145e-01
-2.203500e-01
-2.203500e-01
-2.799079e-01
-2.799079e-01
6.273162e-03
5.595592e-03
6.273162e-03
5.595592e-03
2.117194e-01
5.806016e-01
2.117194e-01
5.806016e-01
-1.119598e-01
-1.119598e-01
5.478770e-03
3.204930e-01
5.478770e-03
3.204930e-01
8.399974e-01
8.399974e-01
1.644788e-01
1.644788e-01
1.393273e-01
1.393273e-01
4.009142e-02
2.108887e-01
4.009142e-02
2.108887e-01
1.619278e-02
1.619278e-02
1.699030e-01
1.699030e-01
2.113028e-01
-1.106738e-01
2.113028e-01
-1.106738e-01
-2.443327e-03
-2.443327e-03
-6.403806e-02
-6.403806e-02
7.175194e-03
2.406640e-01
7.175194e-03
2.406640e-01
-1.118039e-01
-1.118039e-01
-8.447171e-02
-8.447171e-02
-2.207884e-01
-2.709085e-01
-2.207884e-01
-2.709085e-01
1.169308e-01
1.169308e-01
-2.563077e-03
-2.563077e-03
-4.565983e-02
1.392947e-02
-4.565983e-02
1.392947e-02
-8.162122e-02
-8.162122e-02
1.494567e-01
1.494567e-01
2.334246e-01
-1.805196e-01
2.334246e-01
-1.805196e-01
2.062581e-01
2.062581e-01
1.096720e-01
1.096720e-01
2.781209e-01
4.580931e-01
2.781209e-01
4.580931e-01
3.479225e-01
7.549984e-01
3.479225e-01
7.549984e-01
2.181899e-02
2.181899e-02
-6.737877e-02
2.039493e-01
-6.737877e-02
2.039493e-01
6.545018e-01
6.545018e-01
-1.155251e-01
-1.155251e-01
-1.033753e-01
-1.033753e-01
-3.152950e-01
-2.885948e-01
-3.152950e-01
-2.885948e-01
-1.297483e-01
-1.297483e-01
1.124005e-02
1.124005e-02
-2.351856e-01
-2.645963e-01
-2.351856e-01
-2.645963e-01
2.517548e-01
2.517548e-01
1.501874e-01
1.501874e-01
1.534867e-01
4.461149e-02
1.534867e-01
4.461149e-02
-2.323011e-01
-2.323011e-01
-2.776061e-01
-2.776061e-01
-7.573184e-02
-7.899494e-02
-7.573184e-02
-7.899494e-02
6.127028e-02
6.127028e-02
-7.772332e-04
-7.772332e-04
6.974317e-02
1.720294e-01
6.974317e-02
1.720294e-01
-1.731465e-01
-1.731465e-01
2.228102e-01
2.228102e-01
9.477954e-02
-6.305852e-02
9.477954e-02
-6.305852e-02
4.670573e-01
4.670573e-01
4.406539e-01
4.406539e-01
1.611003e-01
1.448719e-01
1.611003e-01
1.448719e-01
2.373918e-01
5.594814e-01
2.373918e-01
5.594814e-01
-1.445011e-01
-1.445011e-01
-6.817521e-02
3.738042e-01
-6.817521e-02
3.738042e-01
6.754649e-01
6.754649e-01
-2.940941e-01
-2.940941e-01
-9.397074e-02
-9.397074e-02
2.739368e-01
-8.617975e-02
2.739368e-01
-8.617975e-02
-5.427920e-02
-5.427920e-02
-1.221517e-01
-1.221517e-01
1.114981e-01
2.221095e-01
1.114981e-01
2.221095e-01
3.865815e-02
3.865815e-02
-5.942009e-02
-5.942009e-02
-1.034862e-01
1.994769e-01
-1.034862e-01
1.994769e-01
-1.157373e-01
-1.157373e-01
-5.075542e-02
-5.075542e-02
1.403769e-02
-1.745320e-01
1.403769e-02
-1.745320e-01
8.026803e-02
8.026803e-02
4.889503e-02
4.889503e-02
1.008725e-01
1.212060e-01
1.008725e-01
1.212060e-01
-9.195728e-02
-9.195728e-02
1.488387e-01
1.488387e-01
2.199527e-01
9.602752e-02
2.199527e-01
9.602752e-02
4.324552e-02
4.324552e-02
-2.311157e-01
-2.311157e-01
-1.899282e-01
1.721293e-02
-1.899282e-01
1.721293e-02
2.034013e-01
4.364638e-01
2.034013e-01
4.364638e-01
7.449972e-02
7.449972e-02
2.485026e-01
-1.423480e-02
2.485026e-01
-1.423480e-02
1.075659e-02
1.075659e-02
-2.297572e-02
-2.297572e-02
2.624373e-01
2.624373e-01
-3.854770e-02
-1.628239e-01
-3.854770e-02
-1.628239e-01
2.810358e-01
2.810358e-01
8.401154e-02
8.401154e-02
2.774081e-02
3.699406e-01
2.774081e-02
3.699406e-01
1.484012e-01
1.484012e-01
3.008008e-02
3.008008e-02
5.003900e-02
-1.189525e-01
5.003900e-02
-1.189525e-01
-8.524799e-02
-8.524799e-02
4.016075e-02
4.016075e-02
2.206750e-02
4.486414e-02
2.206750e-02
4.486414e-02
-3.077725e-02
-3.077725e-02
-4.366210e-02
-4.366210e-02
-2.036689e-01
-2.436415e-01
-2.036689e-01
-2.436415e-01
1.003883e-01
1.003883e-01
1.878829e-02
1.878829e-02
-1.936158e-02
1.052494e-01
-1.936158e-02
1.052494e-01
2.507134e-03
2.507134e-03
1.086625e-01
1.086625e-01
2.031261e-01
1.379277e-02
2.031261e-01
1.379277e-02
3.376200e-02
5.119212e-02
-3.351108e-02
-2.128583e-01
3.376200e-02
5.119212e-02
-3.351108e-02
-2.128583e-01
-6.381774e-03
1.884186e-02
-6.381774e-03
1.884186e-02
1.094968e-02
-4.410998e-02
1.094968e-02
-4.410998e-02
-8.936298e-03
-8.936298e-03
-2.694405e-02
4.326193e-02
-2.694405e-02
4.326193e-02
2.384353e-02
2.384353e-02
-1.973439e-02
5.091450e-03
-1.973439e-02
5.091450e-03
4.075071e-02
4.075071e-02
4.086707e-02
5.306481e-02
4.086707e-02
5.306481e-02
-9.500206e-02
-9.500206e-02
7.825363e-02
1.820024e-02
7.825363e-02
1.820024e-02
-1.889492e-01
-1.889492e-01
-9.949466e-02
-1.882466e-01
-9.949466e-02
-1.882466e-01
9.384775e-02
9.384775e-02
-2.642736e-02
2.337043e-02
-2.642736e-02
2.337043e-02
3.636818e-02
3.636818e-02
1.539814e-02
1.938399e-01
1.539814e-02
1.938399e-01
-1.044241e-01
-1.044241e-01
-8.392062e-02
-2.114888e-01
-8.392062e-02
-2.114888e-01
-6.242981e-02
-6.242981e-02
-3.217585e-02
-1.346541e-01
-3.217585e-02
-1.346541e-01
3.699680e-02
3.699680e-02
-1.066899e-01
1.611558e-02
-1.066899e-01
1.611558e-02
1.529323e-01
1.529323e-01
9.657528e-02
-5.808368e-02
9.657528e-02
-5.808368e-02
7.604494e-02
7.604494e-02
1.270360e-01
-9.785795e-02
1.270360e-01
-9.785795e-02
-3.849468e-01
-3.849468e-01
-1.316617e-02
3.501937e-03
-1.316617e-02
3.501937e-03
8.204463e-02
1.375147e-02
8.204463e-02
1.375147e-02
-1.806179e-02
4.753459e-02
-1.806179e-02
4.753459e-02
7.160988e-02
1.495326e-02
7.160988e-02
1.495326e-02
-4.887376e-02
-4.887376e-02
3.838935e-02
3.838935e-02
-8.971449e-03
-8.971449e-03
-2.161011e-02
2.112274e-02
-2.161011e-02
2.112274e-02
-5.419219e-02
-5.419219e-02
-8.453566e-02
-8.453566e-02
-1.327491e-02
-1.327491e-02
2.905857e-02
2.905857e-02
1.702991e-02
4.056977e-02
1.702991e-02
4.056977e-02
-1.449033e-02
-1.449033e-02
-3.109158e-02
-3.109158e-02
1.304139e-01
1.304139e-01
-1.240745e-02
-1.240745e-02
-8.076526e-02
-2.821790e-02
-8.076526e-02
-2.821790e-02
-1.149235e-01
-1.149235e-01
-5.097998e-03
-5.097998e-03
-1.434702e-01
-1.434702e-01
-8.540392e-02
-8.540392e-02
7.868439e-02
1.570791e-01
7.868439e-02
1.570791e-01
9.435434e-03
9.435434e-03
-5.401781e-02
-5.401781e-02
-7.496073e-02
-7.496073e-02
-8.627607e-02
-8.627607e-02
2.630396e-02
-1.235302e-01
2.630396e-02
-1.235302e-01
-3.377418e-02
-3.377418e-02
4.384262e-02
4.384262e-02
-6.285522e-03
-6.285522e-03
1.063124e-01
1.063124e-01
1.417316e-01
-3.129345e-02
1.417316e-01
-3.129345e-02
6.997636e-02
6.997636e-02
-3.673897e-02
-3.673897e-02
3.164935e-02
3.164935e-02
6.029517e-03
6.029517e-03
-2.630205e-02
2.031382e-01
-2.630205e-02
2.031382e-01
-9.615230e-02
-9.615230e-02
-2.700783e-01
-2.700783e-01
-8.256901e-02
-8.256901e-02
-2.109110e-02
-2.109110e-02
2.366739e-02
-3.246813e-02
2.366739e-02
-3.246813e-02
-6.849840e-02
-6.849840e-02
1.589469e-02
1.589469e-02
9.923305e-02
-2.482333e-02
9.923305e-02
-2.482333e-02
5.993032e-02
5.993032e-02
7.843944e-02
7.843944e-02
-9.444104e-02
7.606819e-03
-9.444104e-02
7.606819e-03
4.085891e-02
4.085891e-02
4.796304e-02
4.796304e-02
2.480224e-02
2.302016e-03
2.480224e-02
2.302016e-03
2.607596e-02
2.607596e-02
1.713183e-02
1.713183e-02
-1.209585e-01
2.511160e-02
-1.209585e-01
2.511160e-02
1.640767e-03
1.640767e-03
-9.281620e-02
-9.281620e-02
-1.864478e-02
-7.722148e-02
-1.864478e-02
-7.722148e-02
2.431748e-02
2.431748e-02
-3.296463e-03
-3.296463e-03
-5.134371e-02
-1.948957e-02
-5.134371e-02
-1.948957e-02
2.283469e-02
2.283469e-02
-1.016051e-03
-1.016051e-03
5.998867e-02
-1.789159e-02
5.998867e-02
-1.789159e-02
-2.641256e-02
-2.641256e-02
-4.296979e-02
-4.296979e-02
-6.531028e-02
7.804843e-02
-6.531028e-02
7.804843e-02
-5.885577e-02
-5.885577e-02
-7.128833e-02
-7.128833e-02
-3.753758e-02
1.172766e-02
-3.753758e-02
1.172766e-02
3.734188e-02
3.734188e-02
3.858299e-02
3.858299e-02
5.110022e-02
5.088402e-02
5.110022e-02
5.088402e-02
3.397254e-02
3.397254e-02
1.975887e-02
1.975887e-02
1.290133e-01
3.504221e-02
1.290133e-01
3.504221e-02
6.548208e-02
6.548208e-02
6.621503e-02
6.621503e-02
8.676456e-03
-1.378262e-02
8.676456e-03
-1.378262e-02
-6.612570e-02
-6.612570e-02
-8.526060e-02
-8.526060e-02
-1.023200e-01
-4.986519e-03
-1.023200e-01
-4.986519e-03
4.969933e-02
4.969933e-02
-3.431801e-02
-3.431801e-02
-1.515042e-01
-3.643765e-02
-1.515042e-01
-3.643765e-02
-1.064601e-02
-1.064601e-02
-5.843393e-02
-5.843393e-02
-5.113966e-02
2.429802e-02
-5.113966e-02
2.429802e-02
8.109964e-02
8.109964e-02
-7.087647e-02
-7.087647e-02
-1.156050e-01
8.626395e-03
-1.156050e-01
8.626395e-03
-1.378186e-01
-1.378186e-01
-1.074163e-02
-1.074163e-02
-4.139488e-02
-2.109515e-01
-4.139488e-02
-2.109515e-01
1.100116e-02
2.297419e-01
1.100116e-02
2.297419e-01
1.607486e-01
1.904052e-01
1.607486e-01
1.904052e-01
1.182490e-01
9.829358e-02
1.182490e-01
9.829358e-02
3.266405e-01
3.579773e-03
3.266405e-01
3.579773e-03
1.559554e-01
-1.800471e-01
1.559554e-01
-1.800471e-01
2.205426e-02
3.073530e-02
2.205426e-02
3.073530e-02
1.779874e-01
-7.457672e-02
1.779874e-01
-7.457672e-02
7.156784e-02
-2.776472e-02
7.156784e-02
-2.776472e-02
6.737841e-02
9.102267e-02
6.737841e-02
9.102267e-02
7.339396e-02
-7.457175e-02
7.339396e-02
-7.457175e-02
2.163556e-01
-7.950849e-02
2.163556e-01
-7.950849e-02
-1.495614e-01
-1.847693e-01
-1.495614e-01
-1.847693e-01
6.879344e-02
-7.632896e-02
6.879344e-02
-7.632896e-02
1.928683e-01
4.043591e-02
1.928683e-01
4.043591e-02
-1.896147e-01
-3.630136e-02
-1.896147e-01
-3.630136e-02
6.497522e-02
-5.380550e-02
6.497522e-02
-5.380550e-02
-2.606348e-02
-2.606348e-02
-8.283516e-02
-8.283516e-02
1.243493e-01
1.243493e-01
1.993053e-01
1.090494e-01
1.993053e-01
1.090494e-01
-2.618240e-03
-2.618240e-03
8.455978e-02
8.455978e-02
-1.820905e-01
-8.674082e-02
-1.820905e-01
-8.674082e-02
2.636483e-01
2.636483e-01
1.333969e-01
1.333969e-01
9.111012e-02
7.904547e-02
9.111012e-02
7.904547e-02
-1.551667e-01
-1.551667e-01
3.182601e-02
3.182601e-02
4.671425e-02
6.409271e-02
4.671425e-02
6.409271e-02
1.805591e-02
1.805591e-02
-9.887156e-02
-9.887156e-02
-6.494931e-02
-1.098843e-02
-6.494931e-02
-1.098843e-02
-1.035514e-01
-1.035514e-01
-1.527111e-01
-1.527111e-01
4.506458e-02
4.506458e-02
-9.635662e-02
-9.635662e-02
-1.640614e-01
-1.145262e-01
-1.640614e-01
-1.145262e-01
-1.910176e-01
-1.910176e-01
-1.567140e-01
-1.567140e-01
2.286686e-01
5.663536e-02
2.286686e-01
5.663536e-02
-1.846563e-01
-1.846563e-01
-8.175399e-02
-8.175399e-02
-1.531982e-01
-1.194438e-02
-1.531982e-01
-1.194438e-02
1.125016e-01
1.125016e-01
-1.276217e-01
-1.276217e-01
-4.371602e-04
-8.242799e-02
-4.371602e-04
-8.242799e-02
-8.961190e-02
-8.961190e-02
-1.083025e-01
-1.083025e-01
-1.570264e-01
-4.868150e-02
-1.570264e-01
-4.868150e-02
4.426281e-02
4.426281e-02
-4.946370e-02
-4.946370e-02
-1.180721e-01
-1.180721e-01
2.728208e-02
2.728208e-02
2.535200e-02
2.510526e-02
2.535200e-02
2.510526e-02
1.958142e-01
1.958142e-01
2.803454e-01
2.803454e-01
4.933388e-03
-6.036742e-02
4.933388e-03
-6.036742e-02
2.208576e-01
2.208576e-01
-2.008413e-02
-2.008413e-02
1.851799e-01
6.336523e-02
1.851799e-01
6.336523e-02
-1.887639e-01
-1.887639e-01
8.703202e-02
8.703202e-02
3.590044e-02
1.067151e-01
3.590044e-02
1.067151e-01
1.824708e-01
1.824708e-01
-8.536735e-02
-8.536735e-02
4.755644e-02
1.564030e-01
4.755644e-02
1.564030e-01
-1.878681e-01
-1.878681e-01
2.836412e-02
2.836412e-02
4.622383e-03
4.622383e-03
8.976792e-02
8.976792e-02
-1.531375e-02
-1.255652e-01
-1.531375e-02
-1.255652e-01
-6.689351e-02
-6.689351e-02
-2.023379e-01
-2.023379e-01
-5.184741e-02
-4.008940e-02
-5.184741e-02
-4.008940e-02
4.466021e-02
4.466021e-02
1.746483e-01
1.746483e-01
-1.182719e-01
1.078707e-02
-1.182719e-01
1.078707e-02
1.377766e-02
1.377766e-02
9.989209e-02
9.989209e-02
-3.582912e-02
-1.752189e-01
-3.582912e-02
-1.752189e-01
2.006803e-02
2.006803e-02
6.427582e-03
6.427582e-03
-2.681529e-02
-1.194012e-01
-2.681529e-02
-1.194012e-01
1.968089e-01
1.968089e-01
1.547092e-01
1.547092e-01
-8.557841e-02
-8.557841e-02
-6.857671e-02
-6.857671e-02
-9.528084e-02
5.004886e-03
-9.528084e-02
5.004886e-03
-4.231020e-02
-4.231020e-02
4.636427e-02
4.636427e-02
-1.709650e-01
-1.650625e-01
-1.709650e-01
-1.650625e-01
1.230266e-02
1.230266e-02
-1.708395e-02
-1.708395e-02
1.754009e-01
7.330033e-02
1.754009e-01
7.330033e-02
3.986220e-02
3.986220e-02
-4.627566e-02
-4.627566e-02
1.742822e-01
9.960889e-02
1.742822e-01
9.960889e-02
-4.468285e-02
-4.468285e-02
4.377521e-02
4.377521e-02
1.432667e-01
2.319441e-01
1.432667e-01
2.319441e-01
-1.302026e-01
-1.302026e-01
-7.085466e-02
-7.085466e-02
-2.468601e-01
-2.468601e-01
-2.086005e-01
-2.086005e-01
1.006895e-01
-2.063623e-01
1.006895e-01
-2.063623e-01
-1.000554e-01
-1.000554e-01
-1.089932e-01
-1.089932e-01
9.595362e-02
2.156673e-01
9.595362e-02
2.156673e-01
-2.112480e-02
-2.112480e-02
-6.266175e-02
-6.266175e-02
-1.050992e-01
3.193663e-03
-1.050992e-01
3.193663e-03
-8.216950e-02
-8.216950e-02
8.034614e-02
8.034614e-02
9.275234e-03
-1.103369e-01
9.275234e-03
-1.103369e-01
5.324395e-02
5.324395e-02
9.630848e-02
9.630848e-02
-1.026725e-01
-7.853425e-02
-1.026725e-01
-7.853425e-02
3.132251e-01
3.132251e-01
7.111091e-02
7.111091e-02
2.430992e-01
2.430992e-01
4.204968e-01
4.204968e-01
4.629819e-01
3.858907e-01
4.629819e-01
3.858907e-01
9.985004e-02
9.985004e-02
-4.473660e-02
-4.473660e-02
-1.925218e-01
-1.433901e-01
-1.925218e-01
-1.433901e-01
1.134105e-02
1.134105e-02
-3.778527e-02
-3.778527e-02
-8.431679e-02
2.921762e-02
-8.431679e-02
2.921762e-02
-9.651897e-02
-9.651897e-02
1.122296e-01
1.122296e-01
1.247514e-01
-1.877935e-01
1.247514e-01
-1.877935e-01
1.610611e-01
1.610611e-01
-1.236092e-01
-1.236092e-01
-1.594317e-02
2.884383e-01
-1.594317e-02
2.884383e-01
-1.480961e-01
-1.480961e-01
-9.922636e-04
-9.922636e-04
-1.035749e-01
-1.035749e-01
2.422724e-01
2.422724e-01
2.294765e-01
-8.811676e-02
2.294765e-01
-8.811676e-02
4.218287e-01
4.218287e-01
3.808995e-01
3.808995e-01
6.447372e-01
4.484067e-01
6.447372e-01
4.484067e-01
6.382017e-01
6.382017e-01
9.488881e-01
9.488881e-01
4.963292e-01
5.598837e-01
4.963292e-01
5.598837e-01
9.588895e-01
9.588895e-01
8.258255e-01
8.258255e-01
4.143000e-01
3.844741e-01
4.143000e-01
3.844741e-01
7.911699e-01
7.911699e-01
7.092787e-01
7.092787e-01
5.745604e-01
6.616032e-01
5.745604e-01
6.616032e-01
6.946349e-01
6.946349e-01
3.995460e-01
3.995460e-01
-6.010231e-02
3.748045e-01
-6.010231e-02
3.748045e-01
9.567238e-02
9.567238e-02
3.373132e-01
3.373132e-01
5.784842e-01
5.542451e-01
5.784842e-01
5.542451e-01
5.431901e-01
5.431901e-01
5.330299e-01
5.330299e-01
4.819675e-01
7.414587e-01
4.819675e-01
7.414587e-01
6.760037e-02
6.760037e-02
-1.145881e-01
-1.145881e-01
-4.855431e-02
-7.353565e-03
-4.855431e-02
-7.353565e-03
-2.287940e-02
-2.287940e-02
-8.085572e-02
-8.085572e-02
-2.674627e-02
1.454155e-01
-2.674627e-02
1.454155e-01
-3.834464e-02
-3.834464e-02
8.603436e-02
8.603436e-02
-1.300226e-01
-1.898115e-01
-1.300226e-01
-1.898115e-01
-1.287024e-01
-1.287024e-01
-2.865716e-01
-2.865716e-01
-1.450518e-01
-1.523232e-01
-1.450518e-01
-1.523232e-01
8.625238e-01
8.625238e-01
7.807038e-01
7.807038e-01
7.674931e-01
6.444865e-01
7.674931e-01
6.444865e-01
7.033879e-01
7.033879e-01
4.680518e-01
4.680518e-01
5.896450e-01
6.388401e-01
5.896450e-01
6.388401e-01
6.297837e-01
6.297837e-01
7.238467e-01
7.238467e-01
1.078163e+00
9.856901e-01
1.078163e+00
9.856901e-01
4.927224e-01
4.927224e-01
5.161955e-01
5.161955e-01
4.508762e-01
6.330656e-01
4.508762e-01
6.330656e-01
1.098799e-01
1.098799e-01
-1.819076e-01
-1.819076e-01
-3.359764e-01
1.978560e-01
-3.359764e-01
1.978560e-01
-1.100450e-01
-1.100450e-01
-2.782567e-01
-2.782567e-01
-1.227279e-01
-3.415343e-01
-1.227279e-01
-3.415343e-01
5.336627e-01
5.336627e-01
5.704783e-01
5.704783e-01
7.166960e-02
6.087801e-02
7.166960e-02
6.087801e-02
6.259501e-01
6.259501e-01
5.428421e-01
5.428421e-01
9.555136e-02
1.816561e-01
9.555136e-02
1.816561e-01
6.428954e-01
6.428954e-01
4.877844e-01
4.877844e-01
-5.968853e-01
-3.561027e-01
-5.968853e-01
-3.561027e-01
1.322211e-01
1.322211e-01
2.635508e-01
2.635508e-01
-1.491757e-01
-4.838392e-01
-1.491757e-01
-4.838392e-01
2.754963e-01
2.754963e-01
-1.486439e-01
-1.486439e-01
-3.411005e-01
-2.365379e-01
-3.411005e-01
-2.365379e-01
-2.597601e-01
-2.597601e-01
5.433550e-02
5.433550e-02
-3.157517e-01
-4.481481e-01
-3.157517e-01
-4.481481e-01
-6.915886e-01
-6.915886e-01
-5.752630e-01
-5.752630e-01
-5.387624e-01
-4.388557e-01
-5.387624e-01
-4.388557e-01
-2.596242e-01
-2.596242e-01
-1.149432e-01
-1.149432e-01
-1.226733e-01
-2.843311e-01
-1.226733e-01
-2.843311e-01
-5.794004e-01
-5.794004e-01
-1.003239e+00
-1.003239e+00
-3.936518e-01
-2.236210e-01
-3.936518e-01
-2.236210e-01
-8.984231e-01
-8.984231e-01
-9.754009e-01
-9.754009e-01
-8.393081e-01
-7.150642e-01
-8.393081e-01
-7.150642e-01
-9.810724e-01
-9.810724e-01
-7.362491e-01
-7.362491e-01
-5.396956e-01
-7.083694e-01
-5.396956e-01
-7.083694e-01
-6.706566e-01
-6.706566e-01
-4.946230e-01
-4.946230e-01
-1.877472e-01
-2.815228e-01
-1.877472e-01
-2.815228e-01
-3.467464e-02
-3.467464e-02
2.711715e-01
2.711715e-01
6.465893e-01
1.030538e-01
6.465893e-01
1.030538e-01
2.031940e-01
2.031940e-01
1.809841e-01
1.809841e-01
6.175050e-01
6.384018e-01
6.175050e-01
6.384018e-01
1.697851e-01
1.697851e-01
2.565189e-01
2.565189e-01
8.999544e-01
8.719146e-01
8.999544e-01
8.719146e-01
1.509770e-01
1.509770e-01
-4.557351e-02
-4.557351e-02
6.595361e-01
8.150379e-01
6.595361e-01
8.150379e-01
1.585644e-02
1.585644e-02
-3.912152e-02
-3.912152e-02
-1.187702e-01
2.997917e-01
-1.187702e-01
2.997917e-01
-4.919267e-02
-4.919267e-02
-2.870742e-02
-2.870742e-02
-1.155709e-01
-3.793043e-01
-1.155709e-01
-3.793043e-01
3.355645e-01
3.355645e-01
4.695160e-01
4.695160e-01
-8.167565e-02
-6.039664e-02
-8.167565e-02
-6.039664e-02
4.546550e-01
4.546550e-01
7.525981e-01
7.525981e-01
4.122065e-01
3.717217e-02
4.122065e-01
3.717217e-02
1.080137e+00
1.080137e+00
1.114515e+00
1.114515e+00
4.460736e-01
5.772032e-01
4.460736e-01
5.772032e-01
1.018243e+00
1.018243e+00
8.068397e-01
8.068397e-01
4.682378e-01
5.195260e-01
4.682378e-01
5.195260e-01
2.074720e-01
2.074720e-01
-5.494369e-01
-5.494369e-01
-5.680946e-01
-1.001694e-01
-5.680946e-01
-1.001694e-01
-6.993477e-01
-6.993477e-01
-3.821724e-01
-3.821724e-01
-2.367990e-01
-5.533679e-01
-2.367990e-01
-5.533679e-01
-6.143154e-01
-6.143154e-01
-4.609105e-01
-4.609105e-01
-6.899676e-01
-5.784296e-01
-6.899676e-01
-5.784296e-01
-3.524319e-01
-3.524319e-01
-3.050633e-01
-3.050633e-01
-1.103806e+00
-8.865242e-01
-1.103806e+00
-8.865242e-01
-2.724305e-01
-2.724305e-01
-2.215191e-01
-2.215191e-01
-4.745558e-01
-9.864214e-01
-4.745558e-01
-9.864214e-01
-2.221195e-01
-2.221195e-01
-2.695326e-01
-2.695326e-01
-2.550888e-01
-3.010722e-01
-2.550888e-01
-3.010722e-01
-3.258356e-01
-3.258356e-01
-4.420989e-01
-4.420989e-01
-4.980512e-01
-3.095970e-01
-4.980512e-01
-3.095970e-01
-4.294560e-01
-4.294560e-01
7.768186e-02
7.768186e-02
-1.055916e-01
-3.584466e-01
-1.055916e-01
-3.584466e-01
-5.443818e-01
-5.443818e-01
-8.800307e-01
-8.800307e-01
-9.200583e-01
-9.689722e-01
-9.200583e-01
-9.689722e-01
-9.704769e-01
-9.704769e-01
-1.345342e+00
-1.345342e+00
-8.922288e-01
-8.129393e-01
-8.922288e-01
-8.129393e-01
-1.133137e+00
-1.133137e+00
-3.731097e-01
-3.731097e-01
-2.676780e-01
-8.692031e-01
-2.676780e-01
-8.692031e-01
2.862972e-02
2.862972e-02
2.527281e-01
2.527281e-01
7.290966e-02
3.438187e-01
7.290966e-02
3.438187e-01
-4.596013e-01
-4.596013e-01
-8.505443e-01
-8.505443e-01
-1.016559e+00
-6.428788e-01
-1.016559e+00
-6.428788e-01
-3.618739e-01
-3.618739e-01
-5.048856e-02
-5.048856e-02
3.000948e-01
-3.396820e-01
3.000948e-01
-3.396820e-01
-9.958820e-01
-9.958820e-01
-8.872619e-01
-8.872619e-01
-4.107018e-01
-2.387350e-01
-4.107018e-01
-2.387350e-01
-9.222839e-01
-9.222839e-01
-8.742687e-01
-8.742687e-01
-1.120945e+00
-9.162797e-01
-1.120945e+00
-9.162797e-01
-1.215244e+00
-1.215244e+00
-1.014428e+00
-1.014428e+00
-1.582042e+00
-1.654849e+00
-1.582042e+00
-1.654849e+00
3.938272e-01
3.938272e-01
1.149404e+00
1.149404e+00
3.251993e+00
6.706480e-01
3.251993e+00
6.706480e-01
1.746578e-01
1.746578e-01
-9.891922e-01
-9.891922e-01
-1.178096e+00
2.366595e+00
-1.178096e+00
2.366595e+00
-4.626406e-01
-4.626406e-01
-1.543454e-01
-1.543454e-01
-2.644227e+00
-2.702943e+00
-2.644227e+00
-2.702943e+00
3.997881e-01
3.997881e-01
2.836233e-01
2.836233e-01
4.978985e-01
-7.087288e-02
4.978985e-01
-7.087288e-02
-4.851890e-01
-4.851890e-01
-8.664297e-01
-8.664297e-01
-2.856038e-01
2.931418e-01
-2.856038e-01
2.931418e-01
-9.670358e-01
-9.670358e-01
-1.039390e+00
-1.039390e+00
8.030852e-01
-3.321711e-02
8.030852e-01
-3.321711e-02
1.119791e+00
1.119791e+00
4.868417e+00
4.868417e+00
6.218295e+00
2.268590e+00
6.218295e+00
2.268590e+00
5.726624e+00
5.726624e+00
-3.042501e-01
-3.042501e-01
3.223411e+00
9.469021e+00
3.223411e+00
9.469021e+00
-8.098939e+00
-8.098939e+00
-8.901834e+00
-8.901834e+00
-1.326730e+01
-1.088180e+01
-1.326730e+01
-1.088180e+01
-1.206572e+00
-1.206572e+00
-2.883433e-01
-2.883433e-01
-1.278679e+00
-2.219207e+00
-1.278679e+00
-2.219207e+00
3.222527e-01
3.222527e-01
8.435873e-02
8.435873e-02
4.756498e-01
-5.197457e-01
4.756498e-01
-5.197457e-01
4.682243e-01
4.682243e-01
3.425714e+00
3.425714e+00
5.098731e+00
1.758974e+00
5.098731e+00
1.758974e+00
6.047353e+00
6.047353e+00
6.681972e+00
6.681972e+00
5.576701e+00
8.739559e+00
5.576701e+00
8.739559e+00
8.393188e+00
8.393188e+00
8.759615e+00
8.759615e+00
1.205499e+01
3.335812e+00
1.205499e+01
3.335812e+00
5.556804e-02
5.556804e-02
-2.065187e+00
-2.065187e+00
1.786827e+01
1.721946e+01
1.786827e+01
1.721946e+01
-2.117849e+00
-2.117849e+00
-1.223343e+00
-1.223343e+00
-1.810195e-01
-1.250404e+00
-1.810195e-01
-1.250404e+00
-4.293151e-01
-4.293151e-01
1.433235e+00
1.433235e+00
3.216784e+00
1.290556e+00
3.216784e+00
1.290556e+00
4.138634e+00
4.138634e+00
5.863920e+00
5.863920e+00
4.010613e+00
5.170566e+00
4.010613e+00
5.170566e+00
6.031106e+00
6.031106e+00
5.705817e+00
5.705817e+00
4.790279e+00
8.208685e-02
4.790279e+00
8.208685e-02
7.625583e+00
7.625583e+00
1.592621e+01
1.592621e+01
2.852126e+01
1.913674e+01
2.852126e+01
1.913674e+01
2.460119e+01
2.460119e+01
2.604293e+01
2.604293e+01
3.194386e+01
3.399571e+01
3.194386e+01
3.399571e+01
-9.054576e-01
-9.054576e-01
8.370606e-01
8.370606e-01
1.926384e+00
-6.124003e-01
1.926384e+00
-6.124003e-01
3.984913e+00
3.984913e+00
5.249076e+00
5.249076e+00
5.169923e+00
5.961035e+00
5.169923e+00
5.961035e+00
1.966679e+00
1.966679e+00
-3.776151e+00
-3.776151e+00
-1.334073e+01
-4.201583e+00
-1.334073e+01
-4.201583e+00
-4.267372e+00
-4.267372e+00
7.555085e+00
7.555085e+00
1.879125e+01
-6.285303e+00
1.879125e+01
-6.285303e+00
2.633965e+01
2.633965e+01
3.915856e+01
3.915856e+01
5.948626e+01
4.461831e+01
5.948626e+01
4.461831e+01
5.058555e+01
5.058555e+01
4.495342e+01
4.495342e+01
6.476010e+01
7.989965e+01
6.476010e+01
7.989965e+01
-5.747541e-01
-5.747541e-01
2.822955e+00
2.822955e+00
3.524063e+00
-8.764395e-01
3.524063e+00
-8.764395e-01
6.307467e+00
6.307467e+00
1.893086e+00
1.893086e+00
-2.748796e+00
5.077515e+00
-2.748796e+00
5.077515e+00
-1.046663e+01
-1.046663e+01
-1.774279e+01
-1.774279e+01
-2.062315e+01
-1.671265e+01
-2.062315e+01
-1.671265e+01
-3.036054e+00
-3.036054e+00
3.689667e+01
3.689667e+01
5.770984e+01
5.507286e+00
5.770984e+01
5.507286e+00
7.239147e+01
7.239147e+01
7.970782e+01
7.970782e+01
7.357835e+01
8.319126e+01
7.357835e+01
8.319126e+01
9.405445e+01
9.405445e+01
7.327835e+01
7.327835e+01
6.269575e+01
8.146481e+01
6.269575e+01
8.146481e+01
-2.117988e+00
-2.117988e+00
4.342780e+00
4.342780e+00
3.841721e+00
-5.329674e+00
3.841721e+00
-5.329674e+00
5.176006e+00
5.176006e+00
-6.350484e+00
-6.350484e+00
-5.519283e+00
8.256644e+00
-5.519283e+00
8.256644e+00
-2.383525e+01
-2.383525e+01
-2.511500e+01
-2.511500e+01
-4.239284e+01
-2.887609e+01
-4.239284e+01
-2.887609e+01
1.751961e+01
1.751961e+01
6.854363e+01
6.854363e+01
1.309137e+01
-1.661595e+01
1.309137e+01
-1.661595e+01
7.153280e+01
7.153280e+01
5.584793e+01
5.584793e+01
1.919382e+01
1.326079e+01
1.919382e+01
1.326079e+01
6.517962e+01
6.517962e+01
4.809121e+01
4.809121e+01
1.554048e+01
4.154325e+01
1.554048e+01
4.154325e+01
-6.430816e+00
-6.430816e+00
1.187014e+00
1.187014e+00
-2.374975e+00
-3.963177e+00
-2.374975e+00
-3.963177e+00
8.623429e+00
8.623429e+00
1.192932e+00
1.192932e+00
8.975735e+00
4.965915e+00
8.975735e+00
4.965915e+00
-2.308253e+01
-2.308253e+01
-5.201376e+01
-5.201376e+01
-2.840298e+01
-6.052134e+00
-2.840298e+01
-6.052134e+00
-5.654281e+01
-5.654281e+01
-4.224589e+01
-4.224589e+01
9.215907e+00
-2.339400e+01
9.215907e+00
-2.339400e+01
-2.064345e+01
-2.064345e+01
8.511971e-01
8.511971e-01
1.964609e+01
2.672938e+01
1.964609e+01
2.672938e+01
2.254694e+01
2.254694e+01
-1.140606e+01
-1.140606e+01
1.117801e+01
3.215717e+01
1.117801e+01
3.215717e+01
-2.342784e+00
-2.342784e+00
-1.853959e+00
-1.853959e+00
1.924614e+00
-1.441125e+00
1.924614e+00
-1.441125e+00
3.833199e+00
3.833199e+00
7.345739e+00
7.345739e+00
2.305813e+00
6.079326e+00
2.305813e+00
6.079326e+00
-2.727100e+00
-2.727100e+00
-1.150626e+01
-1.150626e+01
-2.019745e+01
-1.303001e+01
-2.019745e+01
-1.303001e+01
1.242073e+01
1.242073e+01
6.107142e+01
6.107142e+01
5.022132e+01
6.043324e+00
5.022132e+01
6.043324e+00
6.632036e+01
6.632036e+01
4.165721e+01
4.165721e+01
6.387690e+01
6.905202e+01
6.387690e+01
6.905202e+01
5.688840e+01
5.688840e+01
4.362961e+01
4.362961e+01
5.074640e+01
7.892306e+01
5.074640e+01
7.892306e+01
3.605904e-01
3.605904e-01
2.786242e+00
2.786242e+00
3.063618e+00
1.568684e+00
3.063618e+00
1.568684e+00
4.848180e+00
4.848180e+00
3.203390e+00
3.203390e+00
3.596615e+00
2.574912e+00
3.596615e+00
2.574912e+00
-8.945428e+00
-8.945428e+00
-2.104936e+01
-2.104936e+01
-6.495108e+00
1.978099e+00
-6.495108e+00
1.978099e+00
-7.651586e+00
-7.651586e+00
2.753207e+01
2.753207e+01
1.785437e+01
-4.611681e+00
1.785437e+01
-4.611681e+00
5.589789e+01
5.589789e+01
7.015169e+01
7.015169e+01
5.708677e+01
4.173514e+01
5.708677e+01
4.173514e+01
9.687796e+01
9.687796e+01
6.469310e+01
6.469310e+01
6.308129e+01
8.009182e+01
6.308129e+01
8.009182e+01
1.901630e+00
1.901630e+00
4.157109e+00
4.157109e+00
3.119747e+00
9.737968e-01
3.119747e+00
9.737968e-01
2.914926e+00
2.914926e+00
2.283453e+00
2.283453e+00
1.123793e+00
2.400971e+00
1.123793e+00
2.400971e+00
5.601458e+00
5.601458e+00
5.847408e+00
5.847408e+00
8.464396e+00
4.335675e+00
8.464396e+00
4.335675e+00
4.527450e+00
4.527450e+00
1.352198e+01
1.352198e+01
8.321706e+00
7.102957e+00
8.321706e+00
7.102957e+00
2.998933e+01
2.998933e+01
4.433482e+01
4.433482e+01
3.724286e+01
2.103555e+01
3.724286e+01
2.103555e+01
5.769589e+01
5.769589e+01
4.959314e+01
4.959314e+01
4.227048e+01
4.770178e+01
4.227048e+01
4.770178e+01
-4.435804e-01
-4.435804e-01
1.162189e+00
1.162189e+00
3.027724e-01
-5.992570e-01
3.027724e-01
-5.992570e-01
1.245896e+00
1.245896e+00
7.768015e-01
7.768015e-01
1.458042e+00
7.751471e-01
1.458042e+00
7.751471e-01
2.917174e+00
2.917174e+00
7.039529e+00
7.039529e+00
8.100951e+00
3.941358e+00
8.100951e+00
3.941358e+00
7.326241e+00
7.326241e+00
6.438810e+00
6.438810e+00
5.533052e+00
8.860004e+00
5.533052e+00
8.860004e+00
1.743313e+01
1.743313e+01
3.407848e+01
3.407848e+01
2.702581e+01
1.170207e+01
2.702581e+01
1.170207e+01
3.655903e+01
3.655903e+01
2.869666e+01
2.869666e+01
2.414594e+01
3.435160e+01
2.414594e+01
3.435160e+01
-1.895684e-01
-1.895684e-01
3.920175e-02
3.920175e-02
-9.360649e-02
1.439990e-02
-9.360649e-02
1.439990e-02
-1.778065e-01
-1.778065e-01
1.331439e-01
1.331439e-01
-1.679858e+00
-1.126162e+00
-1.679858e+00
-1.126162e+00
2.703082e+00
2.703082e+00
6.871020e+00
6.871020e+00
4.997529e+00
6.239434e-01
4.997529e+00
6.239434e-01
8.680425e+00
8.680425e+00
5.956986e+00
5.956986e+00
6.218567e+00
7.951494e+00
6.218567e+00
7.951494e+00
5.338759e+00
5.338759e+00
7.084638e+00
7.084638e+00
7.257526e-01
2.366131e+00
7.257526e-01
2.366131e+00
-3.900133e-02
-3.900133e-02
-2.906449e-02
-2.906449e-02
3.052001e-01
2.324820e-01
3.052001e-01
2.324820e-01
1.000429e-01
1.000429e-01
1.971504e-01
1.971504e-01
3.225365e-01
3.285309e-01
3.225365e-01
3.285309e-01
1.882680e-01
1.882680e-01
-8.825056e-02
-8.825056e-02
1.023325e-01
2.514911e-01
1.023325e-01
2.514911e-01
-1.093594e-01
-1.093594e-01
1.738395e-01
1.738395e-01
3.681284e-01
1.678053e-01
3.681284e-01
1.678053e-01
8.134979e-02
8.134979e-02
-1.886400e-01
-1.886400e-01
-2.454388e-01
1.823866e-01
-2.454388e-01
1.823866e-01
-2.288264e-01
-2.288264e-01
-9.354112e-02
-9.354112e-02
-1.898631e-01
-2.306074e-01
-1.898631e-01
-2.306074e-01
-2.501096e-02
-2.501096e-02
2.120075e-01
2.120075e-01
4.136293e-01
6.198133e-02
4.136293e-01
6.198133e-02
3.740130e-01
3.740130e-01
2.135852e-01
2.135852e-01
1.562799e-01
1.647981e-01
1.562799e-01
1.647981e-01
4.289947e-02
4.289947e-02
-3.450919e-02
-3.450919e-02
-3.805168e-02
6.146256e-02
-3.805168e-02
6.146256e-02
4.292722e-02
4.292722e-02
1.425610e-01
1.425610e-01
4.527308e-01
2.123434e-01
4.527308e-01
2.123434e-01
-1.210802e-01
-1.210802e-01
-2.259439e-01
-2.259439e-01
-1.167410e-02
3.618567e-01
-1.167410e-02
3.618567e-01
1.728791e-01
1.728791e-01
1.752064e-01
1.752064e-01
3.039162e-02
1.545085e-02
3.039162e-02
1.545085e-02
5.843947e-01
5.843947e-01
1.603971e+00
1.603971e+00
2.160091e+00
6.094597e-01
2.160091e+00
6.094597e-01
6.781459e-01
6.781459e-01
-6.809446e-01
-6.809446e-01
7.374346e-01
2.676974e+00
7.374346e-01
2.676974e+00
2.366716e-01
2.366716e-01
1.518965e-01
1.518965e-01
-1.384284e-01
-1.023897e+00
-1.384284e-01
-1.023897e+00
-1.200032e+00
-1.200032e+00
-3.462311e-01
-3.462311e-01
-5.104737e+00
-1.765119e+00
-5.104737e+00
-1.765119e+00
1.501775e+00
1.501775e+00
1.256307e+00
1.256307e+00
-6.259915e+00
-5.941512e+00
-6.259915e+00
-5.941512e+00
-4.212657e-01
-4.212657e-01
-1.005258e+00
-1.005258e+00
-6.142964e+00
-6.521067e+00
-6.142964e+00
-6.521067e+00
-4.776141e-01
-4.776141e-01
1.700915e-01
1.700915e-01
-1.438026e+00
-3.897341e+00
-1.438026e+00
-3.897341e+00
3.485715e-01
3.485715e-01
-2.429968e-01
-2.429968e-01
-1.686487e+00
-9.638226e-01
-1.686487e+00
-9.638226e-01
-8.886621e-01
-8.886621e-01
-1.002592e+00
-1.002592e+00
-1.662010e+00
-2.045483e+00
-1.662010e+00
-2.045483e+00
-5.559054e-01
-5.559054e-01
-1.584560e-01
-1.584560e-01
-2.370973e-01
-8.431504e-01
-2.370973e-01
-8.431504e-01
7.059176e-01
7.059176e-01
6.051881e-01
6.051881e-01
7.717287e-01
8.704660e-01
7.717287e-01
8.704660e-01
3.683970e-01
3.683970e-01
4.626418e-01
4.626418e-01
3.968940e-01
2.740822e-01
3.968940e-01
2.740822e-01
6.397705e-01
6.397705e-01
4.316659e-01
4.316659e-01
5.334984e-01
6.440305e-01
5.334984e-01
6.440305e-01
2.261803e-01
2.261803e-01
2.703901e-01
2.703901e-01
4.268438e-01
4.044340e-01
4.268438e-01
4.044340e-01
1.382646e-01
1.382646e-01
-9.499753e-02
-9.499753e-02
1.312588e-01
4.056183e-01
1.312588e-01
4.056183e-01
-1.242142e-01
-1.242142e-01
-7.734877e-02
-7.734877e-02
-2.041359e-02
-9.189030e-02
-2.041359e-02
-9.189030e-02
8.168018e-02
8.168018e-02
2.385026e-01
2.385026e-01
3.836469e-02
-6.924890e-02
3.836469e-02
-6.924890e-02
2.342673e-01
2.342673e-01
3.319431e-01
3.319431e-01
2.160626e-01
2.503842e-01
2.160626e-01
2.503842e-01
1.339059e-01
1.339059e-01
1.609371e-01
1.609371e-01
3.589343e-01
3.152369e-01
3.589343e-01
3.152369e-01
6.181489e-01
6.181489e-01
4.842362e-01
4.842362e-01
5.276836e-01
4.213663e-01
5.276836e-01
4.213663e-01
2.894787e-01
2.894787e-01
2.666911e-01
2.666911e-01
6.552867e-01
5.002660e-01
6.552867e-01
5.002660e-01
1.409030e-01
1.409030e-01
1.587150e-01
1.587150e-01
-1.066273e-01
5.419605e-01
-1.066273e-01
5.419605e-01
6.828210e-01
6.828210e-01
2.078322e+00
2.078322e+00
-1.787681e-01
-6.306921e-01
-1.787681e-01
-6.306921e-01
3.382213e+00
3.382213e+00
2.278028e+00
2.278028e+00
1.039093e+00
1.053580e+00
1.039093e+00
1.053580e+00
-2.522978e+00
-2.522978e+00
-4.568948e+00
-4.568948e+00
-8.752386e+00
-2.916777e+00
-8.752386e+00
-2.916777e+00
-3.350343e+00
-3.350343e+00
-7.755613e+00
-7.755613e+00
-2.826935e+00
-7.142518e+00
-2.826935e+00
-7.142518e+00
-1.405639e+01
-1.405639e+01
-1.413347e+01
-1.413347e+01
-5.197281e-01
-1.412255e+00
-5.197281e-01
-1.412255e+00
-1.093711e+01
-1.093711e+01
-9.143032e+00
-9.143032e+00
-3.839066e+00
-1.265622e+00
-3.839066e+00
-1.265622e+00
-6.884737e+00
-6.884737e+00
-4.069785e+00
-4.069785e+00
-5.202908e+00
-6.122397e+00
-5.202908e+00
-6.122397e+00
-3.458585e+00
-3.458585e+00
-4.217571e+00
-4.217571e+00
-6.078653e+00
-4.479422e+00
-6.078653e+00
-4.479422e+00
-4.286763e+00
-4.286763e+00
-3.134340e+00
-3.134340e+00
-5.410970e+00
-7.304392e+00
-5.410970e+00
-7.304392e+00
-1.399905e+00
-1.399905e+00
-5.212130e-01
-5.212130e-01
-1.377924e+00
-2.488019e+00
-1.377924e+00
-2.488019e+00
6.363062e-01
6.363062e-01
7.111653e-01
7.111653e-01
5.992739e-01
3.499646e-01
5.992739e-01
3.499646e-01
4.518117e-01
4.518117e-01
3.479793e-01
3.479793e-01
3.937574e-01
5.676193e-01
3.937574e-01
5.676193e-01
3.661732e-01
3.661732e-01
3.729544e-01
3.729544e-01
3.632237e-01
2.865460e-01
3.632237e-01
2.865460e-01
5.051977e-01
5.051977e-01
5.922523e-01
5.922523e-01
1.045857e-01
3.571077e-01
1.045857e-01
3.571077e-01
3.777028e-01
3.777028e-01
8.342572e-02
8.342572e-02
-1.420601e-01
-8.958236e-02
-1.420601e-01
-8.958236e-02
-8.148530e-02
-8.148530e-02
-2.271219e-01
-2.271219e-01
-1.851896e-01
-1.416644e-01
-1.851896e-01
-1.416644e-01
-7.339082e-02
-7.339082e-02
2.783835e-01
2.783835e-01
1.467666e-01
3.827693e-02
1.467666e-01
3.827693e-02
2.447582e-01
2.447582e-01
2.020060e-03
2.020060e-03
2.489148e-01
1.151407e-01
2.489148e-01
1.151407e-01
3.639178e-01
3.639178e-01
4.906214e-01
4.906214e-01
2.909529e-01
3.597061e-01
2.909529e-01
3.597061e-01
1.969869e-01
1.969869e-01
3.982534e-01
3.982534e-01
2.920766e-01
2.159788e-01
2.920766e-01
2.159788e-01
6.289374e-01
6.289374e-01
9.335974e-01
9.335974e-01
7.274988e-01
6.079604e-01
7.274988e-01
6.079604e-01
4.505098e-01
4.505098e-01
-1.752256e+00
-1.752256e+00
-4.716312e+00
-8.377391e-01
-4.716312e+00
-8.377391e-01
-4.322286e+00
-4.322286e+00
-4.852654e+00
-4.852654e+00
-8.730138e+00
-8.863381e+00
-8.730138e+00
-8.863381e+00
-2.697212e+00
-2.697212e+00
-8.120144e-01
-8.120144e-01
3.127441e+00
-3.448355e+00
3.127441e+00
-3.448355e+00
-1.506772e+00
-1.506772e+00
-6.277743e+00
-6.277743e+00
2.743448e+00
6.441593e+00
2.743448e+00
6.441593e+00
-8.016145e+00
-8.016145e+00
-2.632205e-01
-2.632205e-01
-1.881218e+00
-3.408842e+00
-1.881218e+00
-3.408842e+00
1.071287e+01
1.071287e+01
1.374948e+01
1.374948e+01
5.031654e+00
2.963779e+00
5.031654e+00
2.963779e+00
1.075070e+01
1.075070e+01
6.393824e+00
6.393824e+00
9.731937e+00
7.855889e+00
9.731937e+00
7.855889e+00
1.546943e+00
1.546943e+00
1.297882e+00
1.297882e+00
1.212049e+01
1.091869e+01
1.212049e+01
1.091869e+01
2.128623e-01
2.128623e-01
-5.131253e+00
-5.131253e+00
4.807365e-01
8.395858e+00
4.807365e-01
8.395858e+00
-8.860045e+00
-8.860045e+00
-7.637220e+00
-7.637220e+00
-8.440915e+00
-6.247725e+00
-8.440915e+00
-6.247725e+00
-4.675942e+00
-4.675942e+00
-3.429746e+00
-3.429746e+00
-3.990400e+00
-6.014098e+00
-3.990400e+00
-6.014098e+00
4.204402e-01
4.204402e-01
6.442250e-01
6.442250e-01
3.092424e-01
2.592676e-01
3.092424e-01
2.592676e-01
4.946706e-01
4.946706e-01
2.284821e-01
2.284821e-01
-4.358077e-02
3.072588e-01
-4.358077e-02
3.072588e-01
1.855416e-01
1.855416e-01
2.466772e-01
2.466772e-01
2.119471e-01
9.593976e-02
2.119471e-01
9.593976e-02
8.744925e-02
8.744925e-02
-2.176764e-01
-2.176764e-01
-4.306234e-01
-2.375058e-01
-4.306234e-01
-2.375058e-01
-4.060567e-01
-4.060567e-01
-4.310559e-01
-4.310559e-01
-5.049573e-01
-4.619429e-01
-5.049573e-01
-4.619429e-01
-1.144279e-01
-1.144279e-01
-3.765073e-02
-3.765073e-02
-6.578370e-02
-3.152303e-01
-6.578370e-02
-3.152303e-01
-6.005272e-02
-6.005272e-02
1.011579e-01
1.011579e-01
3.526819e-01
1.944044e-01
3.526819e-01
1.944044e-01
3.064723e-01
3.064723e-01
4.383234e-01
4.383234e-01
4.412324e-01
5.371164e-01
4.412324e-01
5.371164e-01
2.194939e-01
2.194939e-01
1.936140e-01
1.936140e-01
3.226290e-01
1.424649e-01
3.226290e-01
1.424649e-01
2.585103e-01
2.585103e-01
2.067108e-01
2.067108e-01
1.620403e-01
4.298817e-01
1.620403e-01
4.298817e-01
4.150941e-01
4.150941e-01
-2.681835e-01
-2.681835e-01
-2.794943e+00
-3.233189e-01
-2.794943e+00
-3.233189e-01
-3.597092e+00
-3.597092e+00
-8.264089e+00
-8.264089e+00
-9.714006e+00
-7.555524e+00
-9.714006e+00
-7.555524e+00
-1.045488e+01
-1.045488e+01
-7.390110e+00
-7.390110e+00
4.600447e-01
-5.916372e+00
4.600447e-01
-5.916372e+00
5.491657e-01
5.491657e-01
1.055427e+01
1.055427e+01
1.481596e+01
6.342181e+00
1.481596e+01
6.342181e+00
1.730301e+01
1.730301e+01
1.257734e+01
1.257734e+01
2.276191e+01
2.535990e+01
2.276191e+01
2.535990e+01
1.299811e+00
1.299811e+00
1.389912e-01
1.389912e-01
7.893974e+00
1.174784e+01
7.893974e+00
1.174784e+01
4.797614e-01
4.797614e-01
-1.972217e+00
-1.972217e+00
4.538635e+00
5.918668e+00
4.538635e+00
5.918668e+00
1.236259e+00
1.236259e+00
7.365145e+00
7.365145e+00
1.616298e+01
9.696849e+00
1.616298e+01
9.696849e+00
1.371892e+01
1.371892e+01
1.439697e+01
1.439697e+01
1.152706e+01
1.662093e+01
1.152706e+01
1.662093e+01
1.034687e+01
1.034687e+01
6.306130e+00
6.306130e+00
8.507327e+00
6.858120e+00
8.507327e+00
6.858120e+00
2.067853e-01
2.067853e-01
-4.608396e+00
-4.608396e+00
3.612088e+00
8.163615e+00
3.612088e+00
8.163615e+00
-2.941163e+00
-2.941163e+00
-7.645742e-01
-7.645742e-01
3.242391e+00
2.483673e+00
3.242391e+00
2.483673e+00
1.134179e-02
1.134179e-02
-4.671380e-02
-4.671380e-02
-2.043644e-01
-5.433522e-02
-2.043644e-01
-5.433522e-02
-2.597233e-02
-2.597233e-02
-1.873978e-01
-1.873978e-01
-1.609750e-01
-5.846412e-02
-1.609750e-01
-5.846412e-02
-5.820548e-03
-5.820548e-03
8.524023e-02
8.524023e-02
-1.605109e-01
-2.748338e-01
-1.605109e-01
-2.748338e-01
-2.379994e-01
-2.379994e-01
-3.961296e-01
-3.961296e-01
-3.314401e-01
-2.302313e-01
-3.314401e-01
-2.302313e-01
-3.410473e-01
-3.410473e-01
-3.484732e-01
-3.484732e-01
-2.628456e-01
-3.291439e-01
-2.628456e-01
-3.291439e-01
-4.151753e-01
-4.151753e-01
2.380392e-02
2.380392e-02
1.318088e-01
-1.280432e-01
1.318088e-01
-1.280432e-01
3.608123e-01
3.608123e-01
3.870880e-01
3.870880e-01
1.612391e-01
2.175415e-01
1.612391e-01
2.175415e-01
5.131641e-01
5.131641e-01
4.322423e-01
4.322423e-01
4.868580e-01
3.638368e-01
4.868580e-01
3.638368e-01
3.997679e-01
3.997679e-01
3.243092e-01
3.243092e-01
2.956102e-01
2.987521e-01
2.956102e-01
2.987521e-01
4.270304e-01
4.270304e-01
3.567546e-01
3.567546e-01
-2.169831e-01
5.269437e-01
-2.169831e-01
5.269437e-01
-1.889017e+00
-1.889017e+00
-6.991582e+00
-6.991582e+00
-1.032419e+01
-4.616299e+00
-1.032419e+01
-4.616299e+00
-1.015087e+01
-1.015087e+01
-5.172735e+00
-5.172735e+00
5.421970e+00
-7.619862e+00
5.421970e+00
-7.619862e+00
4.344695e+00
4.344695e+00
9.954063e+00
9.954063e+00
1.667845e+01
1.534943e+01
1.667845e+01
1.534943e+01
1.128410e+01
1.128410e+01
1.636108e+01
1.636108e+01
1.935792e+01
1.697823e+01
1.935792e+01
1.697823e+01
3.022188e+01
3.022188e+01
3.408023e+01
3.408023e+01
4.269137e+01
3.178875e+01
4.269137e+01
3.178875e+01
3.003085e+01
3.003085e+01
1.710664e+01
1.710664e+01
1.389407e+01
4.593166e+01
1.389407e+01
4.593166e+01
6.203383e+00
6.203383e+00
9.310432e+00
9.310432e+00
4.175529e+00
-1.656839e+01
4.175529e+00
-1.656839e+01
1.932887e+01
1.932887e+01
2.835964e+01
2.835964e+01
3.185031e+01
3.234195e+01
3.185031e+01
3.234195e+01
2.115211e+01
2.115211e+01
1.099773e+01
1.099773e+01
1.102066e+01
1.490094e+01
1.102066e+01
1.490094e+01
7.947731e+00
7.947731e+00
1.181861e+01
1.181861e+01
1.888951e+01
1.478462e+01
1.888951e+01
1.478462e+01
1.497691e+01
1.497691e+01
1.070488e+01
1.070488e+01
1.573587e+01
1.982599e+01
1.573587e+01
1.982599e+01
4.570285e+00
4.570285e+00
2.928319e+00
2.928319e+00
9.553746e-01
4.139070e+00
9.553746e-01
4.139070e+00
-1.323439e-01
-1.323439e-01
-3.798396e-01
-3.798396e-01
-8.653660e-02
-8.653660e-02
-9.612309e-02
-9.612309e-02
-4.170326e-01
-4.170326e-01
-1.203709e-01
-1.203709e-01
1.125611e-02
1.125611e-02
-2.522526e-01
-2.522526e-01
-3.254186e-01
-3.254186e-01
-2.819767e-01
-2.819767e-01
-4.814268e-03
-4.814268e-03
1.949141e-01
1.949141e-01
3.855281e-02
3.855281e-02
2.657055e-02
2.657055e-02
3.702424e-01
3.702424e-01
2.998147e-01
2.998147e-01
2.952162e-02
2.952162e-02
2.324437e-01
2.324437e-01
-3.314492e-02
-3.314492e-02
-1.902122e+00
-1.902122e+00
-6.621549e+00
-6.621549e+00
-9.731765e+00
-9.731765e+00
-7.062970e-01
-7.062970e-01
1.606310e+01
1.606310e+01
2.256126e+01
2.256126e+01
2.255150e+01
2.255150e+01
2.591416e+01
2.591416e+01
2.779564e+01
2.779564e+01
3.340939e+01
3.340939e+01
3.808277e+01
3.808277e+01
3.554068e+01
3.554068e+01
-9.224804e+00
-9.224804e+00
-5.022756e+01
-5.022756e+01
-1.507208e+01
-1.507208e+01
2.694637e+01
2.694637e+01
1.795027e+01
1.795027e+01
9.088990e+00
9.088990e+00
2.040016e+01
2.040016e+01
2.659423e+01
2.659423e+01
2.822503e+01
2.822503e+01
2.348024e+01
2.348024e+01
2.116105e+01
2.116105e+01
3.039449e-01
3.167495e-01
3.497343e-01
4.034675e-01
4.191740e-01
4.013276e-01
2.852732e-01
3.820320e-01
5.073947e-01
5.861385e-01
6.314186e-01
6.265589e-01
9.750326e-02
3.156212e-01
6.082871e-01
7.325156e-01
8.221480e-01
8.620998e-01
-4.950897e-02
1.498952e-01
4.799727e-01
6.476031e-01
7.664078e-01
8.482556e-01
8.820520e-02
1.963243e-01
4.149444e-01
5.581375e-01
6.568572e-01
7.228849e-01
2.796625e-01
3.704505e-01
4.559077e-01
4.606640e-01
5.166658e-01
5.625805e-01
2.824772e-01
4.179265e-01
4.565345e-01
3.893189e-01
4.188631e-01
4.187814e-01
2.025837e-01
3.213938e-01
3.904039e-01
3.428578e-01
3.284233e-01
3.117349e-01
2.488483e-01
2.572568e-01
2.767158e-01
2.309349e-01
2.169717e-01
2.598399e-01
2.869286e-01
2.441484e-01
1.750321e-01
1.164982e-01
1.277842e-01
1.712680e-01
2.718650e-01
2.448326e-01
1.547242e-01
8.224169e-02
9.254555e-02
1.122559e-01
-1.367398e-04
6.640319e-02
1.717156e-01
2.362205e-01
3.258757e-01
3.897983e-01
-9.440377e-02
1.158260e-03
1.442366e-01
2.895746e-01
5.243954e-01
6.613946e-01
-4.206338e-01
-2.440182e-01
-4.608262e-02
2.082731e-01
7.237917e-01
1.006275e+00
-5.641377e-01
-3.368066e-01
-2.169738e-01
-1.490618e-02
6.593973e-01
1.024135e+00
-3.061027e-01
-1.579435e-01
-2.085275e-01
-1.118402e-01
5.402147e-01
8.968391e-01
-1.155148e-01
-6.072688e-02
-1.065217e-01
-1.786314e-02
4.556586e-01
7.399390e-01
8.090445e-02
1.173527e-01
1.294120e-01
1.602371e-01
3.807514e-01
5.460517e-01
2.793515e-01
3.068743e-01
2.638160e-01
1.913559e-01
2.809432e-01
3.724094e-01
2.548657e-01
2.400221e-01
1.600210e-01
9.545930e-02
1.813813e-01
2.667075e-01
2.454087e-01
1.989060e-01
1.096282e-01
6.231614e-02
1.317226e-01
2.056662e-01
2.834773e-01
2.415806e-01
1.470094e-01
8.047534e-02
1.260801e-01
1.855445e-01
-5.093978e-01
-2.438109e-01
-9.135329e-03
3.543881e-02
2.293348e-01
3.477454e-01
-1.034164e+00
-6.403415e-01
-2.322622e-01
2.329156e-03
4.276723e-01
6.326812e-01
-1.260219e+00
-9.791899e-01
-7.506893e-01
-2.641608e-01
6.680994e-01
1.061302e+00
-6.622633e-01
-8.202957e-01
-1.231657e+00
-6.943255e-01
6.323495e-01
1.168364e+00
-7.443807e-01
-8.903855e-01
-1.280927e+00
-7.523638e-01
5.301512e-01
1.039567e+00
-1.122742e+00
-8.457102e-01
-7.148684e-01
-3.682264e-01
4.909207e-01
8.572358e-01
-5.248241e-01
-2.235442e-01
-5.248737e-02
-8.182494e-03
4.105263e-01
6.547072e-01
4.168121e-01
3.583951e-01
1.796275e-01
8.236384e-02
2.494773e-01
3.935037e-01
5.403304e-01
3.839351e-01
1.123844e-01
1.307092e-03
1.022741e-01
1.991631e-01
2.886289e-01
2.318666e-01
9.102064e-02
1.107627e-02
1.140181e-01
2.128205e-01
2.601294e-01
2.300086e-01
1.362937e-01
7.779601e-02
1.774387e-01
2.719850e-01
-8.111325e-01
-4.574242e-01
4.686063e-02
2.281203e-01
1.925985e-01
1.263938e-01
-1.024257e+00
-6.197626e-01
-6.932359e-02
2.716841e-01
4.067515e-01
3.467561e-01
-2.401376e-01
-4.929153e-01
-7.180830e-01
2.564194e-05
7.514089e-01
8.122934e-01
5.520650e-01
-4.855880e-01
-1.591976e+00
-5.439648e-01
8.482658e-01
1.123750e+00
1.389193e-01
-7.134819e-01
-1.591457e+00
-6.118665e-01
7.208511e-01
1.048404e+00
-3.514117e-02
-4.239951e-01
-7.918619e-01
-1.722158e-01
5.566319e-01
6.868207e-01
-3.190992e-01
-2.120205e-01
-5.099266e-02
2.297634e-01
3.964553e-01
3.363404e-01
3.967907e-02
2.013879e-01
3.252185e-01
2.640002e-01
1.957788e-01
1.508975e-01
7.609348e-01
6.297542e-01
3.403105e-01
1.014072e-01
4.696297e-02
7.315895e-02
5.302488e-01
4.307864e-01
2.053909e-01
5.708212e-02
8.027715e-02
1.258480e-01
2.550880e-01
2.404084e-01
1.484801e-01
8.639217e-02
1.514553e-01
2.013578e-01
-1.336981e+00
-9.105788e-01
-1.246167e-01
5.199304e-02
-1.976644e-01
-2.643717e-01
-3.077498e-01
-1.664180e-01
1.993118e-01
1.293259e-01
-2.579485e-01
-3.508390e-01
2.013097e+00
1.318952e+00
6.438972e-01
3.221763e-01
-1.968823e-01
-3.751302e-01
3.433594e+00
2.307885e+00
8.228120e-01
3.102193e-01
-6.587713e-02
-2.887443e-01
2.802318e+00
1.927428e+00
7.149108e-01
1.929240e-01
-1.511143e-01
-3.107920e-01
1.080690e+00
4.961660e-01
3.441283e-01
2.871313e-01
-3.169063e-01
-4.314603e-01
1.080541e-01
-5.629005e-02
1.606366e-01
1.813016e-01
-3.166955e-01
-4.540867e-01
1.295662e-01
1.819233e-01
1.191620e-01
1.516977e-02
-1.360227e-01
-2.983413e-01
4.207406e-01
3.541597e-01
1.920766e-01
1.090907e-01
1.121564e-02
-9.917578e-02
3.967322e-01
3.252040e-01
2.099816e-01
1.445998e-01
9.212033e-02
6.132852e-02
1.142255e-01
1.115994e-01
9.236604e-02
1.099139e-01
1.353486e-01
1.266282e-01
-1.766274e+00
-1.209988e+00
-3.549221e-01
-3.503505e-01
-5.544338e-01
-4.643090e-01
-1.612329e-01
5.721703e-03
2.916678e-01
-2.730688e-01
-8.914276e-01
-8.260582e-01
2.924802e+00
2.469013e+00
1.923034e+00
4.319490e-01
-1.185819e+00
-1.402692e+00
5.517297e+00
4.769862e+00
3.280182e+00
9.971326e-01
-1.115974e+00
-1.688276e+00
4.538447e+00
4.013260e+00
2.882882e+00
8.866711e-01
-1.107200e+00
-1.710051e+00
4.968707e-01
6.408060e-01
1.511195e+00
6.786317e-01
-1.159886e+00
-1.439388e+00
-7.467339e-02
4.759355e-02
5.159943e-01
-4.444378e-02
-9.478888e-01
-9.447619e-01
6.572792e-01
3.855064e-01
-1.900861e-01
-3.727873e-01
-3.981116e-01
-5.445543e-01
1.393892e-01
-6.106339e-03
-1.150251e-01
5.799762e-02
-1.273731e-02
-2.199182e-01
1.063355e-01
9.890494e-02
1.469983e-01
1.890538e-01
1.160615e-01
5.653766e-02
-5.655590e-02
-3.592943e-02
2.106457e-02
1.239265e-01
1.630493e-01
1.356778e-01
SCALARS S22 float 1
LOOKUP_TABLE default
-5.601471e+00
-6.059065e+00
-1.288681e+01
-9.613262e+00
-5.601471e+00
-6.059065e+00
-1.288681e+01
-9.613262e+00
-2.036153e+00
-9.486740e+00
-2.036153e+00
-9.486740e+00
-5.983506e+00
-7.106516e+00
-5.983506e+00
-7.106516e+00
-4.541936e+00
-4.541936e+00
1.533600e-01
2.124234e-01
1.409463e+00
1.058066e+00
1.533600e-01
2.124234e-01
1.409463e+00
1.058066e+00
-6.756206e-02
4.982889e-01
-6.756206e-02
4.982889e-01
8.073387e-01
1.254516e+00
8.073387e-01
1.254516e+00
1.337539e+00
1.337539e+00
9.434462e-01
8.399389e-01
1.587521e+00
9.434462e-01
8.399389e-01
1.587521e+00
4.751401e-01
2.606566e-01
4.751401e-01
2.606566e-01
-7.811509e-01
-3.784636e-01
-7.811509e-01
-3.784636e-01
4.483526e-01
4.483526e-01
6.871619e-02
8.653172e-02
-2.194557e-01
1.277267e-01
6.871619e-02
8.653172e-02
-2.194557e-01
1.277267e-01
7.365160e-02
-3.894165e-01
7.365160e-02
-3.894165e-01
-9.276339e-02
-3.230533e-01
-9.276339e-02
-3.230533e-01
3.077050e-01
3.077050e-01
1.888122e-01
3.175704e-01
-1.404772e-01
2.817299e-01
1.888122e-01
3.175704e-01
-1.404772e-01
2.817299e-01
-6.220051e-02
-6.220051e-02
-5.410871e-02
-5.410871e-02
1.137892e-01
-6.707954e-02
-1.984260e-01
7.992180e-02
1.137892e-01
-6.707954e-02
-1.984260e-01
7.992180e-02
3.162578e-01
3.162578e-01
2.945135e-01
2.945135e-01
1.826063e-01
-9.328019e-02
-3.083035e-01
1.272398e-01
1.826063e-01
-9.328019e-02
-3.083035e-01
1.272398e-01
-2.489871e-01
-5.838698e-01
-2.489871e-01
-5.838698e-01
-9.155631e-02
1.355668e-01
-9.155631e-02
1.355668e-01
3.644880e-01
3.644880e-01
1.794195e-01
-1.343604e-01
4.905146e-01
6.743722e-01
1.794195e-01
-1.343604e-01
4.905146e-01
6.743722e-01
-1.138845e-01
5.751790e-01
-1.138845e-01
5.751790e-01
1.216751e+00
5.751884e-01
1.216751e+00
5.751884e-01
4.401147e-01
4.401147e-01
8.807270e-01
-6.850050e-02
7.079633e-02
2.239004e+00
8.807270e-01
-6.850050e-02
7.079633e-02
2.239004e+00
-1.806490e+00
-1.616366e+00
-1.806490e+00
-1.616366e+00
3.986519e+00
2.835794e+00
3.986519e+00
2.835794e+00
2.408430e+00
2.408430e+00
4.580884e-01
-2.817681e-01
1.664392e+00
4.580884e-01
-2.817681e-01
1.664392e+00
7.198961e-03
5.331593e-01
7.198961e-03
5.331593e-01
-9.428080e-01
-9.428080e-01
6.467712e-01
6.467712e-01
1.222809e+00
-1.423828e-01
1.222809e+00
-1.423828e-01
3.136530e+00
3.967480e+00
1.373918e+00
9.561864e-01
3.136530e+00
3.967480e+00
1.373918e+00
9.561864e-01
3.151370e+00
3.151370e+00
-4.022199e-01
-2.126125e-01
9.003099e-01
4.365452e-01
-4.022199e-01
-2.126125e-01
9.003099e-01
4.365452e-01
1.026091e+00
1.026091e+00
1.774634e+00
1.774634e+00
1.156521e+00
1.156521e+00
1.943167e+00
1.943167e+00
-8.246168e-01
-8.246168e-01
-5.049795e-01
-5.049795e-01
2.452351e-01
-8.285868e-01
2.452351e-01
-8.285868e-01
1.169550e+00
1.169550e+00
5.244650e-01
2.975423e-01
5.244650e-01
2.975423e-01
-2.072993e-01
-2.072993e-01
-5.515843e-01
-7.997385e-01
-5.515843e-01
-7.997385e-01
-7.470137e-01
-7.321174e-01
-7.470137e-01
-7.321174e-01
-7.921786e-01
-2.852073e-01
-7.921786e-01
-2.852073e-01
-9.978911e-01
-9.978911e-01
-4.615702e-01
-4.615702e-01
3.744178e-01
-1.323091e-01
3.744178e-01
-1.323091e-01
-1.468225e-01
-1.468225e-01
-1.053605e-01
5.065866e-02
-1.053605e-01
5.065866e-02
5.611428e-02
-2.610959e-01
5.644545e-01
5.283383e-01
5.611428e-02
-2.610959e-01
5.644545e-01
5.283383e-01
-1.221698e-01
4.603238e-01
-1.221698e-01
4.603238e-01
8.638960e-01
9.009101e-01
8.638960e-01
9.009101e-01
-2.718084e-01
-2.240067e-01
-3.338058e-01
-3.461420e-01
-2.718084e-01
-2.240067e-01
-3.338058e-01
-3.461420e-01
-2.247196e-01
-5.710249e-01
-2.247196e-01
-5.710249e-01
-4.544898e-01
-2.677941e-01
-4.544898e-01
-2.677941e-01
-3.020621e-01
-3.020621e-01
5.945409e-01
2.862326e-01
5.945409e-01
2.862326e-01
7.048102e-01
7.048102e-01
5.095899e-01
5.095899e-01
-9.932393e-02
-1.832177e-01
5.315312e-02
2.038894e-02
-9.932393e-02
-1.832177e-01
5.315312e-02
2.038894e-02
2.803538e-01
2.803538e-01
2.591099e-01
2.591099e-01
1.206860e-01
5.667849e-02
1.930207e-01
-6.710509e-02
1.206860e-01
5.667849e-02
1.930207e-01
-6.710509e-02
4.148275e-01
4.148275e-01
-5.916697e-02
1.950878e-01
9.775600e-02
1.755553e-01
-5.916697e-02
1.950878e-01
9.775600e-02
1.755553e-01
3.262575e-01
3.262575e-01
2.241931e-01
-5.252444e-02
2.241931e-01
-5.252444e-02
-1.492657e+00
1.620806e-01
-1.492657e+00
1.620806e-01
-8.745328e-01
-8.745328e-01
4.467946e-01
4.467946e-01
8.311256e-02
8.311256e-02
2.466281e-01
5.062206e-01
2.466281e-01
5.062206e-01
-2.295363e-01
8.552710e-02
-2.295363e-01
8.552710e-02
6.721931e-01
6.721931e-01
-9.667729e-02
-2.894272e-01
1.168110e-01
3.824478e-01
-9.667729e-02
-2.894272e-01
1.168110e-01
3.824478e-01
-4.468800e-01
-4.468800e-01
4.688612e-02
4.688612e-02
4.021025e-01
8.747180e-01
2.568008e+00
1.782499e+00
4.021025e-01
8.747180e-01
2.568008e+00
1.782499e+00
2.992923e-01
2.992923e-01
5.800296e-01
5.800296e-01
5.342849e-01
5.342849e-01
8.477386e-01
1.190164e+00
8.477386e-01
1.190164e+00
-2.603964e+00
-2.603964e+00
-2.996162e-01
-2.996162e-01
3.732685e-01
1.307417e+00
3.732685e-01
1.307417e+00
-6.303788e-01
-6.303788e-01
-5.025933e-01
-5.025933e-01
-5.861233e-01
-4.932172e-01
-5.861233e-01
-4.932172e-01
-2.505291e-01
-6.428472e-01
-2.505291e-01
-6.428472e-01
-9.281102e-02
3.856921e-01
1.599022e+00
2.587445e-02
-9.281102e-02
3.856921e-01
1.599022e+00
2.587445e-02
9.430783e-02
9.430783e-02
-1.795347e-01
-1.795347e-01
-1.025779e+00
-4.236245e+00
-1.025779e+00
-4.236245e+00
-3.881432e+00
-4.088747e+00
-3.881432e+00
-4.088747e+00
6.938553e-01
6.938553e-01
1.507523e-03
1.507523e-03
2.411123e-01
1.398705e-01
2.411123e-01
1.398705e-01
3.909528e-01
3.909528e-01
1.008416e-01
2.581768e-01
1.008416e-01
2.581768e-01
-2.102504e-02
-2.102504e-02
6.515633e-01
6.515633e-01
6.446872e-01
6.446872e-01
4.208067e-01
3.510201e-01
4.208067e-01
3.510201e-01
4.922650e-01
4.922650e-01
2.372422e-01
2.372422e-01
2.659887e-01
4.626502e-01
2.659887e-01
4.626502e-01
1.682192e-03
1.682192e-03
8.291199e-02
8.291199e-02
-8.324566e-02
-3.882019e-02
-8.324566e-02
-3.882019e-02
1.544932e-01
1.544932e-01
1.695439e-01
1.695439e-01
4.087650e-01
1.424601e-01
4.087650e-01
1.424601e-01
1.248928e-01
-2.547216e-01
1.248928e-01
-2.547216e-01
7.534082e-02
7.534082e-02
6.861893e-04
1.355579e-02
6.861893e-04
1.355579e-02
-2.783605e-01
-2.783605e-01
2.230779e-01
2.230779e-01
4.072799e-01
4.072799e-01
3.158266e-01
1.789365e-01
3.158266e-01
1.789365e-01
3.104963e-01
3.104963e-01
1.864772e-01
1.864772e-01
1.943205e-01
1.368886e-01
1.943205e-01
1.368886e-01
1.767061e-01
1.767061e-01
9.793538e-02
9.793538e-02
5.007708e-01
3.420069e-01
5.007708e-01
3.420069e-01
1.732780e-01
1.732780e-01
3.564883e-01
3.564883e-01
4.482424e-01
4.895300e-01
4.482424e-01
4.895300e-01
2.799631e-02
-3.652096e-03
2.799631e-02
-3.652096e-03
-4.336934e-02
-4.336934e-02
-5.181802e-02
-3.543222e-02
-5.181802e-02
-3.543222e-02
-6.731304e-02
-6.731304e-02
-1.134593e-01
-1.134593e-01
-9.028851e-02
-9.028851e-02
-3.831505e-01
-2.532611e-01
-3.831505e-01
-2.532611e-01
9.237332e-03
9.237332e-03
1.032062e-01
1.032062e-01
-9.628127e-02
-1.406643e-01
-9.628127e-02
-1.406643e-01
2.853862e-01
2.853862e-01
6.351057e-01
6.351057e-01
4.937107e-01
-3.459504e-02
4.937107e-01
-3.459504e-02
6.168844e-01
6.168844e-01
3.840481e-01
3.840481e-01
2.478017e-02
4.203673e-01
2.478017e-02
4.203673e-01
-1.622322e-01
5.967568e-02
-1.622322e-01
5.967568e-02
-7.125995e-02
-7.125995e-02
3.012669e-01
1.850871e-02
3.012669e-01
1.850871e-02
1.937514e-01
1.937514e-01
-2.282286e-02
-2.282286e-02
-3.886064e-01
-3.886064e-01
-8.806009e-02
2.297237e-01
-8.806009e-02
2.297237e-01
-4.108533e-01
-4.108533e-01
-1.987458e-01
-1.987458e-01
-8.138213e-02
-1.633017e-01
-8.138213e-02
-1.633017e-01
-2.752196e-01
-2.752196e-01
-9.237339e-02
-9.237339e-02
-3.737839e-01
-1.161424e-01
-3.737839e-01
-1.161424e-01
-1.540861e-01
-1.540861e-01
-3.705368e-01
-3.705368e-01
-3.448086e-01
-5.068042e-01
-3.448086e-01
-5.068042e-01
3.464676e-01
2.599754e-01
3.464676e-01
2.599754e-01
5.972599e-01
5.972599e-01
7.378645e-01
5.800566e-01
7.378645e-01
5.800566e-01
5.304998e-01
5.304998e-01
2.821482e-01
2.821482e-01
2.154920e-01
2.154920e-01
1.467295e-01
3.976588e-01
1.467295e-01
3.976588e-01
1.603648e-01
1.603648e-01
2.805264e-02
2.805264e-02
-2.873418e-01
4.020624e-03
-2.873418e-01
4.020624e-03
-3.060760e-02
-3.060760e-02
-1.573224e-01
-1.573224e-01
-1.954534e-01
-2.803874e-01
-1.954534e-01
-2.803874e-01
-2.732529e-01
-2.732529e-01
-2.836834e-01
-2.836834e-01
-2.228376e-01
-1.815653e-01
-2.228376e-01
-1.815653e-01
6.024844e-01
3.899200e-01
6.024844e-01
3.899200e-01
8.036643e-01
8.036643e-01
6.193033e-01
3.838363e-01
6.193033e-01
3.838363e-01
2.409314e-01
2.409314e-01
7.425010e-01
7.425010e-01
3.081372e-01
3.081372e-01
4.666029e-01
7.169525e-01
4.666029e-01
7.169525e-01
-1.775924e-01
-1.775924e-01
-3.939681e-01
-3.939681e-01
-2.308081e-01
1.355672e-03
-2.308081e-01
1.355672e-03
-5.020651e-01
-5.020651e-01
-4.853637e-01
-4.853637e-01
-2.938613e-01
-3.176325e-01
-2.938613e-01
-3.176325e-01
-2.248541e-01
-2.248541e-01
2.388862e-02
2.388862e-02
-9.006284e-03
-1.091868e-01
-9.006284e-03
-1.091868e-01
2.045847e-01
1.411577e-03
2.045847e-01
1.411577e-03
4.230601e-01
4.230601e-01
2.850925e-01
5.194385e-02
2.850925e-01
5.194385e-02
-1.140058e-01
-1.140058e-01
4.658391e-01
4.658391e-01
5.159199e-01
5.159199e-01
7.010366e-01
4.408982e-01
7.010366e-01
4.408982e-01
3.879119e-01
3.879119e-01
7.422448e-02
7.422448e-02
2.479263e-01
5.118051e-01
2.479263e-01
5.118051e-01
-1.089067e-01
-1.089067e-01
-9.004371e-02
-9.004371e-02
-1.552471e-01
-2.008706e-02
-1.552471e-01
-2.008706e-02
5.730836e-02
5.730836e-02
1.131139e-01
1.131139e-01
1.369825e-01
4.400775e-02
1.369825e-01
4.400775e-02
2.880515e-01
1.206594e-01
2.880515e-01
1.206594e-01
4.444931e-01
4.444931e-01
7.686323e-01
7.476891e-01
7.686323e-01
7.476891e-01
3.222497e-01
3.222497e-01
5.636894e-01
5.636894e-01
6.282739e-01
6.282739e-01
1.728163e-01
4.836260e-01
1.728163e-01
4.836260e-01
1.669844e-01
1.669844e-01
-1.650399e-01
-1.650399e-01
-5.416187e-01
-2.774900e-01
-5.416187e-01
-2.774900e-01
-3.133155e-01
-3.133155e-01
-3.802179e-01
-3.802179e-01
-5.302078e-01
-7.420698e-01
-5.302078e-01
-7.420698e-01
-1.009234e-01
-1.009234e-01
-4.161839e-02
-4.161839e-02
1.419599e-02
-8.486924e-02
1.419599e-02
-8.486924e-02
6.412808e-01
3.664940e-01
6.412808e-01
3.664940e-01
6.668728e-01
6.668728e-01
2.248274e-01
1.771258e-01
2.248274e-01
1.771258e-01
2.070426e-01
2.070426e-01
1.708608e-01
1.708608e-01
-2.434197e-01
-2.434197e-01
-5.587975e-01
-2.933869e-01
-5.587975e-01
-2.933869e-01
-3.655546e-01
-3.655546e-01
-6.972684e-01
-6.972684e-01
-6.294480e-01
-4.281171e-01
-6.294480e-01
-4.281171e-01
-7.365073e-01
-7.365073e-01
-3.899006e-01
-3.899006e-01
-2.047561e-01
-4.850157e-01
-2.047561e-01
-4.850157e-01
-1.530469e-01
-1.530469e-01
-8.131775e-04
-8.131775e-04
-1.985302e-02
-1.169814e-01
-1.985302e-02
-1.169814e-01
-4.283976e-01
-1.318693e-01
-4.283976e-01
-1.318693e-01
-4.489886e-01
-4.489886e-01
-1.259258e+00
-1.294062e+00
-1.259258e+00
-1.294062e+00
-5.525815e-01
-5.525815e-01
-5.953184e-01
-5.953184e-01
-6.302797e-01
-6.302797e-01
-2.803889e-01
-6.387903e-01
-2.803889e-01
-6.387903e-01
-3.497562e-01
-3.497562e-01
-3.153970e-01
-3.153970e-01
2.894889e-01
4.029257e-02
2.894889e-01
4.029257e-02
-4.413861e-02
-4.413861e-02
5.688990e-02
5.688990e-02
3.235968e-01
4.362838e-01
3.235968e-01
4.362838e-01
2.499597e-02
2.499597e-02
1.361002e-01
1.361002e-01
3.091732e-01
2.609115e-01
3.091732e-01
2.609115e-01
-1.610465e+00
-7.894767e-01
-1.610465e+00
-7.894767e-01
-1.543303e+00
-1.543303e+00
-1.390635e+00
-1.398017e+00
-1.390635e+00
-1.398017e+00
-8.010558e-01
-8.010558e-01
-8.065041e-01
-8.065041e-01
-1.948955e-01
-1.948955e-01
-1.664356e-01
-8.064656e-01
-1.664356e-01
-8.064656e-01
3.075776e-01
3.075776e-01
6.227016e-01
6.227016e-01
5.715387e-01
3.037239e-01
5.715387e-01
3.037239e-01
6.657901e-01
6.657901e-01
5.628891e-01
5.628891e-01
7.034305e-01
7.720886e-01
7.034305e-01
7.720886e-01
3.919470e-01
3.919470e-01
2.811134e-01
2.811134e-01
3.699828e-01
4.344096e-01
3.699828e-01
4.344096e-01
-1.219210e+00
-8.736203e-01
-1.219210e+00
-8.736203e-01
-1.006010e+00
-1.006010e+00
-3.124299e-01
-8.066416e-01
-3.124299e-01
-8.066416e-01
-8.060638e-01
-8.060638e-01
-5.398552e-01
-5.398552e-01
1.820088e-02
1.820088e-02
1.840366e-01
-6.293820e-03
1.840366e-01
-6.293820e-03
5.752868e-01
5.752868e-01
1.041441e+00
1.041441e+00
1.458102e+00
9.042776e-01
1.458102e+00
9.042776e-01
1.266242e+00
1.266242e+00
1.094525e+00
1.094525e+00
1.245575e+00
1.565672e+00
1.245575e+00
1.565672e+00
6.287312e-01
6.287312e-01
3.500301e-01
3.500301e-01
3.951730e-01
7.227275e-01
3.951730e-01
7.227275e-01
-2.409142e-01
-3.246552e-01
-2.409142e-01
-3.246552e-01
9.157424e-02
9.157424e-02
1.346035e-01
5.637584e-02
1.346035e-01
5.637584e-02
-1.114136e-01
-1.114136e-01
3.051843e-01
3.051843e-01
3.536669e-01
3.536669e-01
3.759348e-01
2.373198e-01
3.759348e-01
2.373198e-01
5.919585e-01
5.919585e-01
1.035875e+00
1.035875e+00
4.020841e-01
3.079456e-01
4.020841e-01
3.079456e-01
1.247888e+00
1.247888e+00
9.505445e-01
9.505445e-01
4.876662e-01
4.758327e-01
4.876662e-01
4.758327e-01
5.733467e-01
5.733467e-01
4.174135e-01
4.174135e-01
1.162297e-01
3.103264e-01
1.162297e-01
3.103264e-01
2.242949e-01
-7.297017e-02
2.242949e-01
-7.297017e-02
8.133986e-02
8.133986e-02
4.120244e-02
3.778958e-01
4.120244e-02
3.778958e-01
6.856342e-02
6.856342e-02
-2.861774e-02
-2.861774e-02
3.179119e-01
3.179119e-01
2.626913e-01
-2.596358e-01
2.626913e-01
-2.596358e-01
3.156063e-01
3.156063e-01
3.751377e-02
3.751377e-02
-1.000093e-01
2.795839e-01
-1.000093e-01
2.795839e-01
1.962934e-02
1.962934e-02
1.952615e-01
1.952615e-01
2.665612e-01
1.368587e-01
2.665612e-01
1.368587e-01
1.894858e-01
1.894858e-01
5.285442e-02
5.285442e-02
9.242546e-02
1.417593e-01
9.242546e-02
1.417593e-01
1.094761e-01
2.024796e-01
2.623566e-01
2.517489e-01
1.094761e-01
2.024796e-01
2.623566e-01
2.517489e-01
1.457105e-01
3.104909e-01
1.457105e-01
3.104909e-01
5.762455e-01
5.881362e-01
5.762455e-01
5.881362e-01
3.592227e-01
3.592227e-01
2.936847e-01
4.073795e-01
2.936847e-01
4.073795e-01
2.442445e-01
3.478370e-01
2.442445e-01
3.478370e-01
2.104055e-01
4.885202e-01
2.104055e-01
4.885202e-01
6.765512e-02
3.219034e-01
6.765512e-02
3.219034e-01
2.134871e-01
2.134871e-01
5.198896e-01
1.597198e-01
5.198896e-01
1.597198e-01
6.701895e-01
6.701895e-01
6.311994e-01
3.443744e-01
6.311994e-01
3.443744e-01
1.611255e-01
1.611255e-01
7.008095e-01
7.008095e-01
3.974967e-01
3.974967e-01
7.313092e-01
9.369387e-01
7.313092e-01
9.369387e-01
1.130427e-01
1.130427e-01
2.416586e-01
2.416586e-01
5.290623e-01
2.169949e-01
5.290623e-01
2.169949e-01
8.375035e-01
8.375035e-01
8.576709e-01
5.762824e-01
8.576709e-01
5.762824e-01
1.598323e-01
1.598323e-01
1.206312e+00
1.206312e+00
9.402221e-01
9.402221e-01
8.693058e-01
9.673010e-01
8.693058e-01
9.673010e-01
1.366569e-01
1.366569e-01
1.409212e-01
1.409212e-01
2.726480e-01
-2.999307e-03
2.726480e-01
-2.999307e-03
5.810290e-01
5.810290e-01
2.591629e-01
5.289326e-02
2.591629e-01
5.289326e-02
-2.269721e-02
-2.269721e-02
6.897253e-01
6.897253e-01
5.173400e-01
5.173400e-01
1.119734e-01
3.282019e-01
1.119734e-01
3.282019e-01
-1.275572e-01
-1.275572e-01
-4.709316e-01
-4.709316e-01
1.187679e-01
1.682256e-01
1.187679e-01
1.682256e-01
1.179230e-01
1.179230e-01
1.632554e-01
1.588373e-01
1.632554e-01
1.588373e-01
1.616740e-01
1.616740e-01
1.448008e-02
1.448008e-02
-2.194400e-01
-2.194400e-01
-1.723116e-01
1.294446e-01
-1.723116e-01
1.294446e-01
-2.754013e-01
-2.754013e-01
-2.055020e-01
-2.055020e-01
-3.445427e-02
-1.008952e-01
-3.445427e-02
-1.008952e-01
5.421873e-02
5.421873e-02
-3.012521e-02
-1.756932e-01
-3.012521e-02
-1.756932e-01
-3.021350e-01
-3.021350e-01
3.004598e-02
3.004598e-02
-1.038271e-02
-1.038271e-02
2.479331e-02
-7.335952e-02
2.479331e-02
-7.335952e-02
-1.595680e-01
-1.595680e-01
-1.013544e-01
-1.013544e-01
-1.039619e+00
-8.008311e-01
-1.039619e+00
-8.008311e-01
-1.851008e-01
-1.851008e-01
-2.713712e-01
-8.094877e-01
-2.713712e-01
-8.094877e-01
-1.074702e+00
-1.074702e+00
5.246811e-02
5.246811e-02
-1.624213e-01
-1.624213e-01
6.953884e-02
2.571071e-01
6.953884e-02
2.571071e-01
1.944491e-01
1.944491e-01
4.525307e-01
4.525307e-01
2.291531e-01
8.061455e-02
2.291531e-01
8.061455e-02
4.527677e-01
4.527677e-01
3.141738e-01
3.141738e-01
2.610708e-01
3.660697e-01
2.610708e-01
3.660697e-01
2.285171e-01
2.285171e-01
2.393819e-01
2.393819e-01
3.616031e-01
2.167491e-01
3.616031e-01
2.167491e-01
6.853287e-02
6.853287e-02
-1.298342e-01
-1.298342e-01
-1.631107e-01
1.163296e-01
-1.631107e-01
1.163296e-01
-1.139350e-01
-1.139350e-01
-5.782628e-02
-5.782628e-02
-8.569088e-01
-9.264341e-01
-8.569088e-01
-9.264341e-01
-2.533800e-01
-2.533800e-01
-6.781265e-01
-4.237097e-01
-6.781265e-01
-4.237097e-01
7.912200e-01
7.912200e-01
2.274161e-01
2.274161e-01
3.779543e-01
3.779543e-01
9.514985e-02
-3.018528e-02
9.514985e-02
-3.018528e-02
3.686597e-01
3.686597e-01
2.752411e-01
2.752411e-01
5.810410e-01
6.122432e-01
5.810410e-01
6.122432e-01
4.058906e-01
4.058906e-01
3.939596e-01
3.939596e-01
-2.573685e-01
1.364591e-01
-2.573685e-01
1.364591e-01
2.357433e-01
2.357433e-01
2.927500e-01
2.927500e-01
-4.661397e-02
-4.049398e-01
-4.661397e-02
-4.049398e-01
1.095700e-01
1.095700e-01
-4.630530e-02
-4.630530e-02
1.844577e-01
1.174617e-01
1.844577e-01
1.174617e-01
2.981812e-02
2.981812e-02
2.106357e-01
2.106357e-01
2.854397e-01
2.854397e-01
2.135750e-02
2.135750e-02
-1.158405e-02
2.507278e-01
-1.158405e-02
2.507278e-01
1.254592e-01
1.254592e-01
7.390309e-02
7.390309e-02
-8.505932e-02
-2.311532e-01
-8.505932e-02
-2.311532e-01
-8.144340e-01
-8.144340e-01
-4.244728e-01
-4.244728e-01
-4.862026e-01
-8.602096e-01
-4.862026e-01
-8.602096e-01
2.383431e-02
2.383431e-02
3.050896e-02
3.050896e-02
5.487712e-01
8.422297e-01
5.487712e-01
8.422297e-01
9.008209e-01
9.008209e-01
7.201724e-01
7.201724e-01
3.340989e-01
1.984630e-01
3.340989e-01
1.984630e-01
-4.430518e-01
-4.430518e-01
-1.904137e-01
-1.904137e-01
-6.170469e-01
-1.313372e+00
-6.170469e-01
-1.313372e+00
-7.993429e-01
-7.993429e-01
-1.211937e+00
-1.211937e+00
-5.721834e-01
7.010752e-01
-5.721834e-01
7.010752e-01
-1.323397e-01
-4.214568e-01
-1.323397e-01
-4.214568e-01
-3.984942e-01
-1.051300e+00
-3.984942e-01
-1.051300e+00
1.499290e-01
-1.146011e-01
1.499290e-01
-1.146011e-01
1.482147e-01
1.397202e-01
6.649422e-02
1.920888e-01
1.482147e-01
1.397202e-01
6.649422e-02
1.920888e-01
6.688030e-02
-1.703339e-01
6.688030e-02
-1.703339e-01
-1.020474e-01
-4.519465e-02
-1.020474e-01
-4.519465e-02
1.110876e-01
1.110876e-01
6.182682e-02
-5.705180e-02
-3.581611e-02
-1.546477e-01
6.182682e-02
-5.705180e-02
-3.581611e-02
-1.546477e-01
-8.434089e-02
7.425790e-02
-8.434089e-02
7.425790e-02
7.531906e-02
1.550605e-01
7.531906e-02
1.550605e-01
7.183328e-02
7.183328e-02
-2.727280e-01
-1.466527e-01
-3.204526e-01
-3.657275e-01
-2.727280e-01
-1.466527e-01
-3.204526e-01
-3.657275e-01
-1.451515e-03
-2.185840e-01
-1.451515e-03
-2.185840e-01
-2.353918e-01
-3.061344e-01
-2.353918e-01
-3.061344e-01
-1.006646e-01
-1.006646e-01
-2.633725e-01
-2.690995e-01
-2.569830e-01
-2.633725e-01
-2.690995e-01
-2.569830e-01
-3.245263e-01
1.932883e-02
-3.245263e-01
1.932883e-02
3.240177e-02
-3.912892e-01
3.240177e-02
-3.912892e-01
-6.217344e-01
-6.217344e-01
-7.427562e-01
-4.510448e-01
-3.849507e-01
-8.134025e-01
-7.427562e-01
-4.510448e-01
-3.849507e-01
-8.134025e-01
-9.546801e-02
-9.546801e-02
-5.115947e-01
-5.115947e-01
-2.129013e-02
-2.804839e-01
-1.843917e-01
1.189057e-01
-2.129013e-02
-2.804839e-01
-1.843917e-01
1.189057e-01
-1.057966e+00
-7.673529e-01
-1.057966e+00
-7.673529e-01
-1.001658e+00
-1.932202e-01
-1.001658e+00
-1.932202e-01
-1.160240e-01
-1.160240e-01
2.536086e-01
1.804192e-01
-6.042009e-01
-3.840724e-01
2.536086e-01
1.804192e-01
-6.042009e-01
-3.840724e-01
-4.794081e-01
-4.794081e-01
-1.253898e+00
-1.253898e+00
-9.011668e-01
-9.011668e-01
-1.406452e-01
-1.317668e-01
-1.406452e-01
-1.317668e-01
-9.791934e-02
-9.791934e-02
-2.098288e-01
-6.611570e-02
-2.098288e-01
-6.611570e-02
1.744241e-01
1.744241e-01
2.296997e-02
-8.457514e-02
1.082161e-01
1.402590e-01
2.296997e-02
-8.457514e-02
1.082161e-01
1.402590e-01
3.922823e-02
3.922823e-02
2.486366e-02
9.751886e-02
2.486366e-02
9.751886e-02
9.718975e-02
9.718975e-02
3.918926e-02
1.030527e-01
8.235750e-02
1.509863e-03
3.918926e-02
1.030527e-01
8.235750e-02
1.509863e-03
1.926884e-02
5.242859e-02
1.926884e-02
5.242859e-02
4.517257e-02
4.517257e-02
7.600731e-02
5.643815e-02
7.600731e-02
5.643815e-02
1.294012e-01
1.294012e-01
-2.832316e-01
-9.748389e-01
-1.073411e+00
-2.036059e-01
-2.832316e-01
-9.748389e-01
-1.073411e+00
-2.036059e-01
-1.884126e+00
-1.884126e+00
-9.799351e-01
-9.799351e-01
-8.610939e-01
-6.644838e-01
-8.610939e-01
-6.644838e-01
-4.810640e-01
-4.810640e-01
-1.805764e-01
-1.031000e+00
-1.805764e-01
-1.031000e+00
-8.962036e-02
-1.108777e-01
-2.540726e-01
-8.962036e-02
-1.108777e-01
-2.540726e-01
-3.443033e-01
-3.443033e-01
-2.568824e-01
-2.568824e-01
9.446658e-02
-4.613360e-02
2.346333e-01
6.024682e-01
9.446658e-02
-4.613360e-02
2.346333e-01
6.024682e-01
-2.943022e-01
-1.452939e-01
-2.943022e-01
-1.452939e-01
3.285276e-01
3.285276e-01
8.352158e-01
8.352158e-01
-9.486323e-02
4.864064e-02
1.377109e-02
-1.123244e-01
-9.486323e-02
4.864064e-02
1.377109e-02
-1.123244e-01
6.807198e-03
-2.466341e-02
6.807198e-03
-2.466341e-02
-4.062571e-01
-6.308792e-01
-4.062571e-01
-6.308792e-01
-5.355289e-01
-5.355289e-01
-4.313146e-01
-7.193095e-01
-9.863495e-01
-8.766790e-01
-4.313146e-01
-7.193095e-01
-9.863495e-01
-8.766790e-01
-4.669789e-01
-4.669789e-01
-8.488960e-01
-8.488960e-01
-2.187842e-01
-2.187842e-01
-4.517050e-01
-4.517050e-01
-6.175391e-01
-3.403625e-01
-6.175391e-01
-3.403625e-01
-1.795333e+00
-1.179472e+00
-1.965296e+00
-2.475301e+00
-1.795333e+00
-1.179472e+00
-1.965296e+00
-2.475301e+00
-4.338597e-01
-1.518248e+00
-4.338597e-01
-1.518248e+00
-1.127088e+00
-1.470469e+00
-1.127088e+00
-1.470469e+00
-1.766288e+00
-1.766288e+00
-1.127105e-01
-2.266451e-01
-1.127105e-01
-2.266451e-01
-3.412162e-01
-3.412162e-01
-3.791744e-01
-4.475838e-01
-3.791744e-01
-4.475838e-01
-2.410177e-01
-2.410177e-01
1.885425e-01
-3.077896e-01
1.885425e-01
-3.077896e-01
2.953783e-01
2.953783e-01
1.930790e-01
1.930790e-01
-3.941877e-01
-3.941877e-01
-2.853819e+00
-1.643323e+00
-2.853819e+00
-1.643323e+00
-1.967427e+00
-1.967427e+00
3.000823e-01
2.478032e-01
3.000823e-01
2.478032e-01
-9.220672e-02
1.996295e-03
-9.220672e-02
1.996295e-03
-1.105058e-01
-2.257658e-02
-2.275267e-02
-1.444219e-01
-1.105058e-01
-2.257658e-02
-2.275267e-02
-1.444219e-01
-3.534298e-02
3.705088e-03
-3.534298e-02
3.705088e-03
-1.096544e-01
-1.096544e-01
-6.710227e-02
-1.450196e-01
-6.710227e-02
-1.450196e-01
7.685232e-02
7.685232e-02
-1.414184e-01
-1.414184e-01
-3.760705e-01
-3.760705e-01
7.166492e-02
-2.317335e-01
7.166492e-02
-2.317335e-01
-1.188767e-01
-3.352982e-01
-1.188767e-01
-3.352982e-01
-1.254840e+00
-1.254840e+00
-4.661119e-01
-4.661119e-01
-2.211839e-01
-2.211839e-01
-3.216877e-01
-3.216877e-01
-7.336354e-02
-7.336354e-02
-8.975847e-02
-8.975847e-02
-7.215945e-02
-2.379803e-02
-7.215945e-02
-2.379803e-02
-9.166542e-01
-6.798967e-01
-9.166542e-01
-6.798967e-01
-2.704610e-01
-2.704610e-01
-4.904677e-01
-4.904677e-01
-1.880789e-02
-1.880789e-02
-5.025961e-01
-5.025961e-01
1.112914e-01
4.016847e-01
1.112914e-01
4.016847e-01
-2.241829e-01
-2.241829e-01
1.544521e-02
-1.139218e-01
1.544521e-02
-1.139218e-01
8.378159e-02
8.378159e-02
-1.810132e-01
2.630807e-02
-1.810132e-01
2.630807e-02
-3.204179e-01
2.237406e-01
-3.204179e-01
2.237406e-01
4.359134e-01
4.704214e-02
4.359134e-01
4.704214e-02
-3.437958e-01
7.559546e-02
-3.437958e-01
7.559546e-02
-1.960605e-01
1.421676e-02
-1.960605e-01
1.421676e-02
7.879089e-02
2.502488e-01
7.879089e-02
2.502488e-01
-1.156543e-01
1.900957e-02
-1.156543e-01
1.900957e-02
-2.008815e-01
-2.121129e-02
-2.008815e-01
-2.121129e-02
-5.487776e-02
1.079277e-01
-5.487776e-02
1.079277e-01
2.519617e-02
-6.906649e-02
2.519617e-02
-6.906649e-02
1.451628e-01
-4.194042e-02
1.451628e-01
-4.194042e-02
-4.652897e-02
-1.216534e-01
-4.652897e-02
-1.216534e-01
-9.538146e-02
-1.301163e-01
-9.538146e-02
-1.301163e-01
-2.256088e-02
-7.557008e-03
-2.256088e-02
-7.557008e-03
5.439051e-02
-1.223181e-01
5.439051e-02
-1.223181e-01
-9.718775e-02
-8.514584e-03
-9.718775e-02
-8.514584e-03
-2.812076e-01
-1.251087e-01
-2.812076e-01
-1.251087e-01
-2.323285e-02
1.991574e-04
-2.323285e-02
1.991574e-04
-9.735345e-02
1.323027e-02
-9.735345e-02
1.323027e-02
1.136617e-01
3.213348e-02
1.136617e-01
3.213348e-02
-1.790666e-01
4.226296e-02
-1.790666e-01
4.226296e-02
1.523586e-01
-7.551052e-03
1.523586e-01
-7.551052e-03
1.703280e-01
1.375235e-01
1.703280e-01
1.375235e-01
1.315818e-02
-1.878190e-01
1.315818e-02
-1.878190e-01
6.320334e-02
1.757544e-01
6.320334e-02
1.757544e-01
5.427390e-02
1.659639e-01
5.427390e-02
1.659639e-01
1.090659e-01
6.144125e-02
1.090659e-01
6.144125e-02
1.804423e-01
1.132657e-01
1.804423e-01
1.132657e-01
6.735039e-02
3.732050e-02
6.735039e-02
3.732050e-02
4.417169e-02
5.645466e-02
4.417169e-02
5.645466e-02
1.782964e-02
7.316055e-02
1.782964e-02
7.316055e-02
-5.666848e-03
6.648340e-02
-5.666848e-03
6.648340e-02
6.632948e-02
2.183463e-01
6.632948e-02
2.183463e-01
-1.036122e-01
1.542307e-01
-1.036122e-01
1.542307e-01
-7.530303e-02
6.639271e-02
-7.530303e-02
6.639271e-02
-3.891693e-02
-1.656031e-02
-3.891693e-02
-1.656031e-02
-5.188588e-02
-2.154563e-01
-5.188588e-02
-2.154563e-01
1.317539e-01
-2.461033e-02
1.317539e-01
-2.461033e-02
-2.738506e-02
-1.756504e-01
-2.738506e-02
-1.756504e-01
3.128780e-01
2.213290e-01
3.128780e-01
2.213290e-01
2.391194e-01
1.770431e-01
2.391194e-01
1.770431e-01
1.996173e-01
1.439109e-01
1.996173e-01
1.439109e-01
-7.079514e-02
-7.079514e-02
-2.046061e-03
-2.046061e-03
-9.055108e-02
2.348056e-02
-9.055108e-02
2.348056e-02
-4.610807e-02
-4.610807e-02
-7.974588e-02
-7.974588e-02
-9.830136e-02
-9.318467e-02
-9.830136e-02
-9.318467e-02
-1.172186e-02
-1.172186e-02
-4.918361e-02
-4.918361e-02
-1.103534e-01
-2.176015e-01
-1.103534e-01
-2.176015e-01
-9.752237e-02
-9.752237e-02
2.406468e-02
2.406468e-02
7.254809e-02
-1.645939e-01
7.254809e-02
-1.645939e-01
-5.805587e-02
-5.805587e-02
-1.024439e-02
-1.024439e-02
-7.734388e-02
1.499377e-01
-7.734388e-02
1.499377e-01
3.170034e-02
3.170034e-02
-5.404221e-02
-5.404221e-02
5.401615e-02
1.043091e-01
5.401615e-02
1.043091e-01
5.055262e-02
5.055262e-02
-1.368411e-03
-1.368411e-03
1.007964e-01
7.390539e-02
1.007964e-01
7.390539e-02
4.136023e-02
4.136023e-02
1.167927e-01
1.167927e-01
2.538102e-01
1.990018e-01
2.538102e-01
1.990018e-01
4.861528e-02
4.861528e-02
-1.184805e-02
-1.184805e-02
-8.430099e-02
1.279974e-01
-8.430099e-02
1.279974e-01
-1.234234e-01
-1.234234e-01
2.315369e-02
2.315369e-02
-4.761289e-02
-3.102903e-01
-4.761289e-02
-3.102903e-01
1.418518e-01
1.418518e-01
-4.754445e-02
-4.754445e-02
-4.192139e-02
4.354150e-02
-4.192139e-02
4.354150e-02
-2.184540e-01
-2.184540e-01
-1.327459e-01
-1.327459e-01
-1.576771e-01
-5.170963e-02
-1.576771e-01
-5.170963e-02
-2.954684e-02
-2.954684e-02
-6.396925e-02
-6.396925e-02
-1.168788e-01
-1.640674e-01
-1.168788e-01
-1.640674e-01
-1.054769e-02
-1.054769e-02
5.348716e-02
5.348716e-02
-2.142248e-01
-1.478627e-01
-2.142248e-01
-1.478627e-01
1.488157e-01
1.488157e-01
5.506069e-02
5.506069e-02
-5.553801e-02
-6.232547e-02
-5.553801e-02
-6.232547e-02
6.857553e-02
6.857553e-02
9.144590e-02
9.144590e-02
1.125522e-01
1.816180e-01
1.125522e-01
1.816180e-01
-4.994140e-02
-4.994140e-02
-6.665549e-02
-6.665549e-02
-5.376371e-02
-4.912049e-02
-5.376371e-02
-4.912049e-02
-1.282593e-01
-1.282593e-01
-6.307579e-02
-6.307579e-02
-1.387373e-01
-4.842163e-02
-1.387373e-01
-4.842163e-02
1.501966e-01
1.501966e-01
1.242585e-01
1.242585e-01
8.987915e-02
-8.623817e-02
8.987915e-02
-8.623817e-02
1.238530e-01
1.238530e-01
1.626131e-01
1.626131e-01
2.003315e-01
2.401729e-01
2.003315e-01
2.401729e-01
1.691469e-01
1.691469e-01
1.436490e-01
1.436490e-01
1.285111e-01
7.141599e-02
1.285111e-01
7.141599e-02
9.369064e-02
9.369064e-02
1.009885e-01
1.009885e-01
1.112420e-01
5.755678e-02
1.112420e-01
5.755678e-02
1.270754e-01
1.270754e-01
-3.326687e-02
-3.326687e-02
-1.598807e-01
6.362281e-02
-1.598807e-01
6.362281e-02
-1.513208e-01
-1.513208e-01
-7.265575e-02
-7.265575e-02
-3.728762e-02
-9.472680e-02
-3.728762e-02
-9.472680e-02
-5.237661e-02
-5.237661e-02
-1.095617e-01
-1.095617e-01
-8.088405e-02
-6.980326e-02
-8.088405e-02
-6.980326e-02
4.200337e-02
4.200337e-02
2.563444e-02
2.563444e-02
2.046592e-01
4.270638e-02
2.046592e-01
4.270638e-02
-1.596640e-01
-1.596640e-01
-3.461462e-02
-3.461462e-02
-5.851583e-02
4.590760e-02
-5.851583e-02
4.590760e-02
2.650883e-02
2.650883e-02
-2.124881e-02
-2.124881e-02
5.290400e-02
3.967867e-02
5.290400e-02
3.967867e-02
-1.811527e-01
-1.811527e-01
-2.188425e-01
-2.188425e-01
-1.875001e-01
-1.278493e-01
-1.875001e-01
-1.278493e-01
-8.571948e-02
-8.571948e-02
-9.276587e-02
-9.276587e-02
-1.707714e-01
-1.221476e-01
-1.707714e-01
-1.221476e-01
-8.286471e-02
-8.286471e-02
-2.790494e-02
-2.790494e-02
4.946988e-02
-1.043215e-01
4.946988e-02
-1.043215e-01
5.623979e-03
5.623979e-03
-1.751876e-02
-1.751876e-02
-1.776225e-01
-7.044532e-02
-1.776225e-01
-7.044532e-02
-1.564306e-02
-1.564306e-02
-1.757672e-02
-1.757672e-02
-7.306009e-02
1.518349e-02
-7.306009e-02
1.518349e-02
1.368633e-01
1.368633e-01
1.170631e-01
1.170631e-01
1.453278e-01
-9.062264e-02
1.453278e-01
-9.062264e-02
-1.125426e-01
-1.125426e-01
7.224209e-02
7.224209e-02
1.490508e-01
1.437475e-01
1.490508e-01
1.437475e-01
1.686505e-01
1.686505e-01
3.775187e-02
3.775187e-02
-7.118499e-02
1.579559e-01
-7.118499e-02
1.579559e-01
-1.582203e-01
-1.582203e-01
-2.510179e-01
-2.510179e-01
-2.285944e-01
-2.717008e-01
-2.285944e-01
-2.717008e-01
-8.067044e-02
-8.067044e-02
7.164737e-02
7.164737e-02
1.014570e-01
1.268104e-03
1.014570e-01
1.268104e-03
1.110092e-01
1.110092e-01
-8.462291e-03
-8.462291e-03
-5.950464e-02
9.539763e-02
-5.950464e-02
9.539763e-02
-1.238581e-01
-1.238581e-01
8.932110e-02
8.932110e-02
4.376807e-02
-1.852000e-01
4.376807e-02
-1.852000e-01
1.074816e-01
1.074816e-01
-3.550707e-02
-3.550707e-02
-2.874477e-02
-2.254342e-03
-2.874477e-02
-2.254342e-03
4.135821e-02
4.135821e-02
5.918129e-02
5.918129e-02
-7.143574e-02
3.686983e-02
-7.143574e-02
3.686983e-02
-3.528645e-02
-3.528645e-02
-8.041368e-02
-8.041368e-02
2.169036e-03
1.211737e-01
2.169036e-03
1.211737e-01
4.718364e-02
4.718364e-02
4.635125e-04
4.635125e-04
5.046959e-02
3.448612e-02
5.046959e-02
3.448612e-02
-8.684526e-02
-8.684526e-02
2.364681e-02
2.364681e-02
4.444802e-03
-6.037901e-02
4.444802e-03
-6.037901e-02
-1.636430e-02
-1.636430e-02
-1.933415e-01
-1.933415e-01
-1.812246e-02
1.802910e-01
-1.812246e-02
1.802910e-01
-1.115921e-01
-1.115921e-01
-2.764406e-02
-2.764406e-02
8.163009e-02
-1.381712e-01
8.163009e-02
-1.381712e-01
4.180970e-02
4.180970e-02
2.811104e-01
2.811104e-01
2.749506e-01
1.446570e-01
2.749506e-01
1.446570e-01
2.842370e-01
2.842370e-01
3.184179e-02
3.184179e-02
-2.092544e-01
1.088896e-01
-2.092544e-01
1.088896e-01
-1.164022e-01
-1.164022e-01
-1.746471e-01
-1.746471e-01
-3.683202e-01
-4.039887e-01
-3.683202e-01
-4.039887e-01
-1.734765e-01
-1.734765e-01
-1.046307e-01
-1.046307e-01
-3.786873e-02
-1.119309e-01
-3.786873e-02
-1.119309e-01
8.439684e-02
8.439684e-02
7.964792e-02
7.964792e-02
6.555621e-02
2.702499e-02
6.555621e-02
2.702499e-02
-5.300213e-02
-5.300213e-02
-4.411239e-02
-4.411239e-02
-1.276116e-01
-1.215374e-01
-1.276116e-01
-1.215374e-01
1.274158e-02
1.274158e-02
-6.669304e-03
-6.669304e-03
-3.370239e-02
1.070166e-01
-3.370239e-02
1.070166e-01
-1.114547e-01
-1.114547e-01
-3.951611e-02
-3.951611e-02
-1.363865e-02
-9.702184e-02
-1.363865e-02
-9.702184e-02
1.941720e-02
1.941720e-02
-2.498236e-02
-2.498236e-02
3.201543e-01
1.245390e-01
3.201543e-01
1.245390e-01
-6.033719e-03
1.969370e-02
-6.033719e-03
1.969370e-02
-4.857820e-04
-4.857820e-04
-8.943227e-03
-2.657154e-02
-8.943227e-03
-2.657154e-02
6.342586e-02
6.342586e-02
-2.641837e-02
-2.641837e-02
-3.515651e-02
-3.515651e-02
5.946749e-02
-5.733358e-04
5.946749e-02
-5.733358e-04
2.681529e-02
2.681529e-02
7.313676e-02
7.313676e-02
-7.418383e-02
-4.122887e-02
-7.418383e-02
-4.122887e-02
-8.131444e-02
-8.131444e-02
-1.239481e-01
-1.239481e-01
6.055294e-02
6.072869e-02
6.055294e-02
6.072869e-02
5.522749e-02
5.522749e-02
4.627731e-02
4.627731e-02
1.939541e-02
1.955634e-02
1.939541e-02
1.955634e-02
1.090410e-02
1.090410e-02
2.273392e-02
2.273392e-02
9.727398e-03
1.538060e-03
9.727398e-03
1.538060e-03
-2.534981e-02
-2.534981e-02
-9.458257e-02
-9.458257e-02
-1.656690e-01
-7.245793e-02
-1.656690e-01
-7.245793e-02
-4.123319e-02
-4.123319e-02
4.708723e-02
4.708723e-02
4.938338e-02
-3.978717e-02
4.938338e-02
-3.978717e-02
-7.658016e-02
7.510017e-02
-7.658016e-02
7.510017e-02
-8.446082e-03
-8.446082e-03
-5.996231e-02
-1.164579e-02
-5.996231e-02
-1.164579e-02
-8.815804e-02
-8.815804e-02
2.847156e-02
2.847156e-02
1.701017e-02
1.701017e-02
8.117834e-03
-7.850141e-02
8.117834e-03
-7.850141e-02
-4.502680e-02
-4.502680e-02
-6.515207e-02
-6.515207e-02
5.838376e-02
2.986361e-02
5.838376e-02
2.986361e-02
3.896167e-02
3.896167e-02
6.357081e-04
6.357081e-04
-1.470230e-02
-4.464312e-03
-1.470230e-02
-4.464312e-03
-3.024049e-02
-3.024049e-02
-1.171987e-02
-1.171987e-02
-5.878464e-02
3.699967e-02
-5.878464e-02
3.699967e-02
-3.761452e-02
-3.761452e-02
2.607067e-02
2.607067e-02
-1.611298e-02
-1.731199e-02
-1.611298e-02
-1.731199e-02
3.997715e-02
3.997715e-02
-4.006276e-02
-4.006276e-02
3.027719e-02
2.076154e-02
3.027719e-02
2.076154e-02
-6.387450e-02
-6.387450e-02
-5.319419e-02
-5.319419e-02
-3.410499e-04
-4.459710e-02
-3.410499e-04
-4.459710e-02
1.700664e-02
1.202059e-01
1.700664e-02
1.202059e-01
-1.009323e-01
-1.009323e-01
-7.978881e-02
-4.133640e-02
-7.978881e-02
-4.133640e-02
8.068845e-02
8.068845e-02
9.093070e-02
9.093070e-02
1.808539e-02
1.808539e-02
-6.755218e-04
1.530426e-01
-6.755218e-04
1.530426e-01
-4.921142e-02
-4.921142e-02
8.882548e-02
8.882548e-02
1.185684e-01
-1.248933e-01
1.185684e-01
-1.248933e-01
-5.073206e-02
-5.073206e-02
-2.993336e-02
-2.993336e-02
5.004818e-04
8.593200e-02
5.004818e-04
8.593200e-02
-1.543802e-02
-1.543802e-02
-1.181765e-02
-1.181765e-02
1.259876e-03
-2.007645e-02
1.259876e-03
-2.007645e-02
9.452939e-02
9.452939e-02
-9.050132e-03
-9.050132e-03
-1.890432e-02
1.709724e-02
-1.890432e-02
1.709724e-02
-7.267731e-02
-7.267731e-02
2.102522e-02
2.102522e-02
9.442660e-02
-1.018504e-01
9.442660e-02
-1.018504e-01
-2.730999e-04
-2.730999e-04
-7.686681e-02
-7.686681e-02
-1.077330e-01
1.124687e-01
-1.077330e-01
1.124687e-01
1.423345e-02
-1.360340e-02
1.423345e-02
-1.360340e-02
-4.032626e-02
-4.032626e-02
-2.229081e-02
-3.202110e-02
-2.229081e-02
-3.202110e-02
3.126609e-02
3.126609e-02
-6.526641e-02
-6.526641e-02
-6.527067e-04
-6.527067e-04
-7.221227e-02
-7.743088e-02
-7.221227e-02
-7.743088e-02
-1.245391e-02
-1.245391e-02
2.915827e-02
2.915827e-02
-9.357529e-02
-5.931288e-02
-9.357529e-02
-5.931288e-02
7.404046e-02
7.404046e-02
5.828889e-02
5.828889e-02
1.121718e-01
5.893570e-03
1.121718e-01
5.893570e-03
-4.440907e-02
-4.440907e-02
-8.803018e-02
-8.803018e-02
-7.915602e-02
-2.221790e-02
-7.915602e-02
-2.221790e-02
8.287676e-02
8.287676e-02
2.398668e-02
2.398668e-02
8.663052e-02
1.504308e-01
8.663052e-02
1.504308e-01
-1.176042e-01
-1.176042e-01
1.092205e-01
1.092205e-01
3.207145e-02
-4.855691e-02
3.207145e-02
-4.855691e-02
1.176520e-01
1.176520e-01
-8.673013e-03
-8.673013e-03
-4.833263e-02
-2.700820e-02
-4.833263e-02
-2.700820e-02
-3.880251e-02
2.253060e-03
-3.880251e-02
2.253060e-03
-7.979776e-02
-7.979776e-02
-8.113178e-02
2.304749e-02
-8.113178e-02
2.304749e-02
1.068226e-01
1.068226e-01
-5.222585e-02
-5.222585e-02
2.657637e-02
2.657637e-02
9.956714e-02
-2.951336e-02
9.956714e-02
-2.951336e-02
8.808267e-04
8.808267e-04
-5.871389e-02
-5.871389e-02
7.782789e-03
5.232238e-02
7.782789e-03
5.232238e-02
3.057592e-02
3.057592e-02
1.079451e-02
1.079451e-02
-4.376672e-02
6.982521e-02
-4.376672e-02
6.982521e-02
-2.243723e-02
-2.243723e-02
-1.020961e-01
-1.020961e-01
3.819325e-03
-2.686201e-02
3.819325e-03
-2.686201e-02
1.649753e-02
1.649753e-02
4.809028e-02
4.809028e-02
5.613589e-02
3.588519e-02
5.613589e-02
3.588519e-02
-1.238202e-01
-1.238202e-01
5.439429e-02
5.439429e-02
1.285621e-01
3.612498e-02
1.285621e-01
3.612498e-02
3.040773e-02
3.040773e-02
-1.432107e-01
-1.432107e-01
-9.060534e-02
2.604971e-02
-9.060534e-02
2.604971e-02
-4.458143e-02
4.259911e-03
-4.458143e-02
4.259911e-03
-7.330776e-03
-7.330776e-03
1.986583e-01
-8.712081e-02
1.986583e-01
-8.712081e-02
-1.407202e-01
-1.407202e-01
-8.140921e-02
-8.140921e-02
2.063386e-02
2.063386e-02
-8.150444e-02
-1.082024e-01
-8.150444e-02
-1.082024e-01
4.330478e-04
4.330478e-04
-7.027206e-02
-7.027206e-02
-1.986670e-02
1.750859e-01
-1.986670e-02
1.750859e-01
4.384404e-02
4.384404e-02
2.089740e-02
2.089740e-02
1.804105e-02
-4.488587e-02
1.804105e-02
-4.488587e-02
-3.213695e-02
-3.213695e-02
4.351698e-02
4.351698e-02
2.624162e-02
-4.326433e-02
2.624162e-02
-4.326433e-02
5.463156e-03
5.463156e-03
-3.167805e-02
-3.167805e-02
-1.320885e-01
-8.345354e-02
-1.320885e-01
-8.345354e-02
5.174373e-02
5.174373e-02
1.282174e-02
1.282174e-02
-5.927131e-02
2.693882e-03
-5.927131e-02
2.693882e-03
-1.880836e-02
-1.880836e-02
4.516052e-02
4.516052e-02
9.806810e-02
-2.285565e-02
9.806810e-02
-2.285565e-02
1.012629e-01
1.515662e-01
9.875576e-02
-8.289990e-03
1.012629e-01
1.515662e-01
9.875576e-02
-8.289990e-03
-1.243345e-02
-4.541554e-02
-1.243345e-02
-4.541554e-02
-1.160757e-03
-7.182042e-02
-1.160757e-03
-7.182042e-02
-1.340543e-02
-1.340543e-02
-1.447717e-01
-1.067251e-01
-1.447717e-01
-1.067251e-01
2.916654e-02
2.916654e-02
-8.321609e-02
-3.005767e-02
-8.321609e-02
-3.005767e-02
1.770159e-02
1.770159e-02
2.358758e-01
1.902837e-01
2.358758e-01
1.902837e-01
-7.247146e-02
-7.247146e-02
2.980958e-01
3.250821e-01
2.980958e-01
3.250821e-01
-3.957526e-02
-3.957526e-02
5.475836e-02
-1.260588e-01
5.475836e-02
-1.260588e-01
2.608644e-01
2.608644e-01
-4.065450e-02
6.752665e-02
-4.065450e-02
6.752665e-02
1.100713e-03
1.100713e-03
1.646371e-01
1.862233e-01
1.646371e-01
1.862233e-01
-6.119177e-02
-6.119177e-02
1.069929e-01
1.393137e-01
1.069929e-01
1.393137e-01
1.632719e-01
1.632719e-01
2.083224e-01
8.722727e-02
2.083224e-01
8.722727e-02
1.250968e-01
1.250968e-01
-1.574320e-01
-6.095885e-02
-1.574320e-01
-6.095885e-02
9.171415e-02
9.171415e-02
-1.014745e-01
-4.129719e-02
-1.014745e-01
-4.129719e-02
-1.681429e-01
-1.681429e-01
-4.039405e-01
-4.931486e-01
-4.039405e-01
-4.931486e-01
-3.639108e-01
-3.639108e-01
-1.453711e-01
-9.145514e-02
-1.453711e-01
-9.145514e-02
1.664141e-02
-4.283920e-02
1.664141e-02
-4.283920e-02
-9.930102e-02
3.792494e-02
-9.930102e-02
3.792494e-02
1.903824e-01
5.983121e-02
1.903824e-01
5.983121e-02
-1.353982e-01
-1.353982e-01
4.196644e-02
4.196644e-02
-1.367220e-01
-1.367220e-01
-1.430053e-01
-6.128667e-02
-1.430053e-01
-6.128667e-02
-2.534406e-01
-2.534406e-01
-2.914387e-01
-2.914387e-01
-1.062169e-01
-1.062169e-01
-2.961116e-02
-2.961116e-02
-9.481133e-02
3.450295e-02
-9.481133e-02
3.450295e-02
-1.300448e-01
-1.300448e-01
-1.415085e-01
-1.415085e-01
1.233349e-01
1.233349e-01
-2.357543e-01
-2.357543e-01
-3.079141e-01
-1.499332e-01
-3.079141e-01
-1.499332e-01
-2.969675e-01
-2.969675e-01
-1.197542e-01
-1.197542e-01
-2.033772e-01
-2.033772e-01
-1.479834e-01
-1.479834e-01
7.938358e-02
2.356237e-01
7.938358e-02
2.356237e-01
-4.648495e-02
-4.648495e-02
-2.429785e-01
-2.429785e-01
-8.279672e-02
-8.279672e-02
-2.269590e-01
-2.269590e-01
-5.890912e-02
-1.702216e-01
-5.890912e-02
-1.702216e-01
-2.501797e-01
-2.501797e-01
-7.272878e-02
-7.272878e-02
-2.200611e-02
-2.200611e-02
1.936611e-01
1.936611e-01
2.626678e-01
-1.892237e-01
2.626678e-01
-1.892237e-01
-1.031360e-02
-1.031360e-02
-1.244886e-01
-1.244886e-01
-2.457522e-02
-2.457522e-02
-2.929689e-03
-2.929689e-03
-2.868625e-02
2.242650e-01
-2.868625e-02
2.242650e-01
-4.439990e-01
-4.439990e-01
-4.548231e-01
-4.548231e-01
-2.195195e-02
-2.195195e-02
-8.921421e-02
-8.921421e-02
1.512075e-02
-4.419638e-02
1.512075e-02
-4.419638e-02
-1.598203e-01
-1.598203e-01
5.507684e-02
5.507684e-02
5.582791e-02
-5.724976e-02
5.582791e-02
-5.724976e-02
3.857701e-02
3.857701e-02
-1.949061e-02
-1.949061e-02
-7.610566e-02
1.477965e-02
-7.610566e-02
1.477965e-02
3.060241e-02
3.060241e-02
6.604546e-02
6.604546e-02
2.153855e-02
-1.607805e-03
2.153855e-02
-1.607805e-03
2.207989e-02
2.207989e-02
-7.453071e-02
-7.453071e-02
-2.128752e-01
3.870683e-02
-2.128752e-01
3.870683e-02
-9.347626e-03
-9.347626e-03
-1.098232e-02
-1.098232e-02
-1.815636e-02
-1.961471e-01
-1.815636e-02
-1.961471e-01
-2.344212e-02
-2.344212e-02
-8.587264e-02
-8.587264e-02
-1.805967e-01
-1.372926e-01
-1.805967e-01
-1.372926e-01
-2.386579e-02
-2.386579e-02
-9.583673e-02
-9.583673e-02
1.108972e-01
-4.407264e-02
1.108972e-01
-4.407264e-02
-1.296911e-01
-1.296911e-01
-2.333998e-02
-2.333998e-02
5.794524e-02
1.457542e-01
5.794524e-02
1.457542e-01
-2.320354e-01
-2.320354e-01
-1.216789e-01
-1.216789e-01
-4.309954e-02
-1.131834e-01
-4.309954e-02
-1.131834e-01
2.236219e-01
2.236219e-01
2.526393e-01
2.526393e-01
1.503867e-01
2.029512e-01
1.503867e-01
2.029512e-01
1.321212e-01
1.321212e-01
1.085397e-01
1.085397e-01
1.440806e-01
8.537553e-03
1.440806e-01
8.537553e-03
6.636961e-02
6.636961e-02
5.346561e-02
5.346561e-02
9.567981e-03
6.212046e-02
9.567981e-03
6.212046e-02
-1.325410e-01
-1.325410e-01
-1.833968e-01
-1.833968e-01
-1.355823e-01
-4.391161e-02
-1.355823e-01
-4.391161e-02
5.559098e-02
5.559098e-02
8.352458e-02
8.352458e-02
-2.267474e-02
3.561712e-02
-2.267474e-02
3.561712e-02
1.104158e-01
1.104158e-01
6.009559e-03
6.009559e-03
6.783241e-02
1.715136e-01
6.783241e-02
1.715136e-01
1.300978e-01
1.300978e-01
-6.766860e-02
-6.766860e-02
-1.926666e-01
5.474676e-02
-1.926666e-01
5.474676e-02
-1.077525e-01
-1.077525e-01
-3.011088e-02
-3.011088e-02
-1.201747e-01
-2.106292e-01
-1.201747e-01
-2.106292e-01
-5.417019e-02
6.058464e-02
-5.417019e-02
6.058464e-02
-3.969811e-02
-2.055891e-02
-3.969811e-02
-2.055891e-02
1.318013e-02
4.363805e-02
1.318013e-02
4.363805e-02
5.058376e-02
-6.152783e-02
5.058376e-02
-6.152783e-02
-9.251664e-02
-1.135567e-01
-9.251664e-02
-1.135567e-01
-2.023650e-02
-3.012180e-02
-2.023650e-02
-3.012180e-02
-2.780373e-02
-4.683808e-02
-2.780373e-02
-4.683808e-02
-2.542973e-02
-1.355185e-02
-2.542973e-02
-1.355185e-02
2.612724e-02
-1.042324e-02
2.612724e-02
-1.042324e-02
7.724280e-03
-1.764000e-02
7.724280e-03
-1.764000e-02
1.097539e-01
-3.749881e-02
1.097539e-01
-3.749881e-02
-8.807613e-03
-5.604142e-02
-8.807613e-03
-5.604142e-02
-2.808715e-02
-6.082418e-02
-2.808715e-02
-6.082418e-02
1.045922e-01
4.437504e-02
1.045922e-01
4.437504e-02
-8.387526e-02
7.965604e-02
-8.387526e-02
7.965604e-02
3.049890e-02
-5.114765e-02
3.049890e-02
-5.114765e-02
8.696041e-03
8.696041e-03
-6.398729e-02
-6.398729e-02
6.698304e-02
6.698304e-02
1.263596e-01
3.340517e-02
1.263596e-01
3.340517e-02
9.560507e-04
9.560507e-04
3.874526e-02
3.874526e-02
-5.850691e-02
2.272561e-02
-5.850691e-02
2.272561e-02
7.977985e-02
7.977985e-02
5.537669e-02
5.537669e-02
1.815678e-02
5.537046e-02
1.815678e-02
5.537046e-02
-7.709273e-02
-7.709273e-02
6.091353e-02
6.091353e-02
5.431523e-03
1.758018e-02
5.431523e-03
1.758018e-02
4.305694e-02
4.305694e-02
-1.724756e-02
-1.724756e-02
3.204344e-02
-9.459697e-03
3.204344e-02
-9.459697e-03
1.614911e-02
1.614911e-02
-3.850105e-02
-3.850105e-02
9.634512e-03
9.634512e-03
-4.290684e-02
-4.290684e-02
-4.145191e-02
-3.501971e-02
-4.145191e-02
-3.501971e-02
-8.731141e-02
-8.731141e-02
-5.394319e-02
-5.394319e-02
1.461766e-01
3.560169e-02
1.461766e-01
3.560169e-02
-6.380220e-02
-6.380220e-02
-5.841885e-02
-5.841885e-02
-4.243600e-02
2.407033e-02
-4.243600e-02
2.407033e-02
8.496794e-02
8.496794e-02
-7.312957e-02
-7.312957e-02
4.844616e-02
9.725345e-03
4.844616e-02
9.725345e-03
9.342217e-03
9.342217e-03
5.608489e-03
5.608489e-03
-6.927008e-02
-1.660796e-02
-6.927008e-02
-1.660796e-02
5.697247e-02
5.697247e-02
4.280765e-02
4.280765e-02
-3.275680e-02
-3.275680e-02
3.952367e-02
3.952367e-02
-2.360288e-02
5.392845e-02
-2.360288e-02
5.392845e-02
8.659064e-02
8.659064e-02
1.209584e-01
1.209584e-01
-4.010314e-02
-9.708557e-02
-4.010314e-02
-9.708557e-02
1.063618e-01
1.063618e-01
-3.220488e-04
-3.220488e-04
6.488394e-02
-7.710523e-02
6.488394e-02
-7.710523e-02
-1.132461e-01
-1.132461e-01
4.240216e-02
4.240216e-02
-7.775591e-02
5.711236e-02
-7.775591e-02
5.711236e-02
7.188899e-02
7.188899e-02
-6.322950e-02
-6.322950e-02
3.955433e-03
2.805738e-02
3.955433e-03
2.805738e-02
-3.555733e-02
-3.555733e-02
1.301580e-03
1.301580e-03
2.580648e-02
2.580648e-02
8.332640e-02
8.332640e-02
2.003553e-02
-4.365601e-02
2.003553e-02
-4.365601e-02
9.577279e-03
9.577279e-03
-1.133024e-01
-1.133024e-01
2.383325e-02
3.475542e-02
2.383325e-02
3.475542e-02
-7.593062e-03
-7.593062e-03
7.167819e-02
7.167819e-02
-1.009686e-01
2.743836e-02
-1.009686e-01
2.743836e-02
-4.024245e-02
-4.024245e-02
4.235532e-02
4.235532e-02
6.931171e-02
-1.253110e-01
6.931171e-02
-1.253110e-01
7.235999e-03
7.235999e-03
-4.435634e-02
-4.435634e-02
-4.029929e-02
8.374928e-03
-4.029929e-02
8.374928e-03
4.715368e-02
4.715368e-02
8.695533e-02
8.695533e-02
7.203438e-03
7.203438e-03
-2.848310e-03
-2.848310e-03
7.248775e-02
1.129946e-01
7.248775e-02
1.129946e-01
-1.081602e-02
-1.081602e-02
5.858399e-02
5.858399e-02
-1.150909e-01
-3.158755e-02
-1.150909e-01
-3.158755e-02
1.932419e-02
1.932419e-02
-2.482716e-02
-2.482716e-02
1.128795e-01
6.023506e-02
1.128795e-01
6.023506e-02
3.119299e-02
3.119299e-02
4.238408e-03
4.238408e-03
3.691538e-02
9.289695e-04
3.691538e-02
9.289695e-04
-1.823557e-02
-1.823557e-02
1.752568e-02
1.752568e-02
2.537391e-02
6.520541e-02
2.537391e-02
6.520541e-02
-5.729597e-02
-5.729597e-02
-7.382763e-02
-7.382763e-02
-6.285728e-02
-6.285728e-02
-2.004244e-02
-2.004244e-02
5.017593e-02
-1.088399e-01
5.017593e-02
-1.088399e-01
3.548497e-02
3.548497e-02
-4.605741e-02
-4.605741e-02
9.836411e-02
1.314441e-01
9.836411e-02
1.314441e-01
-2.866129e-02
-2.866129e-02
-5.112435e-02
-5.112435e-02
-1.262383e-02
3.125240e-02
-1.262383e-02
3.125240e-02
-9.376153e-02
-9.376153e-02
-2.098684e-02
-2.098684e-02
1.547378e-02
-6.400696e-03
1.547378e-02
-6.400696e-03
-2.384621e-02
-2.384621e-02
2.109492e-02
2.109492e-02
-3.740125e-02
-4.370323e-02
-3.740125e-02
-4.370323e-02
1.644342e-01
1.644342e-01
2.595656e-02
2.595656e-02
2.175162e-02
2.175162e-02
1.356575e-01
1.356575e-01
1.247258e-01
-2.553966e-02
1.247258e-01
-2.553966e-02
-1.477938e-02
-1.477938e-02
-3.225577e-02
-3.225577e-02
-1.592374e-01
-1.733114e-01
-1.592374e-01
-1.733114e-01
5.734944e-02
5.734944e-02
8.497781e-02
8.497781e-02
3.642912e-02
6.553332e-02
3.642912e-02
6.553332e-02
1.424756e-02
1.424756e-02
5.661175e-02
5.661175e-02
-2.859694e-03
-1.107979e-01
-2.859694e-03
-1.107979e-01
6.617808e-02
6.617808e-02
-8.251510e-02
-8.251510e-02
-4.714705e-02
8.468331e-02
-4.714705e-02
8.468331e-02
-1.047211e-01
-1.047211e-01
1.511662e-02
1.511662e-02
-5.319224e-02
-5.319224e-02
9.563344e-02
9.563344e-02
6.766819e-03
-3.558980e-02
6.766819e-03
-3.558980e-02
8.905859e-02
8.905859e-02
-1.660788e-02
-1.660788e-02
1.326649e-01
1.639541e-02
1.326649e-01
1.639541e-02
6.319882e-02
6.319882e-02
1.051524e-01
1.051524e-01
5.340049e-02
6.951798e-02
5.340049e-02
6.951798e-02
1.015358e-01
1.015358e-01
6.929532e-02
6.929532e-02
-2.353160e-02
-2.012122e-02
-2.353160e-02
-2.012122e-02
6.386567e-02
6.386567e-02
4.112740e-02
4.112740e-02
6.585698e-02
1.292993e-01
6.585698e-02
1.292993e-01
1.543854e-01
1.543854e-01
1.537957e-01
1.537957e-01
-6.584217e-02
4.732221e-02
-6.584217e-02
4.732221e-02
-9.599738e-03
-9.599738e-03
-1.839057e-02
-1.839057e-02
7.442024e-02
8.431441e-02
7.442024e-02
8.431441e-02
6.649315e-02
6.649315e-02
1.160687e-01
1.160687e-01
7.724563e-02
1.513853e-01
7.724563e-02
1.513853e-01
-9.470887e-02
-9.470887e-02
-8.308989e-02
-8.308989e-02
-8.955556e-02
-1.329935e-01
-8.955556e-02
-1.329935e-01
-1.284545e-02
-1.284545e-02
-1.043998e-01
-1.043998e-01
-6.362740e-02
7.557297e-02
-6.362740e-02
7.557297e-02
-7.348056e-02
-7.348056e-02
8.827723e-03
8.827723e-03
-4.830479e-03
-9.220398e-02
-4.830479e-03
-9.220398e-02
-1.129664e-01
-1.129664e-01
-1.042635e-01
-1.042635e-01
-6.199778e-03
-5.146047e-02
-6.199778e-03
-5.146047e-02
1.684966e-01
1.684966e-01
1.521757e-01
1.521757e-01
1.374127e-01
5.832438e-02
1.374127e-01
5.832438e-02
1.217798e-01
1.217798e-01
-4.234497e-02
-4.234497e-02
8.389422e-02
1.834426e-01
8.389422e-02
1.834426e-01
7.583449e-02
7.583449e-02
1.838098e-01
1.838098e-01
3.266751e-01
1.874531e-01
3.266751e-01
1.874531e-01
8.352977e-02
8.352977e-02
1.755843e-01
1.755843e-01
9.216945e-02
1.770397e-01
9.216945e-02
1.770397e-01
2.122179e-02
2.122179e-02
1.782266e-02
1.782266e-02
-8.051828e-02
6.041448e-02
-8.051828e-02
6.041448e-02
9.382631e-02
9.382631e-02
-1.145445e-01
-1.145445e-01
1.037944e-02
-3.422857e-02
1.037944e-02
-3.422857e-02
1.696259e-01
1.696259e-01
1.428356e-01
1.428356e-01
7.127437e-02
1.485296e-01
7.127437e-02
1.485296e-01
2.434855e-01
2.434855e-01
2.015109e-01
2.015109e-01
1.340797e-01
9.506816e-02
1.340797e-01
9.506816e-02
1.779142e-01
1.779142e-01
1.083046e-01
1.083046e-01
-2.098047e-01
-1.055073e-01
-2.098047e-01
-1.055073e-01
2.564649e-02
2.564649e-02
1.518481e-01
1.518481e-01
1.686855e-01
-7.321352e-02
1.686855e-01
-7.321352e-02
1.910464e-01
1.910464e-01
-1.897175e-02
-1.897175e-02
-1.035157e-02
4.866828e-02
-1.035157e-02
4.866828e-02
-4.535909e-02
-4.535909e-02
1.511558e-01
1.511558e-01
4.277780e-02
-2.713340e-02
4.277780e-02
-2.713340e-02
-1.804177e-01
-1.804177e-01
-1.325652e-01
-1.325652e-01
-1.375603e-01
-6.762673e-02
-1.375603e-01
-6.762673e-02
1.126503e-02
1.126503e-02
1.497828e-01
1.497828e-01
-3.654741e-02
-9.094573e-02
-3.654741e-02
-9.094573e-02
1.569654e-02
1.569654e-02
-1.623165e-01
-1.623165e-01
7.458030e-02
4.419671e-02
7.458030e-02
4.419671e-02
-1.261660e-01
-1.261660e-01
-1.996091e-01
-1.996091e-01
-1.647014e-01
-1.437161e-01
-1.647014e-01
-1.437161e-01
-2.144052e-01
-2.144052e-01
-1.069514e-01
-1.069514e-01
-9.944254e-02
-7.857922e-02
-9.944254e-02
-7.857922e-02
-9.218371e-02
-9.218371e-02
-2.821611e-02
-2.821611e-02
1.176349e-02
-3.188122e-03
1.176349e-02
-3.188122e-03
5.948518e-02
5.948518e-02
1.488787e-01
1.488787e-01
1.136333e-01
-4.588864e-02
1.136333e-01
-4.588864e-02
-2.138105e-02
-2.138105e-02
-5.599140e-02
-5.599140e-02
4.993496e-02
1.010013e-01
4.993496e-02
1.010013e-01
-7.869453e-02
-7.869453e-02
2.874442e-02
2.874442e-02
6.921693e-02
1.153487e-01
6.921693e-02
1.153487e-01
7.054122e-02
7.054122e-02
-7.664259e-05
-7.664259e-05
9.570471e-02
8.095086e-02
9.570471e-02
8.095086e-02
9.197788e-02
9.197788e-02
1.061500e-01
1.061500e-01
5.386965e-02
3.236140e-02
5.386965e-02
3.236140e-02
6.388085e-02
6.388085e-02
-1.639444e-02
-1.639444e-02
-2.491009e-02
-3.582011e-02
-2.491009e-02
-3.582011e-02
6.425574e-02
6.425574e-02
3.491530e-02
3.491530e-02
-3.072258e-02
6.387070e-02
-3.072258e-02
6.387070e-02
1.042318e-02
1.042318e-02
1.207501e-01
1.207501e-01
8.770931e-02
-7.309089e-02
8.770931e-02
-7.309089e-02
1.836170e-01
1.836170e-01
1.168804e-01
1.168804e-01
-2.866622e-02
1.037520e-01
-2.866622e-02
1.037520e-01
1.059012e-01
1.059012e-01
1.283584e-01
1.283584e-01
2.198037e-01
1.205788e-01
2.198037e-01
1.205788e-01
1.586698e-02
1.586698e-02
-1.482331e-01
-1.482331e-01
-6.458024e-02
2.632744e-02
-6.458024e-02
2.632744e-02
-1.311687e-01
-1.311687e-01
-1.066296e-01
-1.066296e-01
-4.529795e-02
-5.979231e-02
-4.529795e-02
-5.979231e-02
1.221506e-02
1.221506e-02
8.228152e-02
8.228152e-02
3.519465e-02
6.253361e-02
3.519465e-02
6.253361e-02
5.188656e-02
5.188656e-02
-2.127828e-02
-2.127828e-02
-9.737200e-02
-3.072683e-04
-9.737200e-02
-3.072683e-04
-7.157637e-02
-7.157637e-02
-7.234180e-02
-7.234180e-02
-9.084689e-02
-1.918296e-01
-9.084689e-02
-1.918296e-01
-7.336791e-02
-7.336791e-02
-4.979395e-02
-4.979395e-02
-1.014857e-02
-9.094676e-02
-1.014857e-02
-9.094676e-02
1.015733e-04
1.015733e-04
-3.636903e-03
-3.636903e-03
1.847492e-02
1.105720e-01
1.847492e-02
1.105720e-01
-1.064187e-01
-1.064187e-01
1.718874e-02
1.718874e-02
-1.931112e-01
-9.294456e-02
-1.931112e-01
-9.294456e-02
6.805941e-02
6.805941e-02
-1.689891e-01
-1.689891e-01
-7.523921e-02
1.208642e-02
-7.523921e-02
1.208642e-02
-1.771791e-02
-1.771791e-02
-1.158224e-01
-1.158224e-01
1.247629e-01
1.100345e-02
1.247629e-01
1.100345e-02
-1.845689e-01
-1.845689e-01
-1.138126e-01
-1.138126e-01
-2.671085e-02
1.040652e-01
-2.671085e-02
1.040652e-01
-5.639471e-02
-5.639471e-02
3.433921e-01
3.433921e-01
-1.456773e-01
-1.651852e-01
-1.456773e-01
-1.651852e-01
2.193700e-01
2.193700e-01
1.736142e-02
1.736142e-02
1.688330e-01
1.504513e-01
1.688330e-01
1.504513e-01
-6.215427e-02
-6.215427e-02
-1.792432e-01
-1.792432e-01
-4.063350e-02
-3.889835e-02
-4.063350e-02
-3.889835e-02
3.024547e-02
3.024547e-02
1.586148e-02
1.586148e-02
1.669016e-02
3.321906e-02
1.669016e-02
3.321906e-02
-1.354327e-01
-1.354327e-01
1.045499e-01
1.045499e-01
-1.532479e-01
-1.091371e-01
-1.532479e-01
-1.091371e-01
1.921186e-01
1.921186e-01
-1.202201e-01
-1.202201e-01
-1.611742e-02
-1.012068e-02
-1.611742e-02
-1.012068e-02
-4.282617e-01
-4.282617e-01
-4.295271e-01
-4.295271e-01
-4.339009e-01
-3.120797e-01
-4.339009e-01
-3.120797e-01
2.156147e-01
2.156147e-01
4.497871e-01
4.497871e-01
4.042309e-01
5.154749e-03
4.042309e-01
5.154749e-03
1.564548e-01
1.564548e-01
1.273713e-01
1.273713e-01
4.281369e-01
3.349190e-01
4.281369e-01
3.349190e-01
1.117074e-01
1.117074e-01
7.793666e-02
7.793666e-02
1.933377e-01
1.326286e-01
1.933377e-01
1.326286e-01
4.949975e-02
4.949975e-02
-1.323975e-01
-1.323975e-01
1.070279e-01
1.446006e-01
1.070279e-01
1.446006e-01
-1.187510e-01
-1.187510e-01
8.425769e-02
8.425769e-02
-2.806151e-02
-1.166288e-01
-2.806151e-02
-1.166288e-01
1.826066e-01
1.826066e-01
-4.564094e-01
-4.564094e-01
-2.676259e-01
2.772938e-01
-2.676259e-01
2.772938e-01
-9.761074e-01
-9.761074e-01
-3.609185e-01
-3.609185e-01
-1.363494e+00
-1.562462e+00
-1.363494e+00
-1.562462e+00
5.229202e-01
5.229202e-01
4.106068e-01
4.106068e-01
-3.164114e-01
8.311938e-01
-3.164114e-01
8.311938e-01
7.473297e-03
7.473297e-03
-4.623861e-03
-4.623861e-03
-3.574170e-01
-6.257851e-02
-3.574170e-01
-6.257851e-02
-5.399083e-02
-5.399083e-02
-1.279250e-01
-1.279250e-01
-3.166995e-01
-4.898293e-01
-3.166995e-01
-4.898293e-01
1.232879e-01
1.232879e-01
9.382711e-02
9.382711e-02
1.890187e-01
3.493647e-01
1.890187e-01
3.493647e-01
-1.601230e-01
-1.601230e-01
-1.093908e-01
-1.093908e-01
-2.788131e-01
-8.446585e-01
-2.788131e-01
-8.446585e-01
-4.601925e-01
-4.601925e-01
-6.464766e-01
-6.464766e-01
1.372940e+00
1.634192e+00
1.372940e+00
1.634192e+00
2.018813e+00
2.018813e+00
-5.337789e-02
-5.337789e-02
1.019463e+00
2.426969e+00
1.019463e+00
2.426969e+00
7.212394e-02
7.212394e-02
-5.220459e-01
-5.220459e-01
-4.375082e-01
5.079131e-02
-4.375082e-01
5.079131e-02
-7.242395e-01
-7.242395e-01
1.703041e-02
1.703041e-02
4.345751e-01
-4.438741e-01
4.345751e-01
-4.438741e-01
4.881097e-01
4.881097e-01
4.971919e-02
4.971919e-02
5.945976e-01
8.801338e-01
5.945976e-01
8.801338e-01
-1.285734e-01
-1.285734e-01
1.759284e+00
1.759284e+00
3.113417e+00
1.919947e+00
3.113417e+00
1.919947e+00
2.861324e+00
2.861324e+00
3.900672e-01
3.900672e-01
-2.204218e+00
1.140759e+00
-2.204218e+00
1.140759e+00
-2.119688e+00
-2.119688e+00
-2.149521e+00
-2.149521e+00
-5.168891e+00
-5.991915e+00
-5.168891e+00
-5.991915e+00
-2.516855e-01
-2.516855e-01
-2.290277e-01
-2.290277e-01
4.289567e-01
-1.472080e-01
4.289567e-01
-1.472080e-01
3.666993e-01
3.666993e-01
8.415386e-01
8.415386e-01
7.703532e-01
7.013679e-01
7.703532e-01
7.013679e-01
1.096443e+00
1.096443e+00
1.960255e+00
1.960255e+00
3.164487e+00
1.317832e+00
3.164487e+00
1.317832e+00
3.421361e+00
3.421361e+00
2.168751e+00
2.168751e+00
2.206914e-01
4.187868e+00
2.206914e-01
4.187868e+00
-2.859181e+00
-2.859181e+00
-7.970626e+00
-7.970626e+00
-1.014277e+01
-5.545398e+00
-1.014277e+01
-5.545398e+00
-1.527105e+01
-1.527105e+01
-1.288054e+01
-1.288054e+01
-2.034811e+01
-2.344739e+01
-2.034811e+01
-2.344739e+01
3.169756e-01
3.169756e-01
6.785001e-01
6.785001e-01
4.778875e-01
7.591412e-01
4.778875e-01
7.591412e-01
4.335280e-01
4.335280e-01
6.928825e-01
6.928825e-01
1.555526e+00
3.072654e-01
1.555526e+00
3.072654e-01
2.376140e+00
2.376140e+00
4.377088e+00
4.377088e+00
6.294853e+00
5.001638e+00
6.294853e+00
5.001638e+00
1.819965e-01
1.819965e-01
-1.218202e+01
-1.218202e+01
-2.892781e+01
-7.883913e+00
-2.892781e+01
-7.883913e+00
-2.426808e+01
-2.426808e+01
-3.365791e+01
-3.365791e+01
-7.820852e+01
-5.192033e+01
-7.820852e+01
-5.192033e+01
-5.005758e+01
-5.005758e+01
-3.501160e+01
-3.501160e+01
-4.760323e+01
-8.982346e+01
-4.760323e+01
-8.982346e+01
1.777466e+00
1.777466e+00
-3.071217e-01
-3.071217e-01
1.508582e+00
3.998976e+00
1.508582e+00
3.998976e+00
-1.184560e+00
-1.184560e+00
4.012997e+00
4.012997e+00
3.990222e+00
-2.256284e+00
3.990222e+00
-2.256284e+00
1.359322e+01
1.359322e+01
1.648203e+01
1.648203e+01
4.413165e+01
2.288900e+01
4.413165e+01
2.288900e+01
-9.496951e+00
-9.496951e+00
-4.590458e+01
-4.590458e+01
1.191217e+01
4.429864e+01
1.191217e+01
4.429864e+01
-6.698176e+01
-6.698176e+01
-8.453663e+01
-8.453663e+01
-2.841428e+01
-2.077089e+01
-2.841428e+01
-2.077089e+01
-9.688253e+01
-9.688253e+01
-6.388471e+01
-6.388471e+01
-6.385725e+01
-6.482480e+01
-6.385725e+01
-6.482480e+01
7.309026e+00
7.309026e+00
6.382323e+00
6.382323e+00
9.611669e+00
1.034933e+01
9.611669e+00
1.034933e+01
-3.545680e+00
-3.545680e+00
-8.756198e-01
-8.756198e-01
-6.712868e+00
-5.886239e+00
-6.712868e+00
-5.886239e+00
2.640619e+01
2.640619e+01
6.981470e+01
6.981470e+01
6.078407e+01
1.949745e+01
6.078407e+01
1.949745e+01
1.019822e+02
1.019822e+02
7.928185e+01
7.928185e+01
3.142100e+01
8.012966e+01
3.142100e+01
8.012966e+01
2.107713e+01
2.107713e+01
8.788013e+00
8.788013e+00
-3.528721e+01
-3.154813e+01
-3.528721e+01
-3.154813e+01
-3.763567e+01
-3.763567e+01
-4.547395e+01
-4.547395e+01
-5.770066e+01
-6.337396e+01
-5.770066e+01
-6.337396e+01
7.232636e+00
7.232636e+00
8.456170e+00
8.456170e+00
1.581330e+00
2.679487e+00
1.581330e+00
2.679487e+00
-1.353935e+00
-1.353935e+00
-5.254487e+00
-5.254487e+00
3.050545e+00
-5.594536e-01
3.050545e+00
-5.594536e-01
5.680107e+00
5.680107e+00
2.591609e+01
2.591609e+01
1.763445e+01
1.224202e+01
1.763445e+01
1.224202e+01
2.708377e+01
2.708377e+01
-2.038040e+01
-2.038040e+01
-3.117211e+01
7.739242e-01
-3.117211e+01
7.739242e-01
-6.762462e+01
-6.762462e+01
-8.176773e+01
-8.176773e+01
-6.553158e+01
-5.518910e+01
-6.553158e+01
-5.518910e+01
-9.325163e+01
-9.325163e+01
-4.581721e+01
-4.581721e+01
-2.506408e+01
-6.947343e+01
-2.506408e+01
-6.947343e+01
1.044563e+00
1.044563e+00
-1.676543e+00
-1.676543e+00
8.887831e-02
-5.736578e-01
8.887831e-02
-5.736578e-01
-2.343909e+00
-2.343909e+00
3.382899e+00
3.382899e+00
-5.786922e-01
6.538796e-01
-5.786922e-01
6.538796e-01
1.280906e+01
1.280906e+01
1.735595e+01
1.735595e+01
5.113054e+00
1.938904e-01
5.113054e+00
1.938904e-01
4.574544e+00
4.574544e+00
-1.408612e+01
-1.408612e+01
4.908542e+00
7.394020e+00
4.908542e+00
7.394020e+00
-1.963978e+01
-1.963978e+01
-1.430494e+01
-1.430494e+01
2.608718e+00
3.564374e+00
2.608718e+00
3.564374e+00
-2.522023e+01
-2.522023e+01
-2.276975e+01
-2.276975e+01
-1.451292e+01
-1.107066e+01
-1.451292e+01
-1.107066e+01
-3.972196e-01
-3.972196e-01
3.779677e-01
3.779677e-01
-1.696438e-01
-2.254635e-01
-1.696438e-01
-2.254635e-01
1.147239e+00
1.147239e+00
1.637674e-01
1.637674e-01
7.392519e-01
5.885925e-01
7.392519e-01
5.885925e-01
-5.289674e-01
-5.289674e-01
1.851186e+00
1.851186e+00
-1.079787e+00
-6.277243e-01
-1.079787e+00
-6.277243e-01
3.802806e+00
3.802806e+00
1.562476e+00
1.562476e+00
2.509963e+00
1.234957e+00
2.509963e+00
1.234957e+00
-1.186788e+00
-1.186788e+00
-1.459840e+00
-1.459840e+00
1.024710e-01
9.391087e-01
1.024710e-01
9.391087e-01
-5.185119e+00
-5.185119e+00
-4.066576e+00
-4.066576e+00
-1.510344e-01
-9.620032e-01
-1.510344e-01
-9.620032e-01
-2.528922e-01
-2.528922e-01
-6.147058e-01
-6.147058e-01
-3.192306e-01
5.800838e-02
-3.192306e-01
5.800838e-02
-1.437546e-01
-1.437546e-01
4.358686e-01
4.358686e-01
5.489494e-01
-2.822936e-02
5.489494e-01
-2.822936e-02
-2.477129e-01
-2.477129e-01
-1.771795e+00
-1.771795e+00
-1.037027e+00
4.899030e-01
-1.037027e+00
4.899030e-01
-1.208890e+00
-1.208890e+00
1.706108e+00
1.706108e+00
-1.655527e+00
-2.682643e+00
-1.655527e+00
-2.682643e+00
2.050304e+00
2.050304e+00
-2.042007e+00
-2.042007e+00
2.241081e-01
1.321410e+00
2.241081e-01
1.321410e+00
-3.367016e+00
-3.367016e+00
-4.330557e-01
-4.330557e-01
2.572108e+00
-1.901327e+00
2.572108e+00
-1.901327e+00
-5.424154e-02
-5.424154e-02
-2.499292e-01
-2.499292e-01
-3.688705e-01
-2.134814e-01
-3.688705e-01
-2.134814e-01
2.428022e-01
2.428022e-01
6.952445e-01
6.952445e-01
7.466330e-01
3.603658e-01
7.466330e-01
3.603658e-01
4.107780e-01
4.107780e-01
-9.370126e-01
-9.370126e-01
-1.235795e+00
4.427272e-02
-1.235795e+00
4.427272e-02
-2.965049e+00
-2.965049e+00
-3.352100e+00
-3.352100e+00
-3.014240e+00
-3.037675e+00
-3.014240e+00
-3.037675e+00
-3.176422e-01
-3.176422e-01
2.001088e+00
2.001088e+00
7.900906e-01
-4.780388e-01
7.900906e-01
-4.780388e-01
-2.441922e-04
-2.441922e-04
-5.103893e-02
-5.103893e-02
4.431305e-02
3.151866e-02
4.431305e-02
3.151866e-02
-3.823660e-02
-3.823660e-02
-3.184643e-02
-3.184643e-02
-3.870918e-02
-1.803191e-03
-3.870918e-02
-1.803191e-03
8.383912e-02
8.383912e-02
8.171341e-04
8.171341e-04
1.579904e-03
1.125479e-02
1.579904e-03
1.125479e-02
-1.392270e-01
-1.392270e-01
-2.289706e-02
-2.289706e-02
1.050255e-01
3.965866e-03
1.050255e-01
3.965866e-03
3.084691e-02
3.084691e-02
-4.379822e-02
-4.379822e-02
-5.074348e-02
9.541890e-02
-5.074348e-02
9.541890e-02
-1.009045e-01
-1.009045e-01
-3.222169e-02
-3.222169e-02
-1.423181e-01
-2.622592e-02
-1.423181e-01
-2.622592e-02
-6.679740e-02
-6.679740e-02
-1.306164e-02
-1.306164e-02
2.039262e-01
-3.096882e-02
2.039262e-01
-3.096882e-02
6.004911e-02
6.004911e-02
8.863331e-03
8.863331e-03
2.483681e-03
-5.273712e-02
2.483681e-03
-5.273712e-02
1.732847e-02
1.732847e-02
9.015759e-03
9.015759e-03
-5.206567e-02
1.514423e-02
-5.206567e-02
1.514423e-02
-3.639064e-02
-3.639064e-02
5.382273e-02
5.382273e-02
7.244650e-02
-9.275204e-03
7.244650e-02
-9.275204e-03
4.106120e-02
4.106120e-02
-2.260395e-02
-2.260395e-02
-1.776683e-02
1.491424e-01
-1.776683e-02
1.491424e-01
1.703227e-01
1.703227e-01
1.125074e-01
1.125074e-01
6.637050e-02
7.794088e-02
6.637050e-02
7.794088e-02
-9.796218e-02
-9.796218e-02
-3.680941e-01
-3.680941e-01
8.849661e-02
6.406503e-02
8.849661e-02
6.406503e-02
-1.342571e-01
-1.342571e-01
6.854986e-01
6.854986e-01
-3.138539e-01
-5.778962e-01
-3.138539e-01
-5.778962e-01
1.379806e-01
1.379806e-01
-7.575682e-01
-7.575682e-01
-4.678722e-01
7.952546e-01
-4.678722e-01
7.952546e-01
5.681824e-01
5.681824e-01
1.368040e+00
1.368040e+00
2.264037e+00
-5.531914e-01
2.264037e+00
-5.531914e-01
3.388201e-01
3.388201e-01
7.341988e-01
7.341988e-01
5.636232e+00
4.415834e+00
5.636232e+00
4.415834e+00
9.700674e-01
9.700674e-01
6.211537e-01
6.211537e-01
3.618400e+00
5.113751e+00
3.618400e+00
5.113751e+00
7.405500e-01
7.405500e-01
1.579812e-01
1.579812e-01
1.276232e+00
2.783827e+00
1.276232e+00
2.783827e+00
-5.494215e-02
-5.494215e-02
6.297390e-02
6.297390e-02
-3.457911e-01
-3.029917e-01
-3.457911e-01
-3.029917e-01
4.263460e-02
4.263460e-02
-1.342135e-02
-1.342135e-02
1.848943e-01
1.413952e-01
1.848943e-01
1.413952e-01
-7.234593e-02
-7.234593e-02
-4.415593e-02
-4.415593e-02
2.375049e-01
1.113603e-01
2.375049e-01
1.113603e-01
8.914457e-02
8.914457e-02
1.238601e-02
1.238601e-02
9.855961e-02
1.441951e-01
9.855961e-02
1.441951e-01
1.361881e-02
1.361881e-02
7.566065e-02
7.566065e-02
4.175374e-02
-7.058795e-02
4.175374e-02
-7.058795e-02
1.291597e-01
1.291597e-01
5.136294e-02
5.136294e-02
6.738861e-02
1.060564e-01
6.738861e-02
1.060564e-01
-2.317650e-02
-2.317650e-02
-1.577443e-02
-1.577443e-02
1.490087e-02
3.022902e-02
1.490087e-02
3.022902e-02
-4.089014e-02
-4.089014e-02
-4.342712e-02
-4.342712e-02
1.918868e-02
8.330774e-02
1.918868e-02
8.330774e-02
1.069068e-02
1.069068e-02
-3.437474e-02
-3.437474e-02
1.741059e-02
-5.521365e-02
1.741059e-02
-5.521365e-02
4.119196e-02
4.119196e-02
1.132394e-01
1.132394e-01
-4.979662e-02
-3.737373e-02
-4.979662e-02
-3.737373e-02
-1.323639e-02
-1.323639e-02
7.511041e-02
7.511041e-02
-6.024005e-02
-1.405247e-02
-6.024005e-02
-1.405247e-02
-1.198516e-02
-1.198516e-02
-6.282609e-02
-6.282609e-02
-5.721707e-03
1.517882e-02
-5.721707e-03
1.517882e-02
1.567588e-01
1.567588e-01
-5.506027e-02
-5.506027e-02
-3.608175e-03
-3.612954e-02
-3.608175e-03
-3.612954e-02
-2.000376e-01
-2.000376e-01
-1.341069e-01
-1.341069e-01
-2.355733e-01
-1.383707e-01
-2.355733e-01
-1.383707e-01
-1.263088e-01
-1.263088e-01
2.983686e-02
2.983686e-02
7.279349e-02
-1.481239e-01
7.279349e-02
-1.481239e-01
1.891188e-01
1.891188e-01
3.136092e-01
3.136092e-01
2.326699e-01
3.122369e-01
2.326699e-01
3.122369e-01
-4.284338e-01
-4.284338e-01
-1.555419e+00
-1.555419e+00
-1.326558e+00
-2.510886e-01
-1.326558e+00
-2.510886e-01
-2.992169e-01
-2.992169e-01
1.992334e+00
1.992334e+00
3.223750e+00
-1.644622e+00
3.223750e+00
-1.644622e+00
8.810992e-01
8.810992e-01
2.304627e+00
2.304627e+00
3.517427e+00
6.305501e+00
3.517427e+00
6.305501e+00
8.079139e+00
8.079139e+00
9.045596e+00
9.045596e+00
1.276497e+00
1.620722e+00
1.276497e+00
1.620722e+00
7.233941e+00
7.233941e+00
6.925613e+00
6.925613e+00
4.382412e+00
1.681984e+00
4.382412e+00
1.681984e+00
6.548806e+00
6.548806e+00
3.717910e+00
3.717910e+00
4.895360e+00
7.004945e+00
4.895360e+00
7.004945e+00
-2.809113e-02
-2.809113e-02
-9.110127e-01
-9.110127e-01
-1.099666e+00
7.791285e-01
-1.099666e+00
7.791285e-01
-1.091616e-01
-1.091616e-01
2.901840e-01
2.901840e-01
6.794677e-01
-4.062230e-01
6.794677e-01
-4.062230e-01
2.976186e-01
2.976186e-01
3.655917e-01
3.655917e-01
8.387928e-01
8.992403e-01
8.387928e-01
8.992403e-01
8.662682e-02
8.662682e-02
1.683698e-01
1.683698e-01
8.570914e-02
-2.017330e-02
8.570914e-02
-2.017330e-02
2.439717e-02
2.439717e-02
-2.091459e-02
-2.091459e-02
-6.829692e-03
6.128048e-02
-6.829692e-03
6.128048e-02
1.897178e-03
1.897178e-03
-2.435813e-02
-2.435813e-02
4.815250e-02
-9.848501e-03
4.815250e-02
-9.848501e-03
9.065349e-02
9.065349e-02
1.640512e-01
1.640512e-01
-1.623059e-02
8.857238e-02
-1.623059e-02
8.857238e-02
1.216729e-01
1.216729e-01
5.895266e-02
5.895266e-02
-1.798028e-02
-2.769839e-02
-1.798028e-02
-2.769839e-02
-5.071004e-02
-5.071004e-02
-1.604011e-01
-1.604011e-01
-7.997113e-02
-9.782591e-02
-7.997113e-02
-9.782591e-02
-3.905832e-02
-3.905832e-02
1.152449e-01
1.152449e-01
-7.984556e-03
8.347354e-02
-7.984556e-03
8.347354e-02
2.502685e-02
2.502685e-02
-2.004819e-01
-2.004819e-01
-1.401787e-02
-7.492653e-02
-1.401787e-02
-7.492653e-02
1.258515e-02
1.258515e-02
1.021717e-01
1.021717e-01
-6.548209e-02
-2.559075e-02
-6.548209e-02
-2.559075e-02
-1.099487e-01
-1.099487e-01
3.014041e-02
3.014041e-02
2.112743e-02
-5.086417e-02
2.112743e-02
-5.086417e-02
1.149976e-02
1.149976e-02
6.152140e-02
6.152140e-02
3.773960e-01
1.299278e-01
3.773960e-01
1.299278e-01
1.750718e-01
1.750718e-01
2.791902e-01
2.791902e-01
2.148181e-01
5.353178e-01
2.148181e-01
5.353178e-01
6.160360e-01
6.160360e-01
3.426030e-01
3.426030e-01
-5.917743e-01
-3.485227e-01
-5.917743e-01
-3.485227e-01
-2.129758e-01
-2.129758e-01
-2.057544e-01
-2.057544e-01
1.286870e+00
-9.327926e-02
1.286870e+00
-9.327926e-02
-5.317827e-01
-5.317827e-01
7.862896e-01
7.862896e-01
-2.888245e+00
5.196338e-01
-2.888245e+00
5.196338e-01
6.118185e+00
6.118185e+00
2.723366e+00
2.723366e+00
-3.783098e-01
-1.517648e-01
-3.783098e-01
-1.517648e-01
-9.262661e+00
-9.262661e+00
-1.026776e+01
-1.026776e+01
-9.717367e+00
-8.378825e+00
-9.717367e+00
-8.378825e+00
-7.086413e+00
-7.086413e+00
-4.913430e+00
-4.913430e+00
-9.604191e+00
-8.955201e+00
-9.604191e+00
-8.955201e+00
5.908541e-01
5.908541e-01
3.351066e+00
3.351066e+00
1.440106e+00
-5.228316e+00
1.440106e+00
-5.228316e+00
1.382023e+00
1.382023e+00
-1.452588e+00
-1.452588e+00
-1.438840e+00
2.249591e+00
-1.438840e+00
2.249591e+00
-9.051054e-01
-9.051054e-01
9.566016e-01
9.566016e-01
-5.796573e-03
-2.127102e+00
-5.796573e-03
-2.127102e+00
1.281443e+00
1.281443e+00
8.911043e-01
8.911043e-01
4.523156e-01
7.844743e-01
4.523156e-01
7.844743e-01
8.943230e-02
8.943230e-02
1.074765e-01
1.074765e-01
-1.408566e-02
9.548866e-03
-1.408566e-02
9.548866e-03
6.858574e-02
6.858574e-02
-7.286452e-02
-7.286452e-02
-1.190194e-01
1.227261e-01
-1.190194e-01
1.227261e-01
-6.906670e-02
-6.906670e-02
6.986355e-02
6.986355e-02
1.331928e-01
2.234023e-04
1.331928e-01
2.234023e-04
5.802720e-02
5.802720e-02
-1.124717e-02
-1.124717e-02
-1.210336e-01
-1.536777e-01
-1.210336e-01
-1.536777e-01
-5.539624e-02
-5.539624e-02
-1.668266e-01
-1.668266e-01
-1.362170e-01
-7.190615e-02
-1.362170e-01
-7.190615e-02
6.682408e-03
6.682408e-03
6.191785e-02
6.191785e-02
-1.462259e-03
-3.328032e-02
-1.462259e-03
-3.328032e-02
-5.732518e-02
-5.732518e-02
-8.064869e-02
-8.064869e-02
1.053688e-02
1.536279e-02
1.053688e-02
1.536279e-02
-3.067423e-03
-3.067423e-03
6.133239e-02
6.133239e-02
-1.094195e-02
7.391368e-02
-1.094195e-02
7.391368e-02
-6.331815e-02
-6.331815e-02
-4.774567e-02
-4.774567e-02
1.014061e-01
-1.451199e-01
1.014061e-01
-1.451199e-01
-9.277986e-02
-9.277986e-02
-8.543621e-02
-8.543621e-02
-2.197491e-01
1.340520e-02
-2.197491e-01
1.340520e-02
2.672701e-01
2.672701e-01
7.220352e-01
7.220352e-01
1.260263e+00
4.392386e-01
1.260263e+00
4.392386e-01
8.300879e-01
8.300879e-01
-4.437595e-01
-4.437595e-01
-1.905929e+00
7.986519e-01
-1.905929e+00
7.986519e-01
-2.650277e+00
-2.650277e+00
-2.583638e+00
-2.583638e+00
-2.536930e+00
-4.655435e+00
-2.536930e+00
-4.655435e+00
1.452097e+00
1.452097e+00
4.006341e+00
4.006341e+00
5.934377e+00
3.922528e+00
5.934377e+00
3.922528e+00
-3.923542e-01
-3.923542e-01
-4.919931e+00
-4.919931e+00
-4.921665e+00
-6.479423e-01
-4.921665e+00
-6.479423e-01
-4.384164e+00
-4.384164e+00
-3.961190e+00
-3.961190e+00
-8.024064e+00
-8.071116e+00
-8.024064e+00
-8.071116e+00
-3.378917e+00
-3.378917e+00
-6.440960e+00
-6.440960e+00
-7.799209e+00
-3.286083e+00
-7.799209e+00
-3.286083e+00
-9.614753e+00
-9.614753e+00
-7.371455e+00
-7.371455e+00
-4.261158e+00
-1.138882e+01
-4.261158e+00
-1.138882e+01
-3.211523e+00
-3.211523e+00
2.031076e+00
2.031076e+00
2.189403e+00
2.794990e+00
2.189403e+00
2.794990e+00
3.663730e+00
3.663730e+00
1.267770e-01
1.267770e-01
1.963319e+00
2.037686e+00
1.963319e+00
2.037686e+00
-2.890463e+00
-2.890463e+00
-1.489204e+00
-1.489204e+00
-2.956019e+00
-1.997906e+00
-2.956019e+00
-1.997906e+00
-2.066901e-01
-2.066901e-01
-4.151799e-01
-4.151799e-01
-1.687693e+00
-1.933390e+00
-1.687693e+00
-1.933390e+00
-2.502333e-02
-2.502333e-02
-5.198273e-02
-5.198273e-02
-9.375431e-03
3.113260e-02
-9.375431e-03
3.113260e-02
-2.845005e-02
-2.845005e-02
-9.135049e-02
-9.135049e-02
-8.293878e-03
3.803857e-02
-8.293878e-03
3.803857e-02
6.771867e-02
6.771867e-02
8.354077e-02
8.354077e-02
-7.044414e-02
-5.569156e-02
-7.044414e-02
-5.569156e-02
-9.845925e-02
-9.845925e-02
-9.008232e-02
-9.008232e-02
-8.135282e-02
-1.277488e-01
-8.135282e-02
-1.277488e-01
-3.629501e-02
-3.629501e-02
-4.138880e-02
-4.138880e-02
-1.004984e-01
-9.960613e-02
-1.004984e-01
-9.960613e-02
-1.353847e-01
-1.353847e-01
3.051472e-02
3.051472e-02
8.498507e-02
-7.178772e-03
8.498507e-02
-7.178772e-03
5.356511e-02
5.356511e-02
-1.218349e-02
-1.218349e-02
-8.996084e-02
4.609253e-03
-8.996084e-02
4.609253e-03
5.145878e-02
5.145878e-02
-6.503180e-02
-6.503180e-02
6.719562e-02
-7.559096e-03
6.719562e-02
-7.559096e-03
-3.654783e-02
-3.654783e-02
-2.274838e-02
-2.274838e-02
-6.240662e-02
-5.515511e-02
-6.240662e-02
-5.515511e-02
-4.642140e-02
-4.642140e-02
1.537483e-02
1.537483e-02
4.618686e-01
2.113618e-01
4.618686e-01
2.113618e-01
8.351780e-01
8.351780e-01
1.538075e+00
1.538075e+00
9.749097e-01
1.076172e+00
9.749097e-01
1.076172e+00
-2.331142e-01
-2.331142e-01
-4.034032e+00
-4.034032e+00
-5.277971e+00
-2.449373e+00
-5.277971e+00
-2.449373e+00
-4.909738e+00
-4.909738e+00
-3.338270e-01
-3.338270e-01
8.495022e-01
-2.639896e+00
8.495022e-01
-2.639896e+00
3.169317e+00
3.169317e+00
4.346879e+00
4.346879e+00
2.238426e+00
6.712979e-01
2.238426e+00
6.712979e-01
1.539813e+00
1.539813e+00
-3.896225e+00
-3.896225e+00
2.123389e+00
5.274517e+00
2.123389e+00
5.274517e+00
-1.470026e+01
-1.470026e+01
-8.803367e+00
-8.803367e+00
-6.972922e+00
-1.606005e+01
-6.972922e+00
-1.606005e+01
4.866320e+00
4.866320e+00
1.983542e+00
1.983542e+00
2.141068e+01
2.182926e+01
2.141068e+01
2.182926e+01
1.490481e-01
1.490481e-01
3.864345e+00
3.864345e+00
1.621523e+01
1.767623e+01
1.621523e+01
1.767623e+01
6.156995e+00
6.156995e+00
2.759573e-01
2.759573e-01
-2.063023e-01
6.543910e+00
-2.063023e-01
6.543910e+00
-1.638134e+00
-1.638134e+00
1.360059e+00
1.360059e+00
1.557473e-01
-1.078957e+00
1.557473e-01
-1.078957e+00
1.061033e-01
1.061033e-01
-2.023439e+00
-2.023439e+00
8.433322e-01
1.639861e+00
8.433322e-01
1.639861e+00
-1.279703e+00
-1.279703e+00
-4.712410e-01
-4.712410e-01
1.190104e+00
4.951031e-01
1.190104e+00
4.951031e-01
-9.072488e-02
-9.072488e-02
-1.504098e-01
-1.504098e-01
1.038743e-01
1.038743e-01
6.168789e-02
6.168789e-02
-1.779136e-01
-1.779136e-01
-3.706081e-02
-3.706081e-02
7.926971e-03
7.926971e-03
-3.362351e-02
-3.362351e-02
-5.277546e-02
-5.277546e-02
-1.424909e-01
-1.424909e-01
2.742729e-03
2.742729e-03
1.080877e-01
1.080877e-01
1.042705e-02
1.042705e-02
-4.001892e-02
-4.001892e-02
7.428634e-02
7.428634e-02
2.553506e-02
2.553506e-02
-1.658290e-01
-1.658290e-01
-3.514927e-02
-3.514927e-02
3.421170e-01
3.421170e-01
6.390080e-01
6.390080e-01
5.524912e-01
5.524912e-01
-1.167277e+00
-1.167277e+00
-4.210037e+00
-4.210037e+00
-3.894196e+00
-3.894196e+00
-1.178362e+00
-1.178362e+00
-6.594386e-01
-6.594386e-01
-2.706116e+00
-2.706116e+00
-2.269856e+00
-2.269856e+00
-4.544517e-01
-4.544517e-01
1.385746e+00
1.385746e+00
-2.039288e+01
-2.039288e+01
-1.536396e+01
-1.536396e+01
1.958755e+01
1.958755e+01
1.039180e+01
1.039180e+01
1.633777e+01
1.633777e+01
2.166732e+01
2.166732e+01
5.687801e-01
5.687801e-01
-2.726632e+00
-2.726632e+00
8.709836e-01
8.709836e-01
1.009264e+00
1.009264e+00
1.564129e+00
1.564129e+00
3.540418e+00
3.540418e+00
1.729351e-02
-1.496478e-01
-1.997646e-01
-1.071419e-01
-1.514286e-01
-1.715136e-01
-6.894113e-02
-1.594311e-01
-1.816601e-01
-9.311978e-02
-8.498135e-02
-9.712217e-02
-5.189940e-02
-5.488686e-02
-4.198882e-02
6.130230e-02
1.566923e-01
1.646767e-01
7.721602e-02
1.235907e-01
1.654434e-01
2.369758e-01
3.745907e-01
4.361512e-01
5.912210e-03
1.561084e-01
2.354140e-01
2.376140e-01
4.370199e-01
5.633353e-01
-1.458661e-01
-1.522498e-02
9.825944e-02
1.803652e-01
4.364077e-01
5.931878e-01
-3.000807e-01
-2.419750e-01
-8.397685e-02
1.197942e-01
3.297348e-01
4.357968e-01
-4.180089e-01
-3.594650e-01
-1.754472e-01
4.973681e-02
1.843250e-01
2.192030e-01
-3.780430e-01
-3.475266e-01
-1.754911e-01
1.917694e-02
6.880680e-02
6.528773e-02
-2.620624e-01
-2.350636e-01
-1.316759e-01
-4.635931e-02
-5.490074e-02
-7.236988e-02
-2.043967e-01
-1.649801e-01
-1.183105e-01
-1.134355e-01
-1.221966e-01
-1.285795e-01
1.223402e-01
-6.772473e-02
-1.947611e-01
-9.067342e-02
-1.644731e-02
1.671956e-02
1.117347e-01
-5.739031e-02
-1.644485e-01
-3.210084e-02
4.121171e-02
4.424341e-02
1.922451e-02
3.618451e-02
4.832415e-02
1.133632e-01
1.804061e-01
1.775895e-01
-4.123297e-02
8.089119e-02
2.018478e-01
2.154348e-01
2.878483e-01
3.455071e-01
-1.412268e-01
3.234626e-03
1.658035e-01
2.040865e-01
3.281555e-01
4.320488e-01
-2.420035e-01
-2.975716e-02
1.240124e-01
1.273316e-01
3.357976e-01
4.824675e-01
-1.863750e-01
-1.407385e-01
-5.811172e-02
7.552204e-02
3.056379e-01
4.391103e-01
-3.279937e-01
-3.329186e-01
-1.794068e-01
1.007864e-01
2.661266e-01
3.097103e-01
-3.978203e-01
-3.268866e-01
-1.053401e-01
1.271962e-01
1.998666e-01
1.906137e-01
-2.303020e-01
-2.032956e-01
-8.806887e-02
2.401841e-02
3.590774e-02
2.393020e-02
-1.695399e-01
-1.608043e-01
-1.187187e-01
-7.872166e-02
-7.790093e-02
-8.372718e-02
1.732882e-01
2.763139e-02
-2.014218e-01
-1.315187e-01
1.333416e-01
2.449024e-01
5.172735e-01
1.677994e-01
-2.111723e-01
-6.035182e-02
1.743259e-01
2.286855e-01
1.988040e-01
7.845879e-02
-2.784103e-02
1.172593e-01
2.071794e-01
1.660445e-01
-6.202564e-01
-1.960251e-01
3.151481e-01
2.800889e-01
1.674057e-01
1.767238e-01
-1.603346e-01
5.984328e-02
3.974661e-01
2.620999e-01
1.052554e-01
2.012220e-01
1.873432e-01
2.222244e-01
1.475198e-01
3.416505e-02
1.276020e-01
2.248081e-01
-1.951402e-01
-1.202482e-01
-1.310139e-01
-5.365791e-02
2.577176e-01
4.060793e-01
-4.884023e-01
-4.323011e-01
-2.054328e-01
1.354400e-01
4.222310e-01
5.389163e-01
-5.822779e-01
-4.417974e-01
-8.647942e-02
3.029025e-01
4.799959e-01
4.825450e-01
-3.215617e-01
-2.528093e-01
-3.378170e-02
1.893669e-01
2.398428e-01
2.174452e-01
-1.465984e-01
-1.623677e-01
-7.827919e-02
3.172926e-02
2.917683e-02
1.647382e-02
5.845155e-01
2.510904e-01
-5.639845e-01
-6.226484e-01
3.974891e-02
2.791602e-01
7.436725e-01
1.913971e-01
-6.171768e-01
-5.192989e-01
3.901205e-02
2.431467e-01
1.365241e-01
-1.948172e-01
-2.599544e-01
1.126700e-01
1.302585e-01
4.142678e-02
-9.664922e-01
-2.467329e-01
7.420712e-01
7.100410e-01
1.905550e-01
-2.785602e-02
-3.357740e-01
3.150225e-01
1.070202e+00
6.191294e-01
5.559098e-02
4.750818e-02
6.537835e-01
4.263616e-01
2.732454e-01
1.484029e-01
-3.298618e-04
5.008565e-02
8.476701e-02
-5.633475e-03
-3.033842e-01
-2.560946e-01
1.773370e-01
3.561286e-01
-7.073295e-01
-5.289620e-01
-3.817638e-01
-7.372084e-02
5.140948e-01
7.626981e-01
-9.350173e-01
-7.380737e-01
-2.399658e-01
3.522803e-01
7.056530e-01
7.679439e-01
-5.964860e-01
-4.369783e-01
-3.515221e-02
3.441771e-01
4.440854e-01
4.069827e-01
-2.312187e-01
-1.939154e-01
-7.362799e-03
1.858807e-01
1.974069e-01
1.649390e-01
8.310331e-01
3.142081e-01
-1.023117e+00
-1.167048e+00
-1.045032e-01
2.814719e-01
-5.378382e-01
-6.204194e-01
-1.059931e+00
-9.660957e-01
-1.343100e-01
2.467101e-01
-4.240338e-01
-6.772067e-01
-3.822598e-01
1.414986e-01
5.052056e-02
-1.609600e-02
1.339737e+00
1.039739e+00
1.136805e+00
1.181484e+00
2.916712e-01
-2.457562e-01
2.648033e-01
9.603149e-01
1.611087e+00
9.712448e-01
1.172834e-01
-1.415756e-01
-4.772793e-01
-1.683407e-01
3.184988e-01
1.464354e-01
-7.344911e-02
5.663068e-02
-3.791318e-01
-4.586999e-01
-5.909469e-01
-3.878609e-01
1.388128e-01
4.097218e-01
-5.772440e-01
-3.648677e-01
-3.490322e-01
-1.363556e-01
5.724480e-01
8.720342e-01
-4.795189e-01
-3.490304e-01
-8.500784e-02
3.674499e-01
8.038084e-01
9.212432e-01
-4.961918e-01
-3.479567e-01
4.288039e-02
4.498481e-01
5.702091e-01
5.262045e-01
-2.929039e-01
-1.886553e-01
9.581473e-02
3.330152e-01
3.367910e-01
2.835877e-01
6.122249e-01
1.672998e-01
-1.131351e+00
-1.277632e+00
-1.403551e-01
2.894755e-01
-1.820885e+00
-1.332685e+00
-1.160616e+00
-1.043215e+00
-1.653971e-01
2.788890e-01
-8.138561e-01
-9.351174e-01
-4.389299e-01
1.267518e-01
5.076298e-02
2.654105e-02
3.531627e+00
2.142701e+00
1.181512e+00
1.309170e+00
3.359379e-01
-3.372159e-01
1.168851e+00
1.559911e+00
1.780509e+00
1.057872e+00
1.146046e-01
-2.764860e-01
-1.549298e+00
-7.006665e-01
2.357810e-01
-9.902978e-03
-1.262220e-01
9.095888e-02
-1.245409e+00
-1.107127e+00
-8.049066e-01
-4.020985e-01
1.568458e-01
4.769213e-01
-4.786550e-01
-2.300415e-01
-1.620360e-01
-6.225610e-03
6.132401e-01
8.962872e-01
1.640385e-01
2.007385e-01
1.721460e-01
4.009287e-01
8.253762e-01
9.557488e-01
-2.439932e-01
-1.560477e-01
1.329636e-01
4.956798e-01
6.052168e-01
5.531035e-01
-2.818843e-01
-1.575867e-01
1.689235e-01
4.017353e-01
3.707272e-01
3.091199e-01
SCALARS S33 float 1
LOOKUP_TABLE default
3.784009e+00
4.441875e+00
7.966500e+00
6.616481e+00
3.784009e+00
4.441875e+00
7.966500e+00
6.616481e+00
3.386710e+00
3.300978e+00
3.386710e+00
3.300978e+00
3.794973e+00
6.242672e+00
3.794973e+00
6.242672e+00
5.163225e+00
5.163225e+00
4.839756e-02
-1.470714e-01
4.747396e-01
-3.080404e-02
4.839756e-02
-1.470714e-01
4.747396e-01
-3.080404e-02
-4.912487e-01
-3.596540e-01
-4.912487e-01
-3.596540e-01
-9.858031e-03
5.070313e-01
-9.858031e-03
5.070313e-01
-5.136881e-01
-5.136881e-01
-1.534586e+00
-1.170333e+00
-1.165800e+00
-1.534586e+00
-1.170333e+00
-1.165800e+00
-1.028987e+00
-8.384399e-01
-1.028987e+00
-8.384399e-01
-5.195877e-01
-5.417956e-01
-5.195877e-01
-5.417956e-01
-4.433029e-01
-4.433029e-01
7.861160e-02
3.355258e-01
3.768358e-01
-2.373225e-01
7.861160e-02
3.355258e-01
3.768358e-01
-2.373225e-01
1.200109e+00
7.502191e-01
1.200109e+00
7.502191e-01
8.107409e-01
3.248597e-01
8.107409e-01
3.248597e-01
1.243307e-01
1.243307e-01
-2.182160e-01
3.571406e-01
2.903689e-01
4.113397e-02
-2.182160e-01
3.571406e-01
2.903689e-01
4.113397e-02
1.825222e+00
1.825222e+00
2.759132e+00
2.759132e+00
5.260512e-01
4.101087e-01
-5.490925e-01
-9.086104e-02
5.260512e-01
4.101087e-01
-5.490925e-01
-9.086104e-02
-4.528762e-02
-4.528762e-02
3.369878e-02
3.369878e-02
3.441017e-01
3.827660e-03
-2.109774e-01
2.173596e-01
3.441017e-01
3.827660e-03
-2.109774e-01
2.173596e-01
-2.043191e-03
-4.359396e-01
-2.043191e-03
-4.359396e-01
-3.044044e-01
-1.774874e-01
-3.044044e-01
-1.774874e-01
-2.625642e-01
-2.625642e-01
-2.061398e-02
-4.837315e-01
-4.472626e-01
2.720826e-02
-2.061398e-02
-4.837315e-01
-4.472626e-01
2.720826e-02
-4.317956e-01
-1.580384e-01
-4.317956e-01
-1.580384e-01
4.595185e-01
-2.487171e-01
4.595185e-01
-2.487171e-01
-1.753063e-01
-1.753063e-01
1.766356e+00
2.662665e+00
-3.152571e+00
-2.948460e+00
1.766356e+00
2.662665e+00
-3.152571e+00
-2.948460e+00
1.443316e+00
-4.310035e+00
1.443316e+00
-4.310035e+00
-4.943247e+00
-4.011609e+00
-4.943247e+00
-4.011609e+00
-2.646684e+00
-2.646684e+00
9.229721e-02
2.156364e-01
-1.609888e+00
9.229721e-02
2.156364e-01
-1.609888e+00
3.121950e-01
-1.138846e-01
3.121950e-01
-1.138846e-01
6.455441e-02
6.455441e-02
-1.080000e+00
-1.080000e+00
-9.130459e-01
-2.445096e-01
-9.130459e-01
-2.445096e-01
-9.004404e-01
-2.302932e+00
5.078303e-02
9.084305e-01
-9.004404e-01
-2.302932e+00
5.078303e-02
9.084305e-01
-1.568579e+00
-1.568579e+00
5.699582e-01
4.644669e-01
-1.169939e-01
4.255706e-01
5.699582e-01
4.644669e-01
-1.169939e-01
4.255706e-01
-6.101852e-01
-6.101852e-01
-5.876422e-01
-5.876422e-01
-5.414911e-01
-5.414911e-01
-1.299031e+00
-1.299031e+00
-1.202855e-01
-1.202855e-01
1.248023e-01
1.248023e-01
4.290390e-01
6.630988e-02
4.290390e-01
6.630988e-02
-1.165385e+00
-1.165385e+00
7.788584e-01
1.887171e+00
7.788584e-01
1.887171e+00
1.282820e+00
1.282820e+00
3.272911e-01
-1.417524e-01
3.272911e-01
-1.417524e-01
1.147872e-01
-2.607750e-01
1.147872e-01
-2.607750e-01
-4.306762e-01
-1.673134e-01
-4.306762e-01
-1.673134e-01
-1.426446e-01
-1.426446e-01
-1.169513e-01
-1.169513e-01
5.481494e-02
-2.188096e-01
5.481494e-02
-2.188096e-01
-5.518293e-01
-5.518293e-01
-5.311550e-01
-2.046355e-01
-5.311550e-01
-2.046355e-01
1.732477e-01
-6.397703e-04
-1.284029e-02
3.143735e-01
1.732477e-01
-6.397703e-04
-1.284029e-02
3.143735e-01
1.670475e-01
1.874200e-02
1.670475e-01
1.874200e-02
8.187231e-02
-6.179473e-02
8.187231e-02
-6.179473e-02
-1.669357e-01
-1.172222e-01
-2.718404e-01
-3.140119e-01
-1.669357e-01
-1.172222e-01
-2.718404e-01
-3.140119e-01
-1.137165e-01
-4.422211e-01
-1.137165e-01
-4.422211e-01
-3.583985e-01
-2.790676e-01
-3.583985e-01
-2.790676e-01
-3.311436e-01
-3.311436e-01
3.680158e-01
4.017528e-01
3.680158e-01
4.017528e-01
6.105265e-01
6.105265e-01
7.632562e-01
7.632562e-01
-1.122938e-01
-1.935471e-01
1.507299e-01
6.460203e-02
-1.122938e-01
-1.935471e-01
1.507299e-01
6.460203e-02
5.338682e-01
5.338682e-01
3.993838e-01
3.993838e-01
8.881717e-03
1.893561e-01
1.325684e-01
-2.444914e-01
8.881717e-03
1.893561e-01
1.325684e-01
-2.444914e-01
1.104220e-01
1.104220e-01
-1.855084e-01
-2.682387e-02
-4.155883e-01
-3.238766e-01
-1.855084e-01
-2.682387e-02
-4.155883e-01
-3.238766e-01
-6.256618e-01
-6.256618e-01
1.291216e-01
-2.634397e-01
1.291216e-01
-2.634397e-01
-1.859046e-01
-5.880394e-01
-1.859046e-01
-5.880394e-01
-3.036301e-01
-3.036301e-01
1.308068e-01
1.308068e-01
-1.302892e-01
-1.302892e-01
1.838309e-01
4.372644e-01
1.838309e-01
4.372644e-01
-3.478202e-01
-2.036025e-01
-3.478202e-01
-2.036025e-01
3.214366e-01
3.214366e-01
-3.010336e-01
-2.856600e-01
3.042566e-01
3.016483e-01
-3.010336e-01
-2.856600e-01
3.042566e-01
3.016483e-01
-2.563752e-01
-2.563752e-01
3.275274e-01
3.275274e-01
8.629222e-01
5.666253e-01
-2.361231e+00
-1.748970e+00
8.629222e-01
5.666253e-01
-2.361231e+00
-1.748970e+00
-4.890860e-02
-4.890860e-02
4.245823e-01
4.245823e-01
4.065697e-01
4.065697e-01
4.749264e-01
-1.063260e+00
4.749264e-01
-1.063260e+00
1.847343e+00
1.847343e+00
-3.796488e-01
-3.796488e-01
2.323359e+00
-7.152895e-01
2.323359e+00
-7.152895e-01
-6.696993e-01
-6.696993e-01
-6.401700e-01
-6.401700e-01
-6.296002e-01
-5.619360e-01
-6.296002e-01
-5.619360e-01
-5.424931e-02
-4.253110e-01
-5.424931e-02
-4.253110e-01
1.136463e-01
-3.003047e-01
-2.347483e+00
-7.315078e-01
1.136463e-01
-3.003047e-01
-2.347483e+00
-7.315078e-01
-2.127171e-02
-2.127171e-02
-7.073647e-02
-7.073647e-02
1.903527e+00
2.589406e+00
1.903527e+00
2.589406e+00
-2.976526e+00
1.413362e+00
-2.976526e+00
1.413362e+00
2.521856e-01
2.521856e-01
1.264373e-01
1.264373e-01
6.481144e-01
5.197565e-01
6.481144e-01
5.197565e-01
6.386504e-01
6.386504e-01
3.545146e-01
6.198194e-01
3.545146e-01
6.198194e-01
4.571628e-01
4.571628e-01
6.569513e-01
6.569513e-01
3.898310e-01
3.898310e-01
3.420360e-01
4.134561e-01
3.420360e-01
4.134561e-01
2.928287e-01
2.928287e-01
2.395564e-01
2.395564e-01
1.248679e-01
3.133810e-01
1.248679e-01
3.133810e-01
3.873369e-02
3.873369e-02
1.369666e-01
1.369666e-01
-7.064482e-02
-9.543966e-02
-7.064482e-02
-9.543966e-02
2.424915e-01
2.424915e-01
2.755225e-01
2.755225e-01
4.158440e-01
1.627511e-01
4.158440e-01
1.627511e-01
3.782840e-01
-2.415283e-01
3.782840e-01
-2.415283e-01
2.697641e-01
2.697641e-01
1.267363e-01
2.054649e-01
1.267363e-01
2.054649e-01
-2.529025e-01
-2.529025e-01
2.778654e-01
2.778654e-01
3.535459e-01
3.535459e-01
3.049334e-01
2.229589e-01
3.049334e-01
2.229589e-01
2.123984e-01
2.123984e-01
1.184126e-01
1.184126e-01
1.663365e-01
9.335770e-02
1.663365e-01
9.335770e-02
1.544870e-01
1.544870e-01
9.947182e-02
9.947182e-02
4.897773e-01
3.291064e-01
4.897773e-01
3.291064e-01
1.542760e-01
1.542760e-01
3.126479e-01
3.126479e-01
4.186973e-01
4.685054e-01
4.186973e-01
4.685054e-01
2.035622e-01
1.067605e-01
2.035622e-01
1.067605e-01
5.956469e-02
5.956469e-02
4.367648e-02
1.024959e-01
4.367648e-02
1.024959e-01
3.388700e-02
3.388700e-02
-7.418567e-02
-7.418567e-02
-7.173103e-02
-7.173103e-02
-3.363992e-01
-1.765887e-01
-3.363992e-01
-1.765887e-01
1.879605e-02
1.879605e-02
9.096099e-02
9.096099e-02
-1.186333e-01
-1.383843e-01
-1.186333e-01
-1.383843e-01
2.584154e-01
2.584154e-01
6.092343e-01
6.092343e-01
4.650956e-01
-6.011410e-02
4.650956e-01
-6.011410e-02
5.942199e-01
5.942199e-01
3.643876e-01
3.643876e-01
6.323436e-03
3.954448e-01
6.323436e-03
3.954448e-01
-5.907131e-02
1.926910e-01
-5.907131e-02
1.926910e-01
7.461432e-03
7.461432e-03
3.405056e-01
1.013094e-01
3.405056e-01
1.013094e-01
3.215481e-01
3.215481e-01
5.727066e-02
5.727066e-02
-3.449911e-01
-3.449911e-01
-7.968405e-02
2.510469e-01
-7.968405e-02
2.510469e-01
-4.215153e-01
-4.215153e-01
-2.318818e-01
-2.318818e-01
-1.114417e-01
-1.763663e-01
-1.114417e-01
-1.763663e-01
-2.990339e-01
-2.990339e-01
-1.151531e-01
-1.151531e-01
-3.900769e-01
-1.375890e-01
-3.900769e-01
-1.375890e-01
-1.784170e-01
-1.784170e-01
-3.896783e-01
-3.896783e-01
-3.565816e-01
-5.232725e-01
-3.565816e-01
-5.232725e-01
4.033067e-01
3.324934e-01
4.033067e-01
3.324934e-01
5.937602e-01
5.937602e-01
7.418786e-01
6.152460e-01
7.418786e-01
6.152460e-01
6.067735e-01
6.067735e-01
2.744411e-01
2.744411e-01
2.006749e-01
2.006749e-01
1.429460e-01
4.117017e-01
1.429460e-01
4.117017e-01
1.287650e-01
1.287650e-01
1.471475e-02
1.471475e-02
-2.831128e-01
-7.238033e-03
-2.831128e-01
-7.238033e-03
-4.486759e-02
-4.486759e-02
-1.733563e-01
-1.733563e-01
-2.090252e-01
-2.870897e-01
-2.090252e-01
-2.870897e-01
-2.815828e-01
-2.815828e-01
-2.850464e-01
-2.850464e-01
-2.264755e-01
-1.899330e-01
-2.264755e-01
-1.899330e-01
6.257626e-01
4.747571e-01
6.257626e-01
4.747571e-01
8.483495e-01
8.483495e-01
6.615795e-01
4.101413e-01
6.615795e-01
4.101413e-01
3.074903e-01
3.074903e-01
8.121375e-01
8.121375e-01
3.413415e-01
3.413415e-01
5.013751e-01
7.865993e-01
5.013751e-01
7.865993e-01
-1.611447e-01
-1.611447e-01
-3.908078e-01
-3.908078e-01
-2.132590e-01
2.450510e-02
-2.132590e-01
2.450510e-02
-5.096482e-01
-5.096482e-01
-4.956191e-01
-4.956191e-01
-3.016612e-01
-3.236977e-01
-3.016612e-01
-3.236977e-01
-2.303966e-01
-2.303966e-01
2.224805e-02
2.224805e-02
-8.665294e-03
-1.111312e-01
-8.665294e-03
-1.111312e-01
2.331820e-01
4.236483e-02
2.331820e-01
4.236483e-02
4.497448e-01
4.497448e-01
3.159934e-01
7.696116e-02
3.159934e-01
7.696116e-02
-9.411427e-02
-9.411427e-02
4.906605e-01
4.906605e-01
5.397093e-01
5.397093e-01
7.074843e-01
4.592068e-01
7.074843e-01
4.592068e-01
4.183905e-01
4.183905e-01
8.987416e-02
8.987416e-02
2.400060e-01
5.127065e-01
2.400060e-01
5.127065e-01
-1.098957e-01
-1.098957e-01
-9.524880e-02
-9.524880e-02
-1.637651e-01
-2.503746e-02
-1.637651e-01
-2.503746e-02
5.464969e-02
5.464969e-02
1.112826e-01
1.112826e-01
1.331958e-01
3.840920e-02
1.331958e-01
3.840920e-02
3.133596e-01
1.549341e-01
3.133596e-01
1.549341e-01
4.940680e-01
4.940680e-01
8.204693e-01
7.790871e-01
8.204693e-01
7.790871e-01
3.782660e-01
3.782660e-01
6.076096e-01
6.076096e-01
6.276336e-01
6.276336e-01
1.728694e-01
5.186073e-01
1.728694e-01
5.186073e-01
1.519263e-01
1.519263e-01
-1.804823e-01
-1.804823e-01
-5.629671e-01
-2.832079e-01
-5.629671e-01
-2.832079e-01
-3.325746e-01
-3.325746e-01
-3.974954e-01
-3.974954e-01
-5.431029e-01
-7.635483e-01
-5.431029e-01
-7.635483e-01
-1.090220e-01
-1.090220e-01
-4.674882e-02
-4.674882e-02
1.119342e-02
-8.959373e-02
1.119342e-02
-8.959373e-02
6.716511e-01
4.197477e-01
6.716511e-01
4.197477e-01
6.721788e-01
6.721788e-01
2.037690e-01
1.980277e-01
2.037690e-01
1.980277e-01
2.674105e-01
2.674105e-01
1.299871e-01
1.299871e-01
-3.059937e-01
-3.059937e-01
-6.241311e-01
-3.438735e-01
-6.241311e-01
-3.438735e-01
-4.117294e-01
-4.117294e-01
-7.199785e-01
-7.199785e-01
-6.724191e-01
-5.056058e-01
-6.724191e-01
-5.056058e-01
-7.398540e-01
-7.398540e-01
-3.891250e-01
-3.891250e-01
-1.944430e-01
-4.856094e-01
-1.944430e-01
-4.856094e-01
-1.505176e-01
-1.505176e-01
7.862085e-04
7.862085e-04
-1.402651e-02
-1.077765e-01
-1.402651e-02
-1.077765e-01
-4.151088e-01
-7.927239e-02
-4.151088e-01
-7.927239e-02
-4.745908e-01
-4.745908e-01
-1.306250e+00
-1.291131e+00
-1.306250e+00
-1.291131e+00
-5.246707e-01
-5.246707e-01
-6.304680e-01
-6.304680e-01
-6.537659e-01
-6.537659e-01
-3.358357e-01
-7.327178e-01
-3.358357e-01
-7.327178e-01
-3.961638e-01
-3.961638e-01
-3.601312e-01
-3.601312e-01
2.865829e-01
3.549286e-02
2.865829e-01
3.549286e-02
-4.730835e-02
-4.730835e-02
7.337428e-02
7.337428e-02
3.372393e-01
4.393652e-01
3.372393e-01
4.393652e-01
3.896064e-02
3.896064e-02
1.462252e-01
1.462252e-01
3.225554e-01
2.770217e-01
3.225554e-01
2.770217e-01
-1.618994e+00
-7.822985e-01
-1.618994e+00
-7.822985e-01
-1.584967e+00
-1.584967e+00
-1.428841e+00
-1.415841e+00
-1.428841e+00
-1.415841e+00
-8.192369e-01
-8.192369e-01
-9.021672e-01
-9.021672e-01
-2.516735e-01
-2.516735e-01
-1.860096e-01
-8.699869e-01
-1.860096e-01
-8.699869e-01
3.272979e-01
3.272979e-01
6.421849e-01
6.421849e-01
5.746701e-01
3.187956e-01
5.746701e-01
3.187956e-01
6.699283e-01
6.699283e-01
5.732318e-01
5.732318e-01
7.152167e-01
7.775323e-01
7.152167e-01
7.775323e-01
4.059687e-01
4.059687e-01
2.903215e-01
2.903215e-01
3.782655e-01
4.461793e-01
3.782655e-01
4.461793e-01
-1.240995e+00
-9.062233e-01
-1.240995e+00
-9.062233e-01
-1.034634e+00
-1.034634e+00
-3.139056e-01
-8.211697e-01
-3.139056e-01
-8.211697e-01
-8.404256e-01
-8.404256e-01
-5.688746e-01
-5.688746e-01
2.365152e-02
2.365152e-02
2.102901e-01
9.316185e-04
2.102901e-01
9.316185e-04
5.850973e-01
5.850973e-01
1.042579e+00
1.042579e+00
1.490068e+00
9.461535e-01
1.490068e+00
9.461535e-01
1.278581e+00
1.278581e+00
1.105319e+00
1.105319e+00
1.247890e+00
1.580422e+00
1.247890e+00
1.580422e+00
6.356484e-01
6.356484e-01
3.554581e-01
3.554581e-01
3.904801e-01
7.182475e-01
3.904801e-01
7.182475e-01
-2.433144e-01
-3.520473e-01
-2.433144e-01
-3.520473e-01
1.017893e-01
1.017893e-01
1.516608e-01
6.206801e-02
1.516608e-01
6.206801e-02
-1.224960e-01
-1.224960e-01
3.228529e-01
3.228529e-01
3.883228e-01
3.883228e-01
4.069142e-01
2.619041e-01
4.069142e-01
2.619041e-01
6.437288e-01
6.437288e-01
1.073488e+00
1.073488e+00
4.194125e-01
3.367226e-01
4.194125e-01
3.367226e-01
1.254772e+00
1.254772e+00
9.390895e-01
9.390895e-01
4.677589e-01
4.734873e-01
4.677589e-01
4.734873e-01
5.584459e-01
5.584459e-01
4.063965e-01
4.063965e-01
1.027041e-01
2.906399e-01
1.027041e-01
2.906399e-01
2.333687e-01
-6.166801e-02
2.333687e-01
-6.166801e-02
9.737764e-02
9.737764e-02
5.309016e-02
3.880705e-01
5.309016e-02
3.880705e-01
9.354816e-02
9.354816e-02
-4.964567e-03
-4.964567e-03
3.437579e-01
3.437579e-01
2.885711e-01
-2.376162e-01
2.885711e-01
-2.376162e-01
3.307940e-01
3.307940e-01
4.182712e-02
4.182712e-02
-9.876307e-02
2.918428e-01
-9.876307e-02
2.918428e-01
1.467327e-02
1.467327e-02
1.775970e-01
1.775970e-01
2.525368e-01
1.332768e-01
2.525368e-01
1.332768e-01
1.701650e-01
1.701650e-01
3.781403e-02
3.781403e-02
7.671925e-02
1.236190e-01
7.671925e-02
1.236190e-01
1.497353e-01
2.755115e-01
4.030622e-01
4.333830e-01
1.497353e-01
2.755115e-01
4.030622e-01
4.333830e-01
1.742155e-01
3.691387e-01
1.742155e-01
3.691387e-01
6.399960e-01
7.265079e-01
6.399960e-01
7.265079e-01
4.921165e-01
4.921165e-01
2.879565e-01
4.012889e-01
2.879565e-01
4.012889e-01
2.558117e-01
3.490196e-01
2.558117e-01
3.490196e-01
2.374693e-01
4.877531e-01
2.374693e-01
4.877531e-01
1.176992e-01
3.545572e-01
1.176992e-01
3.545572e-01
2.785019e-01
2.785019e-01
6.429151e-01
1.011478e-01
6.429151e-01
1.011478e-01
7.386515e-01
7.386515e-01
6.986799e-01
4.195276e-01
6.986799e-01
4.195276e-01
4.273946e-02
4.273946e-02
7.001337e-01
7.001337e-01
4.304262e-01
4.304262e-01
7.545432e-01
9.430988e-01
7.545432e-01
9.430988e-01
1.804091e-01
1.804091e-01
2.826925e-01
2.826925e-01
5.693845e-01
2.090560e-01
5.693845e-01
2.090560e-01
8.840793e-01
8.840793e-01
9.336899e-01
6.766313e-01
9.336899e-01
6.766313e-01
2.101885e-01
2.101885e-01
1.222773e+00
1.222773e+00
9.444469e-01
9.444469e-01
8.472599e-01
9.712449e-01
8.472599e-01
9.712449e-01
1.458786e-01
1.458786e-01
1.160193e-01
1.160193e-01
3.752792e-01
-2.052221e-02
3.752792e-01
-2.052221e-02
6.873435e-01
6.873435e-01
2.935078e-01
7.836150e-02
2.935078e-01
7.836150e-02
1.537638e-02
1.537638e-02
6.807532e-01
6.807532e-01
4.916234e-01
4.916234e-01
9.123541e-02
3.220823e-01
9.123541e-02
3.220823e-01
-1.551544e-01
-1.551544e-01
-5.037281e-01
-5.037281e-01
1.204446e-01
2.377359e-01
1.204446e-01
2.377359e-01
9.348223e-02
9.348223e-02
1.162290e-01
1.373193e-01
1.162290e-01
1.373193e-01
8.529144e-02
8.529144e-02
1.107339e-02
1.107339e-02
-2.347359e-01
-2.347359e-01
-1.677557e-01
1.246923e-01
-1.677557e-01
1.246923e-01
-3.095439e-01
-3.095439e-01
-2.135437e-01
-2.135437e-01
-6.051437e-02
-2.444474e-01
-6.051437e-02
-2.444474e-01
-7.054514e-03
-7.054514e-03
-8.407324e-02
-1.798026e-01
-8.407324e-02
-1.798026e-01
-4.340506e-01
-4.340506e-01
-1.899691e-02
-1.899691e-02
-2.917101e-02
-2.917101e-02
-3.117937e-02
-1.656852e-01
-3.117937e-02
-1.656852e-01
-1.490611e-01
-1.490611e-01
-8.794449e-02
-8.794449e-02
-9.913654e-01
-4.052618e-01
-9.913654e-01
-4.052618e-01
-1.891966e-01
-1.891966e-01
-9.258191e-02
-5.797990e-01
-9.258191e-02
-5.797990e-01
-4.374320e-01
-4.374320e-01
1.089675e-01
1.089675e-01
-8.007023e-02
-8.007023e-02
2.097790e-01
3.859290e-01
2.097790e-01
3.859290e-01
3.274483e-01
3.274483e-01
5.799843e-01
5.799843e-01
3.030412e-01
1.732671e-01
3.030412e-01
1.732671e-01
5.323223e-01
5.323223e-01
3.998942e-01
3.998942e-01
2.780234e-01
4.264002e-01
2.780234e-01
4.264002e-01
3.362485e-01
3.362485e-01
3.423620e-01
3.423620e-01
4.192826e-01
2.426156e-01
4.192826e-01
2.426156e-01
1.296385e-01
1.296385e-01
-1.001165e-01
-1.001165e-01
-1.301734e-01
1.622304e-01
-1.301734e-01
1.622304e-01
-6.182878e-02
-6.182878e-02
-2.218182e-02
-2.218182e-02
-1.343457e-01
7.197307e-01
-1.343457e-01
7.197307e-01
-1.883517e-01
-1.883517e-01
-5.417904e-01
-1.100398e+00
-5.417904e-01
-1.100398e+00
3.190786e-01
3.190786e-01
3.870251e-01
3.870251e-01
4.495333e-01
4.495333e-01
2.855084e-01
1.696937e-01
2.855084e-01
1.696937e-01
3.401232e-01
3.401232e-01
2.441348e-01
2.441348e-01
7.512286e-01
7.702578e-01
7.512286e-01
7.702578e-01
3.814219e-01
3.814219e-01
3.122419e-01
3.122419e-01
-3.087973e-01
2.451987e-01
-3.087973e-01
2.451987e-01
1.587023e-01
1.587023e-01
2.527158e-01
2.527158e-01
-1.100380e-01
-5.096757e-01
-1.100380e-01
-5.096757e-01
8.328225e-02
8.328225e-02
-5.640846e-02
-5.640846e-02
2.244729e-01
1.211512e-01
2.244729e-01
1.211512e-01
2.944479e-02
2.944479e-02
2.303336e-01
2.303336e-01
3.132218e-01
3.132218e-01
-4.822109e-02
-4.822109e-02
-2.518639e-02
3.244724e-01
-2.518639e-02
3.244724e-01
1.965690e-01
1.965690e-01
1.704016e-01
1.704016e-01
-1.009441e-01
-2.709337e-01
-1.009441e-01
-2.709337e-01
-9.644444e-01
-9.644444e-01
-5.885820e-01
-5.885820e-01
-6.287406e-01
-9.203030e-01
-6.287406e-01
-9.203030e-01
2.830457e-01
2.830457e-01
1.384786e-01
1.384786e-01
1.159747e+00
1.324604e+00
1.159747e+00
1.324604e+00
1.401922e+00
1.401922e+00
1.502791e+00
1.502791e+00
9.473467e-01
6.651317e-01
9.473467e-01
6.651317e-01
-5.530750e-02
-5.530750e-02
3.264769e-01
3.264769e-01
-4.097383e-01
-9.186452e-01
-4.097383e-01
-9.186452e-01
-1.478917e+00
-1.478917e+00
-7.698912e-01
-7.698912e-01
-3.148595e-01
-1.567032e-01
-3.148595e-01
-1.567032e-01
-7.466606e-03
4.659506e-01
-7.466606e-03
4.659506e-01
-5.979355e-02
-3.815982e-01
-5.979355e-02
-3.815982e-01
1.451906e-01
-1.392260e-01
1.451906e-01
-1.392260e-01
2.104691e-01
1.425888e-01
1.185433e-01
3.974086e-01
2.104691e-01
1.425888e-01
1.185433e-01
3.974086e-01
2.871671e-01
-8.643154e-02
2.871671e-01
-8.643154e-02
-3.857628e-02
6.589667e-02
-3.857628e-02
6.589667e-02
2.661207e-01
2.661207e-01
4.059937e-02
-5.493429e-02
-5.977102e-02
-1.788958e-01
4.059937e-02
-5.493429e-02
-5.977102e-02
-1.788958e-01
-5.945692e-02
6.083701e-02
-5.945692e-02
6.083701e-02
3.508715e-02
1.163514e-01
3.508715e-02
1.163514e-01
3.816130e-02
3.816130e-02
1.873273e-01
3.502054e-02
-2.863930e-02
3.561206e-02
1.873273e-01
3.502054e-02
-2.863930e-02
3.561206e-02
1.223116e-01
2.268109e-02
1.223116e-01
2.268109e-02
-1.869416e-01
-1.336580e-01
-1.869416e-01
-1.336580e-01
1.105625e-01
1.105625e-01
-2.684613e-01
-3.471917e-01
-7.463057e-02
-2.684613e-01
-3.471917e-01
-7.463057e-02
-2.860697e-01
2.170672e-02
-2.860697e-01
2.170672e-02
2.434773e-01
-2.304111e-01
2.434773e-01
-2.304111e-01
-3.377031e-01
-3.377031e-01
8.427762e-01
3.845397e-01
2.892722e-01
5.148442e-01
8.427762e-01
3.845397e-01
2.892722e-01
5.148442e-01
4.130165e-01
4.130165e-01
5.717987e-01
5.717987e-01
1.419182e-02
-3.516859e-02
1.681085e-01
2.050644e-01
1.419182e-02
-3.516859e-02
1.681085e-01
2.050644e-01
2.903496e-01
-5.853335e-02
2.903496e-01
-5.853335e-02
-7.448997e-02
2.512675e-01
-7.448997e-02
2.512675e-01
1.993983e-01
1.993983e-01
-7.001235e-02
4.671253e-01
7.265592e-01
-4.546751e-01
-7.001235e-02
4.671253e-01
7.265592e-01
-4.546751e-01
6.227305e-01
6.227305e-01
8.819467e-01
8.819467e-01
1.240251e-01
1.240251e-01
3.916274e-03
-1.005988e-01
3.916274e-03
-1.005988e-01
6.693559e-02
6.693559e-02
-7.522753e-02
-2.522829e-03
-7.522753e-02
-2.522829e-03
1.815916e-01
1.815916e-01
1.169542e-02
-1.191323e-01
9.050773e-02
1.492380e-01
1.169542e-02
-1.191323e-01
9.050773e-02
1.492380e-01
-2.732939e-02
-2.732939e-02
1.979054e-02
1.427223e-01
1.979054e-02
1.427223e-01
1.421386e-01
1.421386e-01
3.087464e-02
8.091473e-02
4.741763e-02
-1.424950e-02
3.087464e-02
8.091473e-02
4.741763e-02
-1.424950e-02
1.664166e-02
4.863729e-02
1.664166e-02
4.863729e-02
4.533926e-02
4.533926e-02
7.899120e-02
6.021937e-02
7.899120e-02
6.021937e-02
1.344188e-01
1.344188e-01
1.028500e+00
6.395725e-01
4.502471e-01
5.287433e-01
1.028500e+00
6.395725e-01
4.502471e-01
5.287433e-01
1.345307e+00
1.345307e+00
7.807109e-01
7.807109e-01
1.253391e+00
5.144796e-01
1.253391e+00
5.144796e-01
8.095520e-01
8.095520e-01
2.038577e-01
7.076680e-01
2.038577e-01
7.076680e-01
3.028458e-01
1.251244e-01
1.090070e-01
3.028458e-01
1.251244e-01
1.090070e-01
-1.802713e-01
-1.802713e-01
-1.112795e-02
-1.112795e-02
9.060304e-02
-2.054938e-01
1.323828e-01
4.707583e-01
9.060304e-02
-2.054938e-01
1.323828e-01
4.707583e-01
-3.037613e-01
2.928592e-02
-3.037613e-01
2.928592e-02
1.566856e-01
1.566856e-01
4.811134e-01
4.811134e-01
1.958943e-02
1.376117e-01
-4.107822e-01
-4.942506e-01
1.958943e-02
1.376117e-01
-4.107822e-01
-4.942506e-01
-1.060385e-02
-3.241726e-01
-1.060385e-02
-3.241726e-01
-2.017065e-01
-6.142720e-01
-2.017065e-01
-6.142720e-01
-7.782506e-01
-7.782506e-01
1.701205e-01
-2.888456e-01
-2.820936e-01
-1.949037e-01
1.701205e-01
-2.888456e-01
-2.820936e-01
-1.949037e-01
2.895547e-01
2.895547e-01
-1.724614e-02
-1.724614e-02
2.197986e-01
2.197986e-01
-4.317658e-02
-4.317658e-02
5.095951e-02
1.344340e-02
5.095951e-02
1.344340e-02
1.242986e+00
6.255303e-01
2.265688e+00
2.989425e+00
1.242986e+00
6.255303e-01
2.265688e+00
2.989425e+00
3.536910e-01
1.279588e+00
3.536910e-01
1.279588e+00
7.593290e-01
1.317697e+00
7.593290e-01
1.317697e+00
2.210836e+00
2.210836e+00
7.732013e-02
-5.832863e-02
7.732013e-02
-5.832863e-02
2.876722e-01
2.876722e-01
-6.849329e-01
-6.325121e-01
-6.849329e-01
-6.325121e-01
-2.272560e-01
-2.272560e-01
4.550302e-01
2.398286e-01
4.550302e-01
2.398286e-01
4.689300e-01
4.689300e-01
1.271619e-01
1.271619e-01
-5.220660e-02
-5.220660e-02
2.528527e+00
8.021966e-01
2.528527e+00
8.021966e-01
1.875533e+00
1.875533e+00
2.456566e-01
6.357872e-02
2.456566e-01
6.357872e-02
5.891730e-02
-3.021122e-02
5.891730e-02
-3.021122e-02
1.460641e-03
2.277395e-01
1.864413e-01
-2.689053e-02
1.460641e-03
2.277395e-01
1.864413e-01
-2.689053e-02
2.691687e-01
1.357109e-01
2.691687e-01
1.357109e-01
7.953942e-02
7.953942e-02
-1.365364e-02
-9.122364e-02
-1.365364e-02
-9.122364e-02
1.626080e-01
1.626080e-01
-9.793979e-02
-9.793979e-02
-3.335825e-01
-3.335825e-01
3.846845e-01
-1.300423e-01
3.846845e-01
-1.300423e-01
6.897593e-02
-2.824756e-01
6.897593e-02
-2.824756e-01
6.085152e-01
6.085152e-01
5.590009e-01
5.590009e-01
2.248700e-01
2.248700e-01
3.655019e-01
3.655019e-01
-9.316893e-02
-9.316893e-02
-7.400800e-02
-7.400800e-02
-5.107330e-02
-1.013673e-02
-5.107330e-02
-1.013673e-02
1.500904e-01
-3.131712e-01
1.500904e-01
-3.131712e-01
-2.079528e-02
-2.079528e-02
-3.483896e-01
-3.483896e-01
1.203455e-01
1.203455e-01
9.908547e-02
9.908547e-02
1.377897e-01
3.736588e-01
1.377897e-01
3.736588e-01
-1.758113e-01
-1.758113e-01
7.817141e-02
-1.000853e-01
7.817141e-02
-1.000853e-01
2.034342e-01
2.034342e-01
-6.929510e-02
4.657086e-02
-6.929510e-02
4.657086e-02
-2.867982e-01
2.159478e-01
-2.867982e-01
2.159478e-01
4.379655e-01
7.926435e-02
4.379655e-01
7.926435e-02
-3.078290e-01
5.927667e-02
-3.078290e-01
5.927667e-02
-1.562158e-01
2.627947e-04
-1.562158e-01
2.627947e-04
9.096601e-02
2.520024e-01
9.096601e-02
2.520024e-01
-9.743471e-02
8.320070e-03
-9.743471e-02
8.320070e-03
-1.887341e-01
-2.956826e-02
-1.887341e-01
-2.956826e-02
-3.813558e-02
1.266995e-01
-3.813558e-02
1.266995e-01
8.689373e-03
-7.547647e-02
8.689373e-03
-7.547647e-02
1.276363e-01
-4.292911e-02
1.276363e-01
-4.292911e-02
-4.932091e-02
-1.281329e-01
-4.932091e-02
-1.281329e-01
-9.618145e-02
-1.284424e-01
-9.618145e-02
-1.284424e-01
-2.013922e-02
-4.954711e-03
-2.013922e-02
-4.954711e-03
5.042093e-02
-1.223667e-01
5.042093e-02
-1.223667e-01
-9.638873e-02
-6.361998e-03
-9.638873e-02
-6.361998e-03
-2.954345e-01
-1.267695e-01
-2.954345e-01
-1.267695e-01
-1.012646e-02
2.086980e-02
-1.012646e-02
2.086980e-02
-9.787775e-02
1.157084e-02
-9.787775e-02
1.157084e-02
1.372456e-01
3.266529e-02
1.372456e-01
3.266529e-02
-1.709634e-01
4.377807e-02
-1.709634e-01
4.377807e-02
1.704598e-01
-5.120971e-03
1.704598e-01
-5.120971e-03
1.694153e-01
1.415634e-01
1.694153e-01
1.415634e-01
-7.797673e-03
-1.985573e-01
-7.797673e-03
-1.985573e-01
5.781604e-02
1.815841e-01
5.781604e-02
1.815841e-01
5.320142e-02
1.737473e-01
5.320142e-02
1.737473e-01
1.285425e-01
5.206025e-02
1.285425e-01
5.206025e-02
1.782590e-01
1.194460e-01
1.782590e-01
1.194460e-01
6.366312e-02
4.069819e-02
6.366312e-02
4.069819e-02
3.920102e-02
8.526676e-02
3.920102e-02
8.526676e-02
2.020201e-02
7.613884e-02
2.020201e-02
7.613884e-02
4.781940e-03
7.152832e-02
4.781940e-03
7.152832e-02
8.393996e-02
2.131564e-01
8.393996e-02
2.131564e-01
-9.953620e-02
1.603242e-01
-9.953620e-02
1.603242e-01
-7.816193e-02
6.906385e-02
-7.816193e-02
6.906385e-02
-4.044807e-02
-4.770726e-03
-4.044807e-02
-4.770726e-03
-4.679772e-02
-2.162605e-01
-4.679772e-02
-2.162605e-01
1.386292e-01
-2.346421e-02
1.386292e-01
-2.346421e-02
-3.170812e-02
-1.835775e-01
-3.170812e-02
-1.835775e-01
3.201435e-01
2.247851e-01
3.201435e-01
2.247851e-01
2.510011e-01
1.801031e-01
2.510011e-01
1.801031e-01
2.018335e-01
1.449993e-01
2.018335e-01
1.449993e-01
-4.895571e-02
-4.895571e-02
-3.261352e-02
-3.261352e-02
-9.725937e-02
2.168202e-02
-9.725937e-02
2.168202e-02
-5.778181e-02
-5.778181e-02
-4.110576e-02
-4.110576e-02
-7.963239e-02
-9.238114e-02
-7.963239e-02
-9.238114e-02
1.414850e-02
1.414850e-02
-3.556579e-02
-3.556579e-02
-1.079571e-01
-2.093695e-01
-1.079571e-01
-2.093695e-01
-1.122130e-01
-1.122130e-01
1.250327e-02
1.250327e-02
6.527990e-02
-1.809810e-01
6.527990e-02
-1.809810e-01
-3.508391e-02
-3.508391e-02
-6.318146e-03
-6.318146e-03
-4.451680e-02
2.072802e-01
-4.451680e-02
2.072802e-01
3.693497e-02
3.693497e-02
-5.825733e-02
-5.825733e-02
3.183685e-02
7.271610e-02
3.183685e-02
7.271610e-02
2.581980e-02
2.581980e-02
-8.702797e-03
-8.702797e-03
8.812075e-02
6.494659e-02
8.812075e-02
6.494659e-02
4.976691e-02
4.976691e-02
1.205057e-01
1.205057e-01
2.657599e-01
2.117183e-01
2.657599e-01
2.117183e-01
3.651333e-02
3.651333e-02
1.856866e-02
1.856866e-02
-3.193477e-02
1.353165e-01
-3.193477e-02
1.353165e-01
-8.259368e-02
-8.259368e-02
-4.486230e-04
-4.486230e-04
-5.247907e-02
-2.636678e-01
-5.247907e-02
-2.636678e-01
1.179242e-01
1.179242e-01
-5.033960e-02
-5.033960e-02
-5.257705e-02
2.933100e-02
-5.257705e-02
2.933100e-02
-2.356175e-01
-2.356175e-01
-1.554474e-01
-1.554474e-01
-2.054844e-01
-8.668658e-02
-2.054844e-01
-8.668658e-02
-4.100740e-02
-4.100740e-02
-6.628337e-02
-6.628337e-02
-1.159444e-01
-1.810370e-01
-1.159444e-01
-1.810370e-01
-1.619190e-02
-1.619190e-02
4.415695e-02
4.415695e-02
-2.362915e-01
-1.612486e-01
-2.362915e-01
-1.612486e-01
1.483213e-01
1.483213e-01
8.741987e-02
8.741987e-02
-4.321702e-02
-6.517681e-02
-4.321702e-02
-6.517681e-02
9.709759e-02
9.709759e-02
8.591060e-02
8.591060e-02
1.164865e-01
2.140565e-01
1.164865e-01
2.140565e-01
-6.422591e-02
-6.422591e-02
-7.145658e-02
-7.145658e-02
-5.993199e-02
-7.369239e-02
-5.993199e-02
-7.369239e-02
-1.461269e-01
-1.461269e-01
-6.209279e-02
-6.209279e-02
-1.358951e-01
-5.067006e-02
-1.358951e-01
-5.067006e-02
2.160244e-01
2.160244e-01
1.568970e-01
1.568970e-01
1.000209e-01
-5.501060e-02
1.000209e-01
-5.501060e-02
7.714493e-02
7.714493e-02
1.513747e-01
1.513747e-01
1.943272e-01
2.160276e-01
1.943272e-01
2.160276e-01
2.123447e-01
2.123447e-01
1.639914e-01
1.639914e-01
1.424729e-01
9.306680e-02
1.424729e-01
9.306680e-02
9.104604e-02
9.104604e-02
9.040201e-02
9.040201e-02
1.170791e-01
5.906270e-02
1.170791e-01
5.906270e-02
1.388351e-01
1.388351e-01
1.789237e-02
1.789237e-02
-1.564807e-01
6.943010e-02
-1.564807e-01
6.943010e-02
-1.044892e-01
-1.044892e-01
-5.241219e-02
-5.241219e-02
-3.345637e-02
-9.395231e-02
-3.345637e-02
-9.395231e-02
-5.900896e-02
-5.900896e-02
-1.298227e-01
-1.298227e-01
-1.072585e-01
-7.746760e-02
-1.072585e-01
-7.746760e-02
1.638592e-02
1.638592e-02
2.220005e-03
2.220005e-03
2.168779e-01
3.043645e-02
2.168779e-01
3.043645e-02
-1.613014e-01
-1.613014e-01
-2.932251e-02
-2.932251e-02
-5.430481e-02
6.030511e-02
-5.430481e-02
6.030511e-02
2.108213e-02
2.108213e-02
-3.097245e-02
-3.097245e-02
5.105296e-02
3.876721e-02
5.105296e-02
3.876721e-02
-1.890065e-01
-1.890065e-01
-2.264679e-01
-2.264679e-01
-1.923704e-01
-1.317319e-01
-1.923704e-01
-1.317319e-01
-8.234022e-02
-8.234022e-02
-9.373120e-02
-9.373120e-02
-1.779592e-01
-1.288440e-01
-1.779592e-01
-1.288440e-01
-8.654695e-02
-8.654695e-02
-1.677515e-02
-1.677515e-02
5.587840e-02
-1.055027e-01
5.587840e-02
-1.055027e-01
2.011525e-02
2.011525e-02
-1.466119e-02
-1.466119e-02
-1.800897e-01
-6.590847e-02
-1.800897e-01
-6.590847e-02
-1.716547e-02
-1.716547e-02
-1.463342e-02
-1.463342e-02
-7.532335e-02
1.304916e-02
-7.532335e-02
1.304916e-02
1.404973e-01
1.404973e-01
1.160023e-01
1.160023e-01
1.466953e-01
-9.471565e-02
1.466953e-01
-9.471565e-02
-1.129491e-01
-1.129491e-01
8.246559e-02
8.246559e-02
1.606824e-01
1.513573e-01
1.606824e-01
1.513573e-01
1.749948e-01
1.749948e-01
3.319488e-02
3.319488e-02
-8.277371e-02
1.611055e-01
-8.277371e-02
1.611055e-01
-1.617130e-01
-1.617130e-01
-2.611975e-01
-2.611975e-01
-2.370732e-01
-2.829458e-01
-2.370732e-01
-2.829458e-01
-9.635429e-02
-9.635429e-02
6.850206e-02
6.850206e-02
1.009670e-01
-6.121394e-03
1.009670e-01
-6.121394e-03
1.123418e-01
1.123418e-01
-1.316545e-02
-1.316545e-02
-6.176596e-02
9.689138e-02
-6.176596e-02
9.689138e-02
-1.239205e-01
-1.239205e-01
9.912930e-02
9.912930e-02
4.439990e-02
-1.879765e-01
4.439990e-02
-1.879765e-01
1.153458e-01
1.153458e-01
-3.456747e-02
-3.456747e-02
-2.931856e-02
-1.253273e-03
-2.931856e-02
-1.253273e-03
4.186608e-02
4.186608e-02
6.057073e-02
6.057073e-02
-7.287209e-02
3.592491e-02
-7.287209e-02
3.592491e-02
-3.560651e-02
-3.560651e-02
-8.186583e-02
-8.186583e-02
3.736346e-03
1.247999e-01
3.736346e-03
1.247999e-01
4.817360e-02
4.817360e-02
1.939622e-03
1.939622e-03
5.573614e-02
3.590709e-02
5.573614e-02
3.590709e-02
-8.684292e-02
-8.684292e-02
2.245469e-02
2.245469e-02
5.272033e-03
-5.795475e-02
5.272033e-03
-5.795475e-02
-1.869333e-02
-1.869333e-02
-1.972594e-01
-1.972594e-01
-1.649567e-02
1.860598e-01
-1.649567e-02
1.860598e-01
-1.159524e-01
-1.159524e-01
-2.841242e-02
-2.841242e-02
8.499768e-02
-1.408801e-01
8.499768e-02
-1.408801e-01
4.628493e-02
4.628493e-02
2.896629e-01
2.896629e-01
2.845786e-01
1.546926e-01
2.845786e-01
1.546926e-01
2.913374e-01
2.913374e-01
3.007864e-02
3.007864e-02
-2.224446e-01
1.081148e-01
-2.224446e-01
1.081148e-01
-1.263610e-01
-1.263610e-01
-1.864692e-01
-1.864692e-01
-3.869216e-01
-4.248038e-01
-3.869216e-01
-4.248038e-01
-1.832419e-01
-1.832419e-01
-1.098706e-01
-1.098706e-01
-3.723260e-02
-1.194949e-01
-3.723260e-02
-1.194949e-01
8.423491e-02
8.423491e-02
7.857878e-02
7.857878e-02
6.242457e-02
2.937917e-02
6.242457e-02
2.937917e-02
-5.671177e-02
-5.671177e-02
-4.473744e-02
-4.473744e-02
-1.324176e-01
-1.318546e-01
-1.324176e-01
-1.318546e-01
1.453066e-02
1.453066e-02
-7.316681e-03
-7.316681e-03
-3.134168e-02
1.120453e-01
-3.134168e-02
1.120453e-01
-1.143199e-01
-1.143199e-01
-4.132797e-02
-4.132797e-02
-1.442564e-02
-9.959675e-02
-1.442564e-02
-9.959675e-02
1.946053e-02
1.946053e-02
-2.435820e-02
-2.435820e-02
3.324527e-01
1.312598e-01
3.324527e-01
1.312598e-01
7.672535e-02
5.836497e-02
7.672535e-02
5.836497e-02
-4.217176e-02
-4.217176e-02
-6.840244e-03
3.293794e-02
-6.840244e-03
3.293794e-02
1.652502e-01
1.652502e-01
-9.061112e-02
-9.061112e-02
9.368777e-03
9.368777e-03
9.302070e-02
-1.343749e-03
9.302070e-02
-1.343749e-03
1.475804e-01
1.475804e-01
1.214770e-01
1.214770e-01
-2.370402e-01
-1.197271e-01
-2.370402e-01
-1.197271e-01
-2.287909e-01
-2.287909e-01
-3.218251e-01
-3.218251e-01
5.977597e-02
-1.671941e-02
5.977597e-02
-1.671941e-02
1.463174e-02
1.463174e-02
1.136546e-01
1.136546e-01
1.193114e-01
4.828096e-02
1.193114e-01
4.828096e-02
5.331739e-02
5.331739e-02
1.148983e-01
1.148983e-01
9.703926e-02
1.434956e-01
9.703926e-02
1.434956e-01
6.965004e-03
6.965004e-03
-3.176770e-01
-3.176770e-01
-3.043638e-01
-7.077722e-02
-3.043638e-01
-7.077722e-02
-4.223860e-01
-4.223860e-01
-3.692779e-01
-3.692779e-01
-4.258431e-01
-3.944936e-01
-4.258431e-01
-3.944936e-01
-3.798100e-02
2.093359e-01
-3.798100e-02
2.093359e-01
3.209033e-03
3.209033e-03
-8.394131e-02
2.791443e-02
-8.394131e-02
2.791443e-02
1.219462e-01
1.219462e-01
6.424870e-03
6.424870e-03
1.098313e-02
1.098313e-02
8.612003e-02
-4.671680e-02
8.612003e-02
-4.671680e-02
-1.521933e-01
-1.521933e-01
-2.794807e-01
-2.794807e-01
2.020709e-02
5.761095e-02
2.020709e-02
5.761095e-02
-3.889068e-02
-3.889068e-02
1.363223e-01
1.363223e-01
3.830714e-02
-5.182896e-02
3.830714e-02
-5.182896e-02
1.257210e-01
1.257210e-01
6.371999e-02
6.371999e-02
-2.722780e-02
1.480217e-01
-2.722780e-02
1.480217e-01
3.609714e-02
3.609714e-02
1.132187e-01
1.132187e-01
3.446111e-02
-2.357097e-02
3.446111e-02
-2.357097e-02
1.554161e-01
1.554161e-01
1.658653e-02
1.658653e-02
1.659655e-01
1.509086e-01
1.659655e-01
1.509086e-01
-1.990537e-01
-1.990537e-01
-2.915008e-01
-2.915008e-01
-9.379620e-04
7.121185e-03
-9.379620e-04
7.121185e-03
2.301127e-01
6.191001e-01
2.301127e-01
6.191001e-01
-7.843657e-02
-7.843657e-02
2.195223e-02
3.640960e-01
2.195223e-02
3.640960e-01
9.458901e-01
9.458901e-01
1.933767e-01
1.933767e-01
1.420037e-01
1.420037e-01
4.529408e-02
2.203297e-01
4.529408e-02
2.203297e-01
1.863342e-02
1.863342e-02
1.726076e-01
1.726076e-01
2.257189e-01
-1.099776e-01
2.257189e-01
-1.099776e-01
-1.616455e-02
-1.616455e-02
-7.977986e-02
-7.977986e-02
6.764998e-03
2.539079e-01
6.764998e-03
2.539079e-01
-1.205566e-01
-1.205566e-01
-7.532280e-02
-7.532280e-02
-2.114949e-01
-2.687635e-01
-2.114949e-01
-2.687635e-01
1.285511e-01
1.285511e-01
1.330145e-03
1.330145e-03
7.478433e-04
3.538106e-02
7.478433e-04
3.538106e-02
-8.626131e-02
-8.626131e-02
1.341119e-01
1.341119e-01
1.691120e-01
-1.674844e-01
1.691120e-01
-1.674844e-01
1.887224e-01
1.887224e-01
9.134666e-02
9.134666e-02
2.244508e-01
3.824333e-01
2.244508e-01
3.824333e-01
3.848195e-01
8.950506e-01
3.848195e-01
8.950506e-01
1.048165e-02
1.048165e-02
-9.358097e-02
2.180114e-01
-9.358097e-02
2.180114e-01
7.509212e-01
7.509212e-01
-1.433607e-01
-1.433607e-01
-1.325604e-01
-1.325604e-01
-3.567226e-01
-3.321949e-01
-3.567226e-01
-3.321949e-01
-1.478591e-01
-1.478591e-01
1.445974e-02
1.445974e-02
-2.405051e-01
-2.827359e-01
-2.405051e-01
-2.827359e-01
2.568792e-01
2.568792e-01
1.498321e-01
1.498321e-01
1.455625e-01
3.305981e-02
1.455625e-01
3.305981e-02
-2.229200e-01
-2.229200e-01
-2.789195e-01
-2.789195e-01
-6.829548e-02
-7.330993e-02
-6.829548e-02
-7.330993e-02
5.049468e-02
5.049468e-02
2.635238e-02
2.635238e-02
4.955067e-02
1.625924e-01
4.955067e-02
1.625924e-01
-1.463265e-01
-1.463265e-01
1.694379e-01
1.694379e-01
8.859910e-02
-6.418218e-02
8.859910e-02
-6.418218e-02
3.965219e-01
3.965219e-01
4.038850e-01
4.038850e-01
1.908624e-01
1.458488e-01
1.908624e-01
1.458488e-01
2.465344e-01
6.235246e-01
2.465344e-01
6.235246e-01
-1.817361e-01
-1.817361e-01
-8.449484e-02
3.961051e-01
-8.449484e-02
3.961051e-01
7.291658e-01
7.291658e-01
-3.254957e-01
-3.254957e-01
-1.036955e-01
-1.036955e-01
2.845891e-01
-1.038228e-01
2.845891e-01
-1.038228e-01
-5.403847e-02
-5.403847e-02
-1.131374e-01
-1.131374e-01
9.922377e-02
2.213115e-01
9.922377e-02
2.213115e-01
4.070762e-02
4.070762e-02
-6.070600e-02
-6.070600e-02
-9.073561e-02
1.971018e-01
-9.073561e-02
1.971018e-01
-1.086440e-01
-1.086440e-01
-4.202370e-02
-4.202370e-02
5.043782e-03
-1.621188e-01
5.043782e-03
-1.621188e-01
8.101732e-02
8.101732e-02
3.136983e-02
3.136983e-02
1.037713e-01
1.105123e-01
1.037713e-01
1.105123e-01
-1.018196e-01
-1.018196e-01
1.494710e-01
1.494710e-01
2.047061e-01
1.023501e-01
2.047061e-01
1.023501e-01
4.928629e-02
4.928629e-02
-2.112023e-01
-2.112023e-01
-2.068802e-01
-8.344792e-03
-2.068802e-01
-8.344792e-03
2.498129e-01
5.071346e-01
2.498129e-01
5.071346e-01
7.848931e-02
7.848931e-02
2.668750e-01
-8.147234e-03
2.668750e-01
-8.147234e-03
4.318733e-02
4.318733e-02
-5.135349e-02
-5.135349e-02
2.480281e-01
2.480281e-01
-5.894331e-02
-1.776297e-01
-5.894331e-02
-1.776297e-01
2.669926e-01
2.669926e-01
6.440060e-02
6.440060e-02
4.709722e-02
3.799756e-01
4.709722e-02
3.799756e-01
1.418240e-01
1.418240e-01
3.753504e-02
3.753504e-02
3.500997e-02
-1.127908e-01
3.500997e-02
-1.127908e-01
-8.474134e-02
-8.474134e-02
2.961296e-02
2.961296e-02
1.630645e-02
2.612220e-02
1.630645e-02
2.612220e-02
-2.978001e-02
-2.978001e-02
-2.760403e-02
-2.760403e-02
-1.791088e-01
-2.338559e-01
-1.791088e-01
-2.338559e-01
1.142163e-01
1.142163e-01
6.902891e-03
6.902891e-03
-1.090985e-02
1.246602e-01
-1.090985e-02
1.246602e-01
-2.317882e-02
-2.317882e-02
8.528293e-02
8.528293e-02
1.795556e-01
5.569896e-03
1.795556e-01
5.569896e-03
8.736646e-02
1.477447e-01
6.888690e-02
-1.223992e-01
8.736646e-02
1.477447e-01
6.888690e-02
-1.223992e-01
-2.076061e-03
-2.440896e-02
-2.076061e-03
-2.440896e-02
3.277526e-03
-8.594023e-02
3.277526e-03
-8.594023e-02
-4.151801e-02
-4.151801e-02
-1.236272e-01
-3.458668e-02
-1.236272e-01
-3.458668e-02
3.427487e-02
3.427487e-02
-6.112199e-02
3.563512e-04
-6.112199e-02
3.563512e-04
2.600680e-02
2.600680e-02
2.571561e-01
1.529475e-01
2.571561e-01
1.529475e-01
-5.290181e-02
-5.290181e-02
3.149770e-01
3.105734e-01
3.149770e-01
3.105734e-01
-6.516767e-02
-6.516767e-02
1.301112e-03
-1.533068e-01
1.301112e-03
-1.533068e-01
2.701348e-01
2.701348e-01
-2.539293e-02
1.149393e-01
-2.539293e-02
1.149393e-01
9.309670e-02
9.309670e-02
2.723657e-01
3.243329e-01
2.723657e-01
3.243329e-01
-7.265185e-02
-7.265185e-02
5.007829e-02
5.746563e-02
5.007829e-02
5.746563e-02
6.703038e-02
6.703038e-02
1.385698e-01
-1.173269e-02
1.385698e-01
-1.173269e-02
1.271894e-01
1.271894e-01
-8.427660e-02
7.943472e-02
-8.427660e-02
7.943472e-02
2.099298e-01
2.099298e-01
4.005197e-02
-4.046237e-02
4.005197e-02
-4.046237e-02
-8.886413e-02
-8.886413e-02
-2.941613e-01
-3.706359e-01
-2.941613e-01
-3.706359e-01
-4.192879e-01
-4.192879e-01
-1.511294e-01
-9.092022e-02
-1.511294e-01
-9.092022e-02
2.656744e-03
-3.473868e-02
2.656744e-03
-3.473868e-02
-7.827124e-02
4.939064e-02
-7.827124e-02
4.939064e-02
1.764714e-01
8.005081e-02
1.764714e-01
8.005081e-02
-1.039128e-01
-1.039128e-01
5.389556e-02
5.389556e-02
-1.269331e-01
-1.269331e-01
-1.544050e-01
-5.980303e-02
-1.544050e-01
-5.980303e-02
-2.504792e-01
-2.504792e-01
-3.147369e-01
-3.147369e-01
-1.006149e-01
-1.006149e-01
-4.854622e-02
-4.854622e-02
-8.800465e-02
6.578944e-02
-8.800465e-02
6.578944e-02
-1.550544e-01
-1.550544e-01
-1.571004e-01
-1.571004e-01
1.533131e-01
1.533131e-01
-1.962877e-01
-1.962877e-01
-2.934738e-01
-1.697830e-01
-2.934738e-01
-1.697830e-01
-2.853791e-01
-2.853791e-01
-1.188882e-01
-1.188882e-01
-2.643461e-01
-2.643461e-01
-1.868493e-01
-1.868493e-01
6.045278e-02
2.223488e-01
6.045278e-02
2.223488e-01
-5.515334e-02
-5.515334e-02
-2.174352e-01
-2.174352e-01
-1.057027e-01
-1.057027e-01
-2.233120e-01
-2.233120e-01
-5.188758e-02
-2.507361e-01
-5.188758e-02
-2.507361e-01
-2.125565e-01
-2.125565e-01
6.894134e-03
6.894134e-03
-7.241744e-02
-7.241744e-02
2.502497e-01
2.502497e-01
3.469727e-01
-1.537477e-01
3.469727e-01
-1.537477e-01
8.830945e-02
8.830945e-02
-2.032504e-02
-2.032504e-02
1.597759e-01
1.597759e-01
1.032096e-01
1.032096e-01
1.081658e-02
3.654794e-01
1.081658e-02
3.654794e-01
-3.080302e-01
-3.080302e-01
-3.972291e-01
-3.972291e-01
-4.881520e-02
-4.881520e-02
-1.082591e-01
-1.082591e-01
1.548408e-02
-5.616243e-02
1.548408e-02
-5.616243e-02
-1.605498e-01
-1.605498e-01
6.439393e-02
6.439393e-02
8.025346e-02
-4.495709e-02
8.025346e-02
-4.495709e-02
6.496321e-02
6.496321e-02
3.172479e-02
3.172479e-02
-9.570248e-02
1.593516e-02
-9.570248e-02
1.593516e-02
3.516709e-02
3.516709e-02
8.546632e-02
8.546632e-02
2.094094e-02
-1.593665e-03
2.094094e-02
-1.593665e-03
3.674954e-02
3.674954e-02
-6.563866e-02
-6.563866e-02
-2.119882e-01
3.114060e-02
-2.119882e-01
3.114060e-02
-3.521493e-02
-3.521493e-02
-8.177863e-02
-8.177863e-02
-6.280566e-02
-1.997992e-01
-6.280566e-02
-1.997992e-01
-2.518143e-02
-2.518143e-02
-9.319554e-02
-9.319554e-02
-1.693120e-01
-1.313434e-01
-1.693120e-01
-1.313434e-01
-2.977891e-02
-2.977891e-02
-6.100635e-02
-6.100635e-02
1.420808e-01
-2.767739e-02
1.420808e-01
-2.767739e-02
-7.956198e-02
-7.956198e-02
-5.751215e-02
-5.751215e-02
5.993225e-03
1.969988e-01
5.993225e-03
1.969988e-01
-2.393440e-01
-2.393440e-01
-1.229146e-01
-1.229146e-01
-5.978377e-02
-1.268874e-01
-5.978377e-02
-1.268874e-01
2.309012e-01
2.309012e-01
2.596022e-01
2.596022e-01
1.658019e-01
1.916790e-01
1.658019e-01
1.916790e-01
1.648360e-01
1.648360e-01
8.991973e-02
8.991973e-02
1.636951e-01
6.773294e-02
1.636951e-01
6.773294e-02
7.198396e-02
7.198396e-02
4.620672e-02
4.620672e-02
1.621066e-02
7.369768e-02
1.621066e-02
7.369768e-02
-1.447002e-01
-1.447002e-01
-1.871376e-01
-1.871376e-01
-1.462261e-01
-3.971859e-02
-1.462261e-01
-3.971859e-02
7.374424e-02
7.374424e-02
4.947091e-02
4.947091e-02
-9.780544e-02
5.853890e-04
-9.780544e-02
5.853890e-04
1.106171e-01
1.106171e-01
-2.636829e-03
-2.636829e-03
3.856259e-02
1.655268e-01
3.856259e-02
1.655268e-01
1.368430e-01
1.368430e-01
-4.810391e-02
-4.810391e-02
-1.621454e-01
5.136914e-02
-1.621454e-01
5.136914e-02
-1.286395e-01
-1.286395e-01
-1.122759e-02
-1.122759e-02
-2.271025e-02
-2.202244e-01
-2.271025e-02
-2.202244e-01
1.976959e-02
2.405005e-01
1.976959e-02
2.405005e-01
1.921622e-01
1.918462e-01
1.921622e-01
1.918462e-01
1.070296e-01
8.580504e-02
1.070296e-01
8.580504e-02
3.134005e-01
-5.036702e-02
3.134005e-01
-5.036702e-02
1.251014e-01
-2.553476e-01
1.251014e-01
-2.553476e-01
-6.065851e-03
2.967308e-03
-6.065851e-03
2.967308e-03
2.214617e-01
-1.196289e-01
2.214617e-01
-1.196289e-01
8.786796e-02
-5.202121e-02
8.786796e-02
-5.202121e-02
3.431161e-02
6.262481e-02
3.431161e-02
6.262481e-02
1.825116e-02
-8.733662e-02
1.825116e-02
-8.733662e-02
2.002087e-01
-8.958167e-02
2.002087e-01
-8.958167e-02
-1.616862e-01
-2.046955e-01
-1.616862e-01
-2.046955e-01
6.322513e-02
-8.524925e-02
6.322513e-02
-8.524925e-02
2.010152e-01
4.930429e-02
2.010152e-01
4.930429e-02
-1.807033e-01
-4.652585e-02
-1.807033e-01
-4.652585e-02
8.526689e-02
-5.926223e-02
8.526689e-02
-5.926223e-02
3.754670e-03
3.754670e-03
-7.438300e-02
-7.438300e-02
1.614473e-01
1.614473e-01
2.307174e-01
1.268812e-01
2.307174e-01
1.268812e-01
1.229193e-02
1.229193e-02
9.200709e-02
9.200709e-02
-1.809416e-01
-7.522606e-02
-1.809416e-01
-7.522606e-02
2.875513e-01
2.875513e-01
1.355214e-01
1.355214e-01
9.612397e-02
9.255646e-02
9.612397e-02
9.255646e-02
-1.666238e-01
-1.666238e-01
2.745292e-02
2.745292e-02
3.365750e-02
6.209778e-02
3.365750e-02
6.209778e-02
3.498115e-03
3.498115e-03
-1.057972e-01
-1.057972e-01
-7.729523e-02
-3.163802e-02
-7.729523e-02
-3.163802e-02
-9.148746e-02
-9.148746e-02
-1.609111e-01
-1.609111e-01
4.467833e-02
4.467833e-02
-1.046351e-01
-1.046351e-01
-1.643620e-01
-1.219052e-01
-1.643620e-01
-1.219052e-01
-1.962252e-01
-1.962252e-01
-1.624124e-01
-1.624124e-01
2.413695e-01
6.859887e-02
2.413695e-01
6.859887e-02
-1.984087e-01
-1.984087e-01
-9.254571e-02
-9.254571e-02
-1.590304e-01
-1.380274e-02
-1.590304e-01
-1.380274e-02
1.107079e-01
1.107079e-01
-1.361721e-01
-1.361721e-01
6.078811e-03
-8.132971e-02
6.078811e-03
-8.132971e-02
-9.596507e-02
-9.596507e-02
-1.033377e-01
-1.033377e-01
-1.580284e-01
-5.391507e-02
-1.580284e-01
-5.391507e-02
6.598347e-02
6.598347e-02
-1.869609e-02
-1.869609e-02
-1.165197e-01
-1.165197e-01
2.900778e-02
2.900778e-02
1.469957e-02
2.211545e-02
1.469957e-02
2.211545e-02
2.039559e-01
2.039559e-01
3.039822e-01
3.039822e-01
1.659936e-02
-6.940333e-02
1.659936e-02
-6.940333e-02
2.351105e-01
2.351105e-01
-2.105139e-02
-2.105139e-02
1.953053e-01
8.453840e-02
1.953053e-01
8.453840e-02
-1.907001e-01
-1.907001e-01
9.243739e-02
9.243739e-02
3.809786e-02
1.020806e-01
3.809786e-02
1.020806e-01
1.777865e-01
1.777865e-01
-9.543934e-02
-9.543934e-02
4.721700e-02
1.742166e-01
4.721700e-02
1.742166e-01
-1.823708e-01
-1.823708e-01
3.223165e-03
3.223165e-03
-1.600011e-02
-1.600011e-02
8.387252e-02
8.387252e-02
-2.461541e-02
-1.361887e-01
-2.461541e-02
-1.361887e-01
-5.759171e-02
-5.759171e-02
-1.873944e-01
-1.873944e-01
-3.294085e-02
-3.269461e-02
-3.294085e-02
-3.269461e-02
6.786478e-02
6.786478e-02
1.892147e-01
1.892147e-01
-1.173277e-01
1.576323e-02
-1.173277e-01
1.576323e-02
9.960725e-03
9.960725e-03
9.635957e-02
9.635957e-02
-4.345812e-02
-1.681072e-01
-4.345812e-02
-1.681072e-01
2.838669e-02
2.838669e-02
4.167696e-03
4.167696e-03
-3.544038e-02
-1.437012e-01
-3.544038e-02
-1.437012e-01
1.758015e-01
1.758015e-01
1.577960e-01
1.577960e-01
-8.850382e-02
-8.850382e-02
-8.248254e-02
-8.248254e-02
-1.038171e-01
-6.878077e-03
-1.038171e-01
-6.878077e-03
-4.400039e-02
-4.400039e-02
4.074812e-02
4.074812e-02
-1.869609e-01
-1.481394e-01
-1.869609e-01
-1.481394e-01
-4.894585e-03
-4.894585e-03
-2.480752e-02
-2.480752e-02
1.796906e-01
6.193271e-02
1.796906e-01
6.193271e-02
3.083597e-02
3.083597e-02
-5.970790e-02
-5.970790e-02
1.496108e-01
6.635698e-02
1.496108e-01
6.635698e-02
-5.604253e-02
-5.604253e-02
5.884422e-02
5.884422e-02
1.546801e-01
2.368400e-01
1.546801e-01
2.368400e-01
-1.074121e-01
-1.074121e-01
-5.098577e-02
-5.098577e-02
-2.468093e-01
-2.468093e-01
-2.241400e-01
-2.241400e-01
7.923378e-02
-1.986636e-01
7.923378e-02
-1.986636e-01
-1.012781e-01
-1.012781e-01
-1.238840e-01
-1.238840e-01
7.648322e-02
1.845198e-01
7.648322e-02
1.845198e-01
-7.009495e-03
-7.009495e-03
-4.126179e-02
-4.126179e-02
-8.550732e-02
2.871490e-02
-8.550732e-02
2.871490e-02
-9.569626e-02
-9.569626e-02
7.639610e-02
7.639610e-02
2.431453e-02
-1.127512e-01
2.431453e-02
-1.127512e-01
4.461283e-02
4.461283e-02
6.513720e-02
6.513720e-02
-1.223446e-01
-8.836995e-02
-1.223446e-01
-8.836995e-02
3.064734e-01
3.064734e-01
8.080346e-02
8.080346e-02
2.240617e-01
2.240617e-01
3.767152e-01
3.767152e-01
3.947575e-01
3.453732e-01
3.947575e-01
3.453732e-01
7.057987e-02
7.057987e-02
-3.137992e-02
-3.137992e-02
-1.466044e-01
-1.669939e-01
-1.466044e-01
-1.669939e-01
2.872179e-02
2.872179e-02
-2.765664e-02
-2.765664e-02
-7.689743e-02
4.151413e-02
-7.689743e-02
4.151413e-02
-8.171081e-02
-8.171081e-02
1.218911e-01
1.218911e-01
1.368358e-01
-1.478459e-01
1.368358e-01
-1.478459e-01
1.643783e-01
1.643783e-01
-1.151576e-01
-1.151576e-01
-1.050429e-02
3.000237e-01
-1.050429e-02
3.000237e-01
-1.393090e-01
-1.393090e-01
-2.104550e-02
-2.104550e-02
-9.572260e-02
-9.572260e-02
2.516619e-01
2.516619e-01
3.085210e-01
-3.254050e-02
3.085210e-01
-3.254050e-02
4.277541e-01
4.277541e-01
3.940240e-01
3.940240e-01
7.071029e-01
5.067446e-01
7.071029e-01
5.067446e-01
7.097457e-01
7.097457e-01
1.096005e+00
1.096005e+00
5.676489e-01
6.540233e-01
5.676489e-01
6.540233e-01
1.114866e+00
1.114866e+00
9.764065e-01
9.764065e-01
5.381537e-01
4.480342e-01
5.381537e-01
4.480342e-01
9.135922e-01
9.135922e-01
7.853751e-01
7.853751e-01
6.259739e-01
7.597935e-01
6.259739e-01
7.597935e-01
7.743958e-01
7.743958e-01
4.718909e-01
4.718909e-01
-5.742515e-02
4.446263e-01
-5.742515e-02
4.446263e-01
1.825994e-01
1.825994e-01
4.833465e-01
4.833465e-01
6.947479e-01
6.949374e-01
6.947479e-01
6.949374e-01
6.539536e-01
6.539536e-01
6.353172e-01
6.353172e-01
6.101113e-01
8.820551e-01
6.101113e-01
8.820551e-01
1.488529e-01
1.488529e-01
-9.645420e-02
-9.645420e-02
5.290335e-02
1.051201e-01
5.290335e-02
1.051201e-01
-9.853540e-04
-9.853540e-04
-2.785544e-02
-2.785544e-02
2.930524e-02
2.032390e-01
2.930524e-02
2.032390e-01
-7.409188e-03
-7.409188e-03
1.182083e-01
1.182083e-01
-5.263901e-02
-1.014197e-01
-5.263901e-02
-1.014197e-01
-7.132842e-02
-7.132842e-02
-3.139788e-01
-3.139788e-01
-1.452513e-01
-9.729250e-02
-1.452513e-01
-9.729250e-02
1.077091e+00
1.077091e+00
9.713410e-01
9.713410e-01
1.138787e+00
9.259956e-01
1.138787e+00
9.259956e-01
9.133994e-01
9.133994e-01
7.196136e-01
7.196136e-01
8.713849e-01
9.369498e-01
8.713849e-01
9.369498e-01
8.899251e-01
8.899251e-01
9.520773e-01
9.520773e-01
1.354433e+00
1.304967e+00
1.354433e+00
1.304967e+00
6.678722e-01
6.678722e-01
6.498627e-01
6.498627e-01
5.764190e-01
8.230906e-01
5.764190e-01
8.230906e-01
2.262049e-01
2.262049e-01
-1.279583e-01
-1.279583e-01
-2.740929e-01
3.004577e-01
-2.740929e-01
3.004577e-01
-6.272096e-02
-6.272096e-02
-2.598209e-01
-2.598209e-01
-1.293547e-01
-2.682545e-01
-1.293547e-01
-2.682545e-01
7.928924e-01
7.928924e-01
9.710201e-01
9.710201e-01
3.656073e-01
2.101597e-01
3.656073e-01
2.101597e-01
9.826584e-01
9.826584e-01
8.361091e-01
8.361091e-01
3.598642e-01
5.121948e-01
3.598642e-01
5.121948e-01
9.853077e-01
9.853077e-01
8.056267e-01
8.056267e-01
-2.761988e-01
-6.087894e-02
-2.761988e-01
-6.087894e-02
3.297889e-01
3.297889e-01
3.802920e-01
3.802920e-01
-1.592517e-02
-2.477971e-01
-1.592517e-02
-2.477971e-01
4.032654e-01
4.032654e-01
-2.359943e-02
-2.359943e-02
-2.115158e-01
-9.501199e-02
-2.115158e-01
-9.501199e-02
-2.247191e-01
-2.247191e-01
-1.272737e-02
-1.272737e-02
-4.562068e-01
-4.857050e-01
-4.562068e-01
-4.857050e-01
-5.124565e-01
-5.124565e-01
-3.399633e-01
-3.399633e-01
-3.400688e-01
-1.663287e-01
-3.400688e-01
-1.663287e-01
-4.077320e-02
-4.077320e-02
1.435593e-01
1.435593e-01
3.005428e-01
-6.985742e-02
3.005428e-01
-6.985742e-02
-3.040788e-01
-3.040788e-01
-7.763422e-01
-7.763422e-01
-5.856426e-02
2.420579e-01
-5.856426e-02
2.420579e-01
-6.977154e-01
-6.977154e-01
-8.194292e-01
-8.194292e-01
-5.269605e-01
-3.908647e-01
-5.269605e-01
-3.908647e-01
-8.357543e-01
-8.357543e-01
-5.730194e-01
-5.730194e-01
-3.355719e-01
-4.837894e-01
-3.355719e-01
-4.837894e-01
-6.356194e-01
-6.356194e-01
-6.059615e-01
-6.059615e-01
-2.126957e-01
-1.338981e-01
-2.126957e-01
-1.338981e-01
3.518321e-01
3.518321e-01
5.252775e-01
5.252775e-01
1.108259e+00
6.681332e-01
1.108259e+00
6.681332e-01
5.327054e-01
5.327054e-01
7.199737e-01
7.199737e-01
1.186383e+00
1.042144e+00
1.186383e+00
1.042144e+00
7.935513e-01
7.935513e-01
8.400063e-01
8.400063e-01
1.620528e+00
1.576743e+00
1.620528e+00
1.576743e+00
7.025735e-01
7.025735e-01
5.016873e-01
5.016873e-01
1.374759e+00
1.553726e+00
1.374759e+00
1.553726e+00
4.813489e-01
4.813489e-01
2.910388e-01
2.910388e-01
3.620724e-01
9.428032e-01
3.620724e-01
9.428032e-01
1.455236e-01
1.455236e-01
-2.345208e-02
-2.345208e-02
-9.062606e-02
-1.393130e-01
-9.062606e-02
-1.393130e-01
8.800487e-01
8.800487e-01
9.625001e-01
9.625001e-01
4.555286e-01
5.258462e-01
4.555286e-01
5.258462e-01
9.669830e-01
9.669830e-01
1.373778e+00
1.373778e+00
1.002232e+00
6.130560e-01
1.002232e+00
6.130560e-01
1.800842e+00
1.800842e+00
1.941148e+00
1.941148e+00
1.232742e+00
1.193012e+00
1.232742e+00
1.193012e+00
1.927603e+00
1.927603e+00
1.709876e+00
1.709876e+00
1.564737e+00
1.502226e+00
1.564737e+00
1.502226e+00
1.005079e+00
1.005079e+00
2.605023e-02
2.605023e-02
2.368034e-01
9.482728e-01
2.368034e-01
9.482728e-01
-4.013723e-01
-4.013723e-01
-3.596475e-01
-3.596475e-01
-1.647242e-01
-1.217093e-01
-1.647242e-01
-1.217093e-01
1.536706e-01
1.536706e-01
3.203663e-01
3.203663e-01
1.774945e-01
1.197116e-01
1.774945e-01
1.197116e-01
2.906942e-01
2.906942e-01
1.644191e-01
1.644191e-01
-5.620080e-01
-5.682546e-02
-5.620080e-01
-5.682546e-02
1.064173e-01
1.064173e-01
3.015939e-01
3.015939e-01
-3.558886e-01
-8.198524e-01
-3.558886e-01
-8.198524e-01
6.525168e-01
6.525168e-01
9.535078e-01
9.535078e-01
1.087917e+00
3.056957e-01
1.087917e+00
3.056957e-01
1.028023e+00
1.028023e+00
6.776579e-01
6.776579e-01
1.113504e+00
1.500652e+00
1.113504e+00
1.500652e+00
1.711609e-01
1.711609e-01
2.211565e-01
2.211565e-01
1.371114e-01
5.005838e-01
1.371114e-01
5.005838e-01
1.780087e-01
1.780087e-01
-4.280165e-02
-4.280165e-02
-9.533756e-02
4.334774e-02
-9.533756e-02
4.334774e-02
-3.766219e-03
-3.766219e-03
-4.853495e-01
-4.853495e-01
2.863828e-01
1.073855e-01
2.863828e-01
1.073855e-01
-8.772551e-01
-8.772551e-01
-7.386830e-01
-7.386830e-01
-8.966839e-01
-1.086568e-01
-8.966839e-01
-1.086568e-01
-5.842771e-02
-5.842771e-02
1.344964e+00
1.344964e+00
-1.876899e-01
-1.182112e+00
-1.876899e-01
-1.182112e+00
1.823543e+00
1.823543e+00
1.511999e+00
1.511999e+00
2.080591e+00
1.449675e+00
2.080591e+00
1.449675e+00
9.110441e-01
9.110441e-01
3.322335e-01
3.322335e-01
4.196952e-01
1.282615e+00
4.196952e-01
1.282615e+00
2.706311e-01
2.706311e-01
9.000105e-02
9.000105e-02
7.600357e-01
8.972446e-01
7.600357e-01
8.972446e-01
-1.148643e-01
-1.148643e-01
3.861889e-01
3.861889e-01
1.468408e-01
2.577347e-01
1.468408e-01
2.577347e-01
2.593451e-01
2.593451e-01
-1.186406e+00
-1.186406e+00
-2.779889e-01
4.671589e-01
-2.779889e-01
4.671589e-01
-2.621202e+00
-2.621202e+00
-2.151106e+00
-2.151106e+00
-3.582451e+00
-2.283880e+00
-3.582451e+00
-2.283880e+00
4.578175e-01
4.578175e-01
1.995461e+00
1.995461e+00
1.149432e+00
-1.976263e+00
1.149432e+00
-1.976263e+00
1.220383e+00
1.220383e+00
1.484232e-01
1.484232e-01
2.262996e+00
2.455371e+00
2.262996e+00
2.455371e+00
1.400505e+00
1.400505e+00
1.613267e+00
1.613267e+00
2.463790e+00
1.300034e+00
2.463790e+00
1.300034e+00
1.624635e+00
1.624635e+00
1.444040e+00
1.444040e+00
4.253940e+00
3.467096e+00
4.253940e+00
3.467096e+00
1.692478e+00
1.692478e+00
1.835421e+00
1.835421e+00
2.415504e+00
3.713413e+00
2.415504e+00
3.713413e+00
-1.443619e-01
-1.443619e-01
-4.248957e+00
-4.248957e+00
-4.083720e+00
3.369965e-01
-4.083720e+00
3.369965e-01
-5.088646e+00
-5.088646e+00
7.044855e-01
7.044855e-01
-1.806850e+00
-7.325487e+00
-1.806850e+00
-7.325487e+00
7.955294e+00
7.955294e+00
9.287613e+00
9.287613e+00
1.442779e+01
1.085036e+01
1.442779e+01
1.085036e+01
1.144633e+00
1.144633e+00
2.733769e+00
2.733769e+00
2.730614e+00
1.793912e+00
2.730614e+00
1.793912e+00
4.395578e+00
4.395578e+00
5.678522e+00
5.678522e+00
4.723608e+00
4.133470e+00
4.723608e+00
4.133470e+00
5.011426e+00
5.011426e+00
1.222157e+00
1.222157e+00
-4.703324e-01
3.640228e+00
-4.703324e-01
3.640228e+00
-2.115372e+00
-2.115372e+00
-3.683446e+00
-3.683446e+00
-3.438053e+00
-4.718183e+00
-3.438053e+00
-4.718183e+00
-6.605511e+00
-6.605511e+00
-7.891931e+00
-7.891931e+00
-1.217569e+01
-3.076578e+00
-1.217569e+01
-3.076578e+00
-1.391302e+00
-1.391302e+00
2.695388e+00
2.695388e+00
-1.860654e+01
-1.862995e+01
-1.860654e+01
-1.862995e+01
3.589831e+00
3.589831e+00
3.363576e+00
3.363576e+00
4.358678e+00
5.293366e+00
4.358678e+00
5.293366e+00
3.353435e+00
3.353435e+00
2.570248e+00
2.570248e+00
1.510520e-01
2.180315e+00
1.510520e-01
2.180315e+00
2.635016e-01
2.635016e-01
-1.650701e+00
-1.650701e+00
-4.013831e-02
-8.810436e-01
-4.013831e-02
-8.810436e-01
-3.912201e+00
-3.912201e+00
-5.791954e+00
-5.791954e+00
-4.599472e+00
1.407878e+00
-4.599472e+00
1.407878e+00
-8.063045e+00
-8.063045e+00
-1.435866e+01
-1.435866e+01
-2.497141e+01
-1.755700e+01
-2.497141e+01
-1.755700e+01
-2.134066e+01
-2.134066e+01
-2.461797e+01
-2.461797e+01
-2.801392e+01
-2.842783e+01
-2.801392e+01
-2.842783e+01
4.807289e+00
4.807289e+00
3.953906e+00
3.953906e+00
2.500941e+00
3.200834e+00
2.500941e+00
3.200834e+00
1.262125e+00
1.262125e+00
-4.720110e-01
-4.720110e-01
1.142119e+00
5.704412e-02
1.142119e+00
5.704412e-02
2.876602e+00
2.876602e+00
7.178916e+00
7.178916e+00
1.605646e+01
9.364047e+00
1.605646e+01
9.364047e+00
5.415670e+00
5.415670e+00
-5.575594e+00
-5.575594e+00
-1.598614e+01
7.716542e+00
-1.598614e+01
7.716542e+00
-2.113411e+01
-2.113411e+01
-3.111649e+01
-3.111649e+01
-4.931420e+01
-3.846632e+01
-4.931420e+01
-3.846632e+01
-3.704107e+01
-3.704107e+01
-3.360431e+01
-3.360431e+01
-4.527707e+01
-5.751328e+01
-4.527707e+01
-5.751328e+01
2.552254e+00
2.552254e+00
9.373908e-01
9.373908e-01
-9.666183e-01
2.960800e+00
-9.666183e-01
2.960800e+00
-1.020546e+00
-1.020546e+00
3.694140e+00
3.694140e+00
5.952383e+00
-1.776733e+00
5.952383e+00
-1.776733e+00
1.492408e+01
1.492408e+01
1.985753e+01
1.985753e+01
2.073662e+01
1.864437e+01
2.073662e+01
1.864437e+01
7.619314e+00
7.619314e+00
-2.467085e+01
-2.467085e+01
-3.418103e+01
4.097242e+00
-3.418103e+01
4.097242e+00
-5.240165e+01
-5.240165e+01
-4.922106e+01
-4.922106e+01
-5.939443e+00
-4.128166e+01
-5.939443e+00
-4.128166e+01
-4.663377e+01
-4.663377e+01
-4.158119e+01
-4.158119e+01
-2.396675e+01
-2.577853e+00
-2.396675e+01
-2.577853e+00
3.113655e+00
3.113655e+00
-1.144829e+00
-1.144829e+00
-3.858479e-01
3.569691e+00
-3.858479e-01
3.569691e+00
-8.843836e-01
-8.843836e-01
7.338997e+00
7.338997e+00
8.296200e+00
1.033876e-01
8.296200e+00
1.033876e-01
1.877332e+01
1.877332e+01
1.777655e+01
1.777655e+01
9.863132e+00
1.551044e+01
9.863132e+00
1.551044e+01
-6.602018e+00
-6.602018e+00
-3.352274e+01
-3.352274e+01
-2.869900e+01
-2.214964e+01
-2.869900e+01
-2.214964e+01
-2.205625e+01
-2.205625e+01
4.931793e+00
4.931793e+00
-4.579694e+00
-3.335144e+00
-4.579694e+00
-3.335144e+00
7.383071e+00
7.383071e+00
-4.220372e-01
-4.220372e-01
2.806034e+01
1.275180e+00
2.806034e+01
1.275180e+00
3.073140e+00
3.073140e+00
-1.866589e-01
-1.866589e-01
1.113726e+00
-6.923196e-02
1.113726e+00
-6.923196e-02
3.293676e+00
3.293676e+00
7.648112e+00
7.648112e+00
6.998674e+00
9.811911e+00
6.998674e+00
9.811911e+00
6.116242e+00
6.116242e+00
-6.491687e+00
-6.491687e+00
-2.244915e+01
-4.293564e+00
-2.244915e+01
-4.293564e+00
-3.725078e+01
-3.725078e+01
-3.171682e+01
-3.171682e+01
-3.812916e+01
-4.848491e+01
-3.812916e+01
-4.848491e+01
2.931480e+00
2.931480e+00
-3.502541e+00
-3.502541e+00
8.041173e+00
8.613964e-01
8.041173e+00
8.613964e-01
4.294335e-01
4.294335e-01
3.790633e+01
3.790633e+01
3.234160e+01
6.294162e+00
3.234160e+01
6.294162e+00
-2.178979e-01
-2.178979e-01
1.008828e+00
1.008828e+00
1.497644e+00
1.120205e+00
1.497644e+00
1.120205e+00
6.898127e+00
6.898127e+00
7.724180e+00
7.724180e+00
5.332163e+00
2.480132e+00
5.332163e+00
2.480132e+00
4.924456e+00
4.924456e+00
-7.683338e+00
-7.683338e+00
1.197962e+01
1.222991e+01
1.197962e+01
1.222991e+01
-3.382764e+01
-3.382764e+01
-4.280349e+01
-4.280349e+01
-2.496791e+01
-4.006378e+00
-2.496791e+01
-4.006378e+00
-1.018761e+01
-1.018761e+01
1.745206e+01
1.745206e+01
-1.425692e+01
-2.540113e+01
-1.425692e+01
-2.540113e+01
5.155009e+00
5.155009e+00
-4.699773e+00
-4.699773e+00
-3.462295e+01
-2.752258e+01
-3.462295e+01
-2.752258e+01
4.856287e-01
4.856287e-01
2.263654e+00
2.263654e+00
1.615248e+00
3.558750e-01
1.615248e+00
3.558750e-01
4.096296e+00
4.096296e+00
4.082197e+00
4.082197e+00
7.266204e+00
5.118386e+00
7.266204e+00
5.118386e+00
9.189352e+00
9.189352e+00
1.561499e+01
1.561499e+01
1.115421e+01
9.459533e+00
1.115421e+01
9.459533e+00
8.164921e+00
8.164921e+00
-1.569697e+01
-1.569697e+01
-1.866527e+01
3.404057e+00
-1.866527e+01
3.404057e+00
-4.131948e+01
-4.131948e+01
-5.836969e+01
-5.836969e+01
-5.765020e+01
-4.267343e+01
-5.765020e+01
-4.267343e+01
-7.356258e+01
-7.356258e+01
-4.870086e+01
-4.870086e+01
-4.952003e+01
-6.759050e+01
-4.952003e+01
-6.759050e+01
1.390141e+00
1.390141e+00
2.385200e+00
2.385200e+00
3.694664e+00
3.007715e+00
3.694664e+00
3.007715e+00
5.825491e+00
5.825491e+00
8.210433e+00
8.210433e+00
7.039421e+00
5.789583e+00
7.039421e+00
5.789583e+00
5.609133e+00
5.609133e+00
3.819504e-01
3.819504e-01
-1.655309e+00
3.970801e+00
-1.655309e+00
3.970801e+00
-2.878127e+00
-2.878127e+00
-1.047408e+01
-1.047408e+01
-6.571953e+00
-4.021976e+00
-6.571953e+00
-4.021976e+00
-2.550729e+01
-2.550729e+01
-4.028318e+01
-4.028318e+01
-3.421865e+01
-1.776859e+01
-3.421865e+01
-1.776859e+01
-5.159475e+01
-5.159475e+01
-4.628983e+01
-4.628983e+01
-4.201325e+01
-4.576069e+01
-4.201325e+01
-4.576069e+01
3.614767e+00
3.614767e+00
4.242287e+00
4.242287e+00
3.202871e+00
2.753265e+00
3.202871e+00
2.753265e+00
5.595389e+00
5.595389e+00
6.071617e+00
6.071617e+00
5.086258e+00
4.574850e+00
5.086258e+00
4.574850e+00
3.467022e+00
3.467022e+00
-9.663538e-01
-9.663538e-01
-1.019103e+00
2.746650e+00
-1.019103e+00
2.746650e+00
-2.988461e+00
-2.988461e+00
-5.411151e+00
-5.411151e+00
-3.245917e+00
-2.406102e+00
-3.245917e+00
-2.406102e+00
-1.711041e+01
-1.711041e+01
-3.110573e+01
-3.110573e+01
-2.722031e+01
-1.335168e+01
-2.722031e+01
-1.335168e+01
-3.302768e+01
-3.302768e+01
-2.822032e+01
-2.822032e+01
-2.653394e+01
-3.215933e+01
-2.653394e+01
-3.215933e+01
1.150943e+00
1.150943e+00
1.338463e+00
1.338463e+00
3.014790e-01
4.329900e-01
3.014790e-01
4.329900e-01
2.534235e+00
2.534235e+00
3.506038e+00
3.506038e+00
2.294762e+00
1.358349e+00
2.294762e+00
1.358349e+00
2.298958e+00
2.298958e+00
8.826846e-02
8.826846e-02
3.231021e-01
1.311738e+00
3.231021e-01
1.311738e+00
-1.097223e+00
-1.097223e+00
-1.658389e+00
-1.658389e+00
-1.181472e+00
-2.682110e-01
-1.181472e+00
-2.682110e-01
-6.244444e+00
-6.244444e+00
-1.066670e+01
-1.066670e+01
-4.861080e+00
-3.061433e+00
-4.861080e+00
-3.061433e+00
-8.113770e-02
-8.113770e-02
-4.167453e-02
-4.167453e-02
3.168781e-01
2.321917e-01
3.168781e-01
2.321917e-01
1.727939e-01
1.727939e-01
3.007134e-01
3.007134e-01
4.412202e-01
4.203663e-01
4.412202e-01
4.203663e-01
2.015532e-01
2.015532e-01
-1.555722e-01
-1.555722e-01
4.328079e-02
2.821348e-01
4.328079e-02
2.821348e-01
-1.119937e-01
-1.119937e-01
2.328257e-01
2.328257e-01
3.892010e-01
1.096289e-01
3.892010e-01
1.096289e-01
1.030795e-01
1.030795e-01
-2.127646e-01
-2.127646e-01
-3.610387e-01
2.094283e-01
-3.610387e-01
2.094283e-01
-2.431036e-01
-2.431036e-01
-1.123240e-01
-1.123240e-01
-2.427112e-01
-3.476610e-01
-2.427112e-01
-3.476610e-01
-4.982696e-02
-4.982696e-02
2.230642e-01
2.230642e-01
3.654414e-01
6.830117e-03
3.654414e-01
6.830117e-03
4.030580e-01
4.030580e-01
1.881855e-01
1.881855e-01
-6.337319e-03
6.634052e-02
-6.337319e-03
6.634052e-02
-2.821790e-02
-2.821790e-02
-1.184143e-01
-1.184143e-01
-2.624418e-01
-1.452537e-01
-2.624418e-01
-1.452537e-01
-7.201049e-02
-7.201049e-02
5.598316e-02
5.598316e-02
2.268876e-02
-7.026604e-02
2.268876e-02
-7.026604e-02
-2.656842e-02
-2.656842e-02
6.952651e-02
6.952651e-02
-2.529238e-01
-7.984640e-02
-2.529238e-01
-7.984640e-02
3.087316e-01
3.087316e-01
-5.280347e-01
-5.280347e-01
-5.018267e-01
-5.544614e-02
-5.018267e-01
-5.544614e-02
-1.661736e+00
-1.661736e+00
-1.302872e+00
-1.302872e+00
-2.102532e+00
-1.491235e+00
-2.102532e+00
-1.491235e+00
-3.544037e-01
-3.544037e-01
-3.640355e-01
-3.640355e-01
-8.724414e-01
-2.146404e+00
-8.724414e-01
-2.146404e+00
-6.077333e-01
-6.077333e-01
-1.683659e-01
-1.683659e-01
-7.914713e-01
-4.483451e-01
-7.914713e-01
-4.483451e-01
8.862841e-02
8.862841e-02
-6.421079e-01
-6.421079e-01
2.083923e+00
7.160911e-01
2.083923e+00
7.160911e-01
-1.158026e+00
-1.158026e+00
-1.712316e+00
-1.712316e+00
1.555028e-01
1.342884e+00
1.555028e-01
1.342884e+00
-2.072824e+00
-2.072824e+00
-1.065397e+00
-1.065397e+00
2.062100e-01
-9.075377e-02
2.062100e-01
-9.075377e-02
-3.512693e-01
-3.512693e-01
-2.502264e-01
-2.502264e-01
-2.962725e-01
6.965271e-02
-2.962725e-01
6.965271e-02
3.566701e-01
3.566701e-01
9.115972e-01
9.115972e-01
1.724977e+00
6.202320e-01
1.724977e+00
6.202320e-01
7.817009e-01
7.817009e-01
3.327158e-01
3.327158e-01
9.249685e-01
1.666427e+00
9.249685e-01
1.666427e+00
7.290841e-02
7.290841e-02
6.633832e-02
6.633832e-02
5.279594e-01
4.780734e-01
5.279594e-01
4.780734e-01
7.881482e-01
7.881482e-01
7.064324e-01
7.064324e-01
8.492270e-01
9.721336e-01
8.492270e-01
9.721336e-01
4.084021e-01
4.084021e-01
4.642621e-01
4.642621e-01
3.733342e-01
2.398917e-01
3.733342e-01
2.398917e-01
6.274574e-01
6.274574e-01
4.087828e-01
4.087828e-01
4.790279e-01
6.366796e-01
4.790279e-01
6.366796e-01
1.927125e-01
1.927125e-01
2.714444e-01
2.714444e-01
3.322070e-01
3.119740e-01
3.322070e-01
3.119740e-01
1.092697e-01
1.092697e-01
-2.875332e-01
-2.875332e-01
-3.446579e-02
2.904388e-01
-3.446579e-02
2.904388e-01
-3.770542e-01
-3.770542e-01
-2.584627e-01
-2.584627e-01
-2.490098e-01
-3.100599e-01
-2.490098e-01
-3.100599e-01
-5.536216e-02
-5.536216e-02
7.259056e-02
7.259056e-02
-2.368051e-01
-2.985524e-01
-2.368051e-01
-2.985524e-01
-2.355663e-02
-2.355663e-02
-8.392553e-03
-8.392553e-03
-2.467058e-01
-1.151598e-01
-2.467058e-01
-1.151598e-01
-2.803927e-01
-2.803927e-01
-3.245264e-01
-3.245264e-01
-2.747351e-01
-2.350633e-01
-2.747351e-01
-2.350633e-01
2.502027e-02
2.502027e-02
-3.732437e-01
-3.732437e-01
-5.085617e-01
-3.294606e-01
-5.085617e-01
-3.294606e-01
-9.254246e-01
-9.254246e-01
-9.678882e-01
-9.678882e-01
-1.475161e+00
-1.143221e+00
-1.475161e+00
-1.143221e+00
-6.309251e-01
-6.309251e-01
-4.519067e-01
-4.519067e-01
2.951003e-02
-8.810457e-01
2.951003e-02
-8.810457e-01
-1.165926e+00
-1.165926e+00
-2.438767e+00
-2.438767e+00
-1.131130e+00
7.381513e-02
-1.131130e+00
7.381513e-02
-3.374764e+00
-3.374764e+00
-1.600984e+00
-1.600984e+00
-1.141633e+00
-2.172066e+00
-1.141633e+00
-2.172066e+00
2.054428e+00
2.054428e+00
1.645788e+00
1.645788e+00
5.186757e+00
3.518551e+00
5.186757e+00
3.518551e+00
6.928576e-01
6.928576e-01
3.534697e+00
3.534697e+00
-3.437786e+00
-7.149960e-01
-3.437786e+00
-7.149960e-01
5.110292e+00
5.110292e+00
4.904438e+00
4.904438e+00
-1.850680e+00
-2.429597e+00
-1.850680e+00
-2.429597e+00
3.102503e+00
3.102503e+00
6.581484e-01
6.581484e-01
-1.384065e+00
-1.321458e+00
-1.384065e+00
-1.321458e+00
-1.352348e-01
-1.352348e-01
5.494747e-01
5.494747e-01
5.661791e-01
-7.249448e-01
5.661791e-01
-7.249448e-01
2.202419e+00
2.202419e+00
3.540045e+00
3.540045e+00
6.110405e+00
3.141418e+00
6.110405e+00
3.141418e+00
3.416947e+00
3.416947e+00
2.189495e+00
2.189495e+00
4.759353e+00
6.522863e+00
4.759353e+00
6.522863e+00
1.402510e+00
1.402510e+00
1.214548e+00
1.214548e+00
2.155790e+00
3.064039e+00
2.155790e+00
3.064039e+00
7.145958e-01
7.145958e-01
6.836053e-01
6.836053e-01
5.500823e-01
3.527560e-01
5.500823e-01
3.527560e-01
4.111501e-01
4.111501e-01
3.602758e-01
3.602758e-01
4.484762e-01
5.666341e-01
4.484762e-01
5.666341e-01
3.421105e-01
3.421105e-01
2.954511e-01
2.954511e-01
2.912277e-01
2.643213e-01
2.912277e-01
2.643213e-01
3.822435e-01
3.822435e-01
4.545489e-01
4.545489e-01
-4.589412e-02
2.517816e-01
-4.589412e-02
2.517816e-01
2.753149e-01
2.753149e-01
-1.084771e-02
-1.084771e-02
-1.893265e-01
-1.641755e-01
-1.893265e-01
-1.641755e-01
-2.548056e-01
-2.548056e-01
-4.622989e-01
-4.622989e-01
-4.259766e-01
-3.194840e-01
-4.259766e-01
-3.194840e-01
-3.302813e-01
-3.302813e-01
-1.881547e-03
-1.881547e-03
-1.064264e-01
-2.059226e-01
-1.064264e-01
-2.059226e-01
-7.978450e-02
-7.978450e-02
-4.228743e-01
-4.228743e-01
-8.673372e-02
-1.542683e-01
-8.673372e-02
-1.542683e-01
-1.543719e-01
-1.543719e-01
-8.667450e-02
-8.667450e-02
-2.084668e-01
-5.696632e-02
-2.084668e-01
-5.696632e-02
-4.121563e-01
-4.121563e-01
-4.651420e-01
-4.651420e-01
-4.750572e-01
-2.736135e-01
-4.750572e-01
-2.736135e-01
-9.689341e-01
-9.689341e-01
-1.319493e+00
-1.319493e+00
-1.352628e+00
-1.117552e+00
-1.352628e+00
-1.117552e+00
-6.959070e-01
-6.959070e-01
1.302491e+00
1.302491e+00
4.034556e+00
2.112929e-02
4.034556e+00
2.112929e-02
3.785206e+00
3.785206e+00
3.883233e+00
3.883233e+00
1.013373e+01
9.301078e+00
1.013373e+01
9.301078e+00
1.285653e+00
1.285653e+00
-1.654174e+00
-1.654174e+00
-8.320873e+00
2.343580e+00
-8.320873e+00
2.343580e+00
-9.870890e-01
-9.870890e-01
4.220765e+00
4.220765e+00
-2.583914e+00
-1.133237e+01
-2.583914e+00
-1.133237e+01
1.161746e+00
1.161746e+00
-4.445889e+00
-4.445889e+00
2.046939e+00
3.507583e+00
2.046939e+00
3.507583e+00
-4.111768e+00
-4.111768e+00
-5.338835e+00
-5.338835e+00
3.789913e+00
4.203679e+00
3.789913e+00
4.203679e+00
-4.787734e+00
-4.787734e+00
-2.450149e+00
-2.450149e+00
-7.331544e-01
2.251675e-01
-7.331544e-01
2.251675e-01
-2.543630e+00
-2.543630e+00
-4.095701e+00
-4.095701e+00
-1.193031e+01
-5.029105e+00
-1.193031e+01
-5.029105e+00
-1.631754e+00
-1.631754e+00
5.372804e+00
5.372804e+00
-3.938967e-01
-1.079234e+01
-3.938967e-01
-1.079234e+01
9.306023e+00
9.306023e+00
7.672673e+00
7.672673e+00
8.131941e+00
8.001687e+00
8.131941e+00
8.001687e+00
4.309488e+00
4.309488e+00
2.476377e+00
2.476377e+00
2.491560e+00
4.353975e+00
2.491560e+00
4.353975e+00
3.674217e-01
3.674217e-01
6.264803e-01
6.264803e-01
2.898055e-01
2.571266e-01
2.898055e-01
2.571266e-01
4.729378e-01
4.729378e-01
2.760402e-01
2.760402e-01
-8.365320e-02
2.216263e-01
-8.365320e-02
2.216263e-01
2.097754e-01
2.097754e-01
1.527730e-01
1.527730e-01
1.418245e-01
7.604304e-02
1.418245e-01
7.604304e-02
-3.922005e-02
-3.922005e-02
-3.805158e-01
-3.805158e-01
-5.119129e-01
-2.851898e-01
-5.119129e-01
-2.851898e-01
-5.746850e-01
-5.746850e-01
-5.325103e-01
-5.325103e-01
-6.923342e-01
-6.432746e-01
-6.923342e-01
-6.432746e-01
-2.442493e-01
-2.442493e-01
-2.496785e-01
-2.496785e-01
-2.192069e-01
-4.655499e-01
-2.192069e-01
-4.655499e-01
-2.909445e-01
-2.909445e-01
-1.225593e-01
-1.225593e-01
2.082608e-01
3.045357e-02
2.082608e-01
3.045357e-02
5.991822e-02
5.991822e-02
1.712808e-01
1.712808e-01
2.577630e-01
3.770586e-01
2.577630e-01
3.770586e-01
-2.890964e-02
-2.890964e-02
-2.052149e-01
-2.052149e-01
1.119758e-01
7.365981e-02
1.119758e-01
7.365981e-02
-3.281810e-01
-3.281810e-01
-8.316730e-01
-8.316730e-01
-1.264249e+00
-3.990200e-01
-1.264249e+00
-3.990200e-01
-1.460582e+00
-1.460582e+00
-7.855163e-01
-7.855163e-01
1.632337e+00
-1.135638e+00
1.632337e+00
-1.135638e+00
2.666673e+00
2.666673e+00
8.657529e+00
8.657529e+00
1.233694e+01
7.284428e+00
1.233694e+01
7.284428e+00
1.345660e+01
1.345660e+01
1.043469e+01
1.043469e+01
1.622471e+00
1.097816e+01
1.622471e+00
1.097816e+01
-3.387767e+00
-3.387767e+00
-1.880077e+01
-1.880077e+01
-2.430326e+01
-1.155122e+01
-2.430326e+01
-1.155122e+01
-2.247443e+01
-2.247443e+01
-1.155058e+01
-1.155058e+01
-2.255296e+01
-3.081274e+01
-2.255296e+01
-3.081274e+01
2.410183e+00
2.410183e+00
4.521278e+00
4.521278e+00
2.978539e-01
-5.966183e+00
2.978539e-01
-5.966183e+00
3.011456e+00
3.011456e+00
6.527191e+00
6.527191e+00
6.678877e-01
-2.132559e+00
6.678877e-01
-2.132559e+00
5.586823e+00
5.586823e+00
2.861030e-01
2.861030e-01
-9.784809e+00
-1.191346e+00
-9.784809e+00
-1.191346e+00
-7.692247e+00
-7.692247e+00
-1.491831e+01
-1.491831e+01
-1.303772e+01
-1.522843e+01
-1.303772e+01
-1.522843e+01
-1.411219e+01
-1.411219e+01
-7.073034e+00
-7.073034e+00
-1.097126e+01
-9.269056e+00
-1.097126e+01
-9.269056e+00
1.823494e+00
1.823494e+00
5.350827e+00
5.350827e+00
-1.180583e+00
-6.865359e+00
-1.180583e+00
-6.865359e+00
3.140626e+00
3.140626e+00
1.880252e+00
1.880252e+00
-3.866294e-01
-3.949704e-01
-3.866294e-01
-3.949704e-01
-9.286166e-04
-9.286166e-04
-6.791572e-02
-6.791572e-02
-2.499357e-01
-8.664152e-02
-2.499357e-01
-8.664152e-02
-5.175687e-02
-5.175687e-02
-2.409697e-01
-2.409697e-01
-1.969389e-01
-5.006662e-02
-1.969389e-01
-5.006662e-02
-1.011167e-01
-1.011167e-01
3.388575e-02
3.388575e-02
-2.827871e-01
-4.301662e-01
-2.827871e-01
-4.301662e-01
-2.844138e-01
-2.844138e-01
-5.047745e-01
-5.047745e-01
-4.619237e-01
-3.076006e-01
-4.619237e-01
-3.076006e-01
-4.712166e-01
-4.712166e-01
-5.403932e-01
-5.403932e-01
-4.389652e-01
-4.758007e-01
-4.389652e-01
-4.758007e-01
-5.921574e-01
-5.921574e-01
-6.299861e-02
-6.299861e-02
4.809082e-02
-2.805013e-01
4.809082e-02
-2.805013e-01
2.655570e-01
2.655570e-01
2.798300e-01
2.798300e-01
6.871026e-02
1.379585e-01
6.871026e-02
1.379585e-01
4.231514e-01
4.231514e-01
3.396035e-01
3.396035e-01
5.104938e-01
3.171491e-01
5.104938e-01
3.171491e-01
4.502445e-01
4.502445e-01
1.934892e-01
1.934892e-01
1.379266e-01
4.257561e-01
1.379266e-01
4.257561e-01
-7.138179e-01
-7.138179e-01
-9.970070e-01
-9.970070e-01
-1.519767e-01
-5.534184e-01
-1.519767e-01
-5.534184e-01
6.103756e-01
6.103756e-01
5.179689e+00
5.179689e+00
8.909257e+00
3.182914e+00
8.909257e+00
3.182914e+00
1.074525e+01
1.074525e+01
9.979313e+00
9.979313e+00
1.970415e-01
1.033379e+01
1.970415e-01
1.033379e+01
1.555738e-01
1.555738e-01
-1.067795e+01
-1.067795e+01
-1.860227e+01
-1.306133e+01
-1.860227e+01
-1.306133e+01
-1.546118e+01
-1.546118e+01
-2.298969e+01
-2.298969e+01
-2.265088e+01
-1.844461e+01
-2.265088e+01
-1.844461e+01
-3.719946e+01
-3.719946e+01
-3.605959e+01
-3.605959e+01
-5.231650e+01
-4.192037e+01
-5.231650e+01
-4.192037e+01
-2.123461e+01
-2.123461e+01
-1.092091e+01
-1.092091e+01
-1.207819e+01
-3.866512e+01
-1.207819e+01
-3.866512e+01
-1.078449e+01
-1.078449e+01
-1.116734e+01
-1.116734e+01
-2.109674e+01
-6.360581e+00
-2.109674e+01
-6.360581e+00
-1.751329e+01
-1.751329e+01
-2.721242e+01
-2.721242e+01
-3.990570e+01
-3.842123e+01
-3.990570e+01
-3.842123e+01
-2.298609e+01
-2.298609e+01
-1.149556e+01
-1.149556e+01
-1.216832e+01
-1.990175e+01
-1.216832e+01
-1.990175e+01
-6.816615e+00
-6.816615e+00
-1.350308e+01
-1.350308e+01
-1.893192e+01
-1.436025e+01
-1.893192e+01
-1.436025e+01
-1.561184e+01
-1.561184e+01
-1.033079e+01
-1.033079e+01
-1.822952e+01
-2.181993e+01
-1.822952e+01
-2.181993e+01
-4.689657e+00
-4.689657e+00
-2.351274e+00
-2.351274e+00
-2.966112e+00
-6.534539e+00
-2.966112e+00
-6.534539e+00
-1.121471e-01
-1.121471e-01
-4.564636e-01
-4.564636e-01
-1.549301e-01
-1.549301e-01
-1.508564e-01
-1.508564e-01
-5.461607e-01
-5.461607e-01
-2.625539e-01
-2.625539e-01
-5.491305e-02
-5.491305e-02
-3.558588e-01
-3.558588e-01
-4.811746e-01
-4.811746e-01
-4.312523e-01
-4.312523e-01
-1.367945e-01
-1.367945e-01
1.026835e-01
1.026835e-01
-5.598030e-02
-5.598030e-02
-4.320387e-02
-4.320387e-02
3.509799e-01
3.509799e-01
3.869476e-01
3.869476e-01
2.158996e-01
2.158996e-01
1.430771e-01
1.430771e-01
-2.129180e-01
-2.129180e-01
1.213494e+00
1.213494e+00
6.165014e+00
6.165014e+00
1.100818e+01
1.100818e+01
5.029397e+00
5.029397e+00
-1.262437e+01
-1.262437e+01
-2.215110e+01
-2.215110e+01
-2.284409e+01
-2.284409e+01
-2.384399e+01
-2.384399e+01
-2.578194e+01
-2.578194e+01
-3.647572e+01
-3.647572e+01
-4.692816e+01
-4.692816e+01
-2.621405e+01
-2.621405e+01
1.708090e+01
1.708090e+01
3.117759e+01
3.117759e+01
1.471030e+01
1.471030e+01
-2.571114e+01
-2.571114e+01
-3.483703e+01
-3.483703e+01
-1.487996e+01
-1.487996e+01
-2.013140e+01
-2.013140e+01
-2.843003e+01
-2.843003e+01
-2.890108e+01
-2.890108e+01
-2.505049e+01
-2.505049e+01
-2.518248e+01
-2.518248e+01
-2.639274e-01
-1.843073e-01
-2.044187e-01
-3.181570e-01
-3.012938e-01
-2.704239e-01
-2.169609e-01
-2.447033e-01
-3.722707e-01
-5.374943e-01
-5.677467e-01
-5.326005e-01
-8.277126e-02
-2.888725e-01
-6.125258e-01
-8.411389e-01
-9.795904e-01
-1.006981e+00
-4.966469e-02
-3.105687e-01
-6.908971e-01
-9.200076e-01
-1.136442e+00
-1.243191e+00
-1.087870e-01
-3.715749e-01
-6.903970e-01
-8.355743e-01
-1.090577e+00
-1.256437e+00
-1.525997e-01
-3.694642e-01
-5.902355e-01
-6.849363e-01
-9.426130e-01
-1.109496e+00
7.015430e-04
-2.000029e-01
-3.975777e-01
-5.397309e-01
-7.527178e-01
-8.204218e-01
1.987222e-01
2.303040e-02
-2.414921e-01
-4.116754e-01
-5.273220e-01
-5.616161e-01
1.081144e-01
7.154576e-02
-1.249036e-01
-2.678437e-01
-2.970613e-01
-3.432196e-01
-2.630078e-02
-1.908375e-02
-5.727526e-02
-7.419426e-02
-7.449471e-02
-1.032847e-01
-6.419573e-02
-7.946278e-02
-4.911443e-02
3.011695e-02
4.394995e-02
2.416699e-02
-1.089166e-01
-1.098535e-02
-1.998467e-02
-1.876491e-01
-3.183286e-01
-3.882744e-01
-3.875281e-02
3.049867e-02
-1.393286e-02
-2.884678e-01
-5.670703e-01
-6.848207e-01
3.640631e-01
1.775009e-01
-2.708883e-02
-3.475944e-01
-8.954156e-01
-1.140759e+00
5.755829e-01
2.250074e-01
-1.780439e-02
-2.283409e-01
-9.287696e-01
-1.310898e+00
4.255051e-01
1.293837e-01
1.068199e-02
-1.213489e-01
-8.519019e-01
-1.273004e+00
3.338640e-01
7.301054e-02
-3.839308e-02
-1.427483e-01
-7.815527e-01
-1.166552e+00
8.134830e-02
3.841263e-03
-9.220168e-02
-2.522697e-01
-6.736301e-01
-9.534584e-01
3.181744e-02
1.238054e-02
-9.787298e-02
-2.963694e-01
-5.360369e-01
-6.680245e-01
1.264306e-01
7.309224e-02
-6.919493e-02
-2.324359e-01
-3.775459e-01
-4.483638e-01
-1.301931e-02
1.208242e-03
-3.243480e-02
-8.915986e-02
-1.592572e-01
-2.205001e-01
-1.067929e-01
-7.244011e-02
-2.528465e-02
4.774222e-03
-3.005781e-02
-8.214602e-02
3.183879e-01
1.958906e-01
1.944733e-01
6.847955e-02
-3.555223e-01
-5.324506e-01
4.978634e-01
4.444320e-01
4.152783e-01
4.546865e-02
-5.879578e-01
-8.272971e-01
1.037019e+00
8.787533e-01
7.610810e-01
1.393962e-01
-8.559790e-01
-1.189076e+00
1.246209e+00
1.012513e+00
9.185989e-01
3.939096e-01
-7.767120e-01
-1.282861e+00
8.847904e-01
8.223839e-01
8.747154e-01
4.744176e-01
-6.126282e-01
-1.184638e+00
9.171943e-01
6.045079e-01
5.528977e-01
3.219205e-01
-6.041746e-01
-1.038216e+00
6.971069e-01
3.282962e-01
1.760366e-01
6.276756e-02
-6.423221e-01
-1.017592e+00
5.080978e-02
5.519265e-02
1.459393e-02
-2.080126e-01
-6.389524e-01
-8.922672e-01
1.654774e-02
4.086144e-02
-3.507862e-02
-3.061014e-01
-5.652224e-01
-6.535744e-01
2.790103e-02
1.960852e-02
-5.588407e-02
-1.995333e-01
-3.419922e-01
-4.080021e-01
-1.093602e-01
-6.397312e-02
-5.701255e-02
-1.019337e-01
-1.917525e-01
-2.750766e-01
2.160950e-01
1.533552e-01
4.439816e-01
3.651867e-01
-2.354034e-01
-4.038325e-01
2.757182e-01
3.938749e-01
6.282223e-01
2.183630e-01
-4.464917e-01
-5.852965e-01
1.258995e-01
6.775196e-01
9.354891e-01
-1.300401e-01
-8.793698e-01
-8.568209e-01
4.728227e-01
7.437586e-01
8.320300e-01
-1.736098e-01
-1.048507e+00
-1.100429e+00
2.539942e-01
4.182232e-01
5.080354e-01
-2.007206e-02
-7.833619e-01
-1.092961e+00
-5.953997e-01
5.902878e-03
4.949099e-01
1.315396e-02
-5.392259e-01
-7.221454e-01
2.306136e-01
2.021154e-01
3.434974e-01
3.339770e-02
-5.515236e-01
-6.564649e-01
6.416238e-01
2.963361e-01
3.360065e-02
-1.828693e-01
-6.817161e-01
-8.815406e-01
1.353294e-01
8.490926e-02
-1.090559e-01
-4.498874e-01
-7.330122e-01
-8.188506e-01
4.896251e-02
2.825789e-03
-1.594768e-01
-3.968695e-01
-5.188189e-01
-5.195414e-01
-2.031336e-02
-3.349351e-02
-1.413413e-01
-2.756460e-01
-3.395809e-01
-3.638787e-01
4.503925e-01
5.473242e-01
1.070665e+00
1.066992e+00
3.115131e-01
-1.388557e-02
8.387126e-01
7.523151e-01
8.004020e-01
8.047387e-01
3.919809e-01
1.093710e-01
-1.522246e+00
-6.717164e-01
-3.517581e-01
-4.851019e-01
1.526885e-01
3.932510e-01
-4.697380e+00
-3.394105e+00
-2.091089e+00
-1.529815e+00
-2.205385e-01
5.272056e-01
-3.019647e+00
-2.926790e+00
-2.435429e+00
-1.213659e+00
3.982433e-02
4.700436e-01
-5.689232e-01
-3.382529e-01
-7.250918e-01
-4.598892e-01
4.136013e-01
4.043801e-01
2.745075e-01
5.026154e-01
4.135405e-01
2.189052e-01
2.065689e-01
7.168521e-02
4.337856e-01
1.694494e-01
2.284765e-01
1.384958e-01
-4.068113e-01
-5.387745e-01
3.710653e-02
-1.945693e-02
-1.111083e-01
-4.710280e-01
-8.005084e-01
-8.051568e-01
8.043859e-02
1.783872e-02
-2.528994e-01
-5.988627e-01
-6.592202e-01
-5.817525e-01
1.834334e-01
9.786278e-02
-1.815576e-01
-4.558885e-01
-4.706354e-01
-4.049012e-01
1.059277e+00
1.017383e+00
1.477863e+00
1.597712e+00
7.181517e-01
2.211176e-01
1.982260e+00
1.300044e+00
8.305108e-01
1.303130e+00
1.067423e+00
5.717816e-01
-2.033151e+00
-1.584840e+00
-1.610680e+00
-5.772811e-01
1.163399e+00
1.396528e+00
-9.048817e+00
-7.011286e+00
-4.664328e+00
-2.387916e+00
8.236095e-01
2.068151e+00
-5.737498e+00
-5.675602e+00
-4.849259e+00
-2.031216e+00
1.034342e+00
2.046304e+00
1.067014e+00
5.218820e-03
-1.847657e+00
-7.016849e-01
1.317798e+00
1.400227e+00
1.320007e+00
1.049907e+00
2.789849e-01
4.613585e-01
8.260832e-01
5.076118e-01
-1.789696e-01
-1.451187e-01
3.731935e-01
4.077684e-01
-1.833436e-01
-3.245692e-01
-3.080970e-01
-2.016482e-01
-6.077563e-02
-4.574560e-01
-8.074066e-01
-7.262531e-01
1.184920e-01
4.774267e-02
-2.910189e-01
-6.989274e-01
-7.207674e-01
-6.027111e-01
3.381632e-01
2.001838e-01
-1.930028e-01
-5.437839e-01
-5.415485e-01
-4.437391e-01
SCALARS S12 float 1
LOOKUP_TABLE default
-1.234532e+00
-2.350670e-01
4.409998e-01
-8.622467e-01
-1.234532e+00
-2.350670e-01
4.409998e-01
-8.622467e-01
-5.271709e-02
2.097220e+00
-5.271709e-02
2.097220e+00
8.511008e+00
4.209115e+00
8.511008e+00
4.209115e+00
2.303307e+00
2.303307e+00
-1.935144e-01
-2.241802e-01
6.943171e-03
-9.835111e-02
-1.935144e-01
-2.241802e-01
6.943171e-03
-9.835111e-02
2.061902e-01
5.013964e-02
2.061902e-01
5.013964e-02
-4.894744e-02
3.187799e-01
-4.894744e-02
3.187799e-01
1.863800e-01
1.863800e-01
6.377445e-01
-5.846544e-02
-2.738005e-01
6.377445e-01
-5.846544e-02
-2.738005e-01
2.815001e-01
1.240793e-01
2.815001e-01
1.240793e-01
-7.256190e-02
-3.154111e-01
-7.256190e-02
-3.154111e-01
-2.766150e-01
-2.766150e-01
9.653428e-02
3.271512e-02
-7.277024e-03
5.811632e-02
9.653428e-02
3.271512e-02
-7.277024e-03
5.811632e-02
-9.453509e-02
-1.458678e-02
-9.453509e-02
-1.458678e-02
-2.312357e-01
-1.534356e-01
-2.312357e-01
-1.534356e-01
-7.729402e-02
-7.729402e-02
1.326245e-01
-1.746612e-01
8.818350e-02
4.276227e-01
1.326245e-01
-1.746612e-01
8.818350e-02
4.276227e-01
-1.255847e-01
-1.255847e-01
-1.643316e-01
-1.643316e-01
7.763571e-02
8.144202e-02
1.276529e-01
2.035253e-01
7.763571e-02
8.144202e-02
1.276529e-01
2.035253e-01
8.052948e-02
8.052948e-02
1.155460e-01
1.155460e-01
2.388124e-02
4.815356e-02
3.552486e-01
3.570505e-01
2.388124e-02
4.815356e-02
3.552486e-01
3.570505e-01
6.585881e-02
3.149222e-01
6.585881e-02
3.149222e-01
-2.360304e-02
1.287573e-01
-2.360304e-02
1.287573e-01
1.050435e-01
1.050435e-01
-1.996817e-02
5.152328e-02
3.815992e-02
-6.962593e-02
-1.996817e-02
5.152328e-02
3.815992e-02
-6.962593e-02
-9.235505e-02
1.029893e-02
-9.235505e-02
1.029893e-02
3.028043e-02
-9.372461e-02
3.028043e-02
-9.372461e-02
1.202065e-02
1.202065e-02
1.538817e+00
3.394231e+00
2.515053e+00
2.392740e+00
1.538817e+00
3.394231e+00
2.515053e+00
2.392740e+00
8.029571e+00
2.698482e+00
8.029571e+00
2.698482e+00
7.041238e-01
1.774237e+00
7.041238e-01
1.774237e+00
1.788893e+00
1.788893e+00
-5.981027e-01
-1.513975e-01
1.027211e+00
-5.981027e-01
-1.513975e-01
1.027211e+00
2.990894e-01
2.440289e-01
2.990894e-01
2.440289e-01
-1.090554e-03
-1.090554e-03
3.529897e-01
3.529897e-01
1.256470e-02
7.968930e-02
1.256470e-02
7.968930e-02
-2.285240e-01
-7.126398e-01
-1.554269e-01
-8.123122e-01
-2.285240e-01
-7.126398e-01
-1.554269e-01
-8.123122e-01
3.232743e-02
3.232743e-02
3.330236e-01
-6.571923e-03
-2.019729e-01
2.175906e-01
3.330236e-01
-6.571923e-03
-2.019729e-01
2.175906e-01
1.551758e-01
1.551758e-01
-3.468733e-01
-3.468733e-01
3.061425e-02
3.061425e-02
-1.068974e+00
-1.068974e+00
-6.630825e-02
-6.630825e-02
2.879507e-01
2.879507e-01
-2.527215e-01
6.504352e-02
-2.527215e-01
6.504352e-02
-5.477204e-01
-5.477204e-01
1.891243e-01
-9.313300e-02
1.891243e-01
-9.313300e-02
1.834654e-01
1.834654e-01
1.145660e-01
9.877163e-02
1.145660e-01
9.877163e-02
-2.591112e-01
1.767936e-01
-2.591112e-01
1.767936e-01
1.087728e-01
-4.502475e-03
1.087728e-01
-4.502475e-03
-1.796560e-01
-1.796560e-01
8.872215e-02
8.872215e-02
5.267779e-02
-1.577319e-02
5.267779e-02
-1.577319e-02
-1.084148e-01
-1.084148e-01
6.944586e-02
8.210196e-03
6.944586e-02
8.210196e-03
-1.062195e-01
1.591755e-02
1.740772e-01
2.533176e-01
-1.062195e-01
1.591755e-02
1.740772e-01
2.533176e-01
1.946697e-02
5.851728e-02
1.946697e-02
5.851728e-02
-1.483064e-01
-1.221989e-01
-1.483064e-01
-1.221989e-01
1.561589e-01
1.075077e-01
5.456951e-03
2.974640e-02
1.561589e-01
1.075077e-01
5.456951e-03
2.974640e-02
6.540601e-02
5.136911e-02
6.540601e-02
5.136911e-02
-2.586120e-03
-7.669502e-03
-2.586120e-03
-7.669502e-03
-9.683219e-03
-9.683219e-03
-2.009044e-01
-8.980010e-02
-2.009044e-01
-8.980010e-02
-1.230943e-01
-1.230943e-01
-7.709782e-04
-7.709782e-04
2.624618e-02
1.035799e-01
6.714846e-02
6.474766e-02
2.624618e-02
1.035799e-01
6.714846e-02
6.474766e-02
2.901309e-02
2.901309e-02
2.034273e-01
2.034273e-01
1.512632e-01
1.351331e-01
1.327738e-01
9.392813e-02
1.512632e-01
1.351331e-01
1.327738e-01
9.392813e-02
-9.410798e-02
-9.410798e-02
-2.084626e-01
-1.356204e-01
-6.645060e-03
-4.585706e-02
-2.084626e-01
-1.356204e-01
-6.645060e-03
-4.585706e-02
1.333067e-01
1.333067e-01
3.696884e-02
1.650586e-01
3.696884e-02
1.650586e-01
2.554746e-01
2.843753e-01
2.554746e-01
2.843753e-01
1.893623e-01
1.893623e-01
-2.405282e-02
-2.405282e-02
-1.476174e-01
-1.476174e-01
-9.689874e-02
-1.666863e-01
-9.689874e-02
-1.666863e-01
-7.442922e-02
-2.551851e-01
-7.442922e-02
-2.551851e-01
-6.961575e-02
-6.961575e-02
-5.012042e-02
-9.341229e-02
-3.302783e-01
-2.828567e-01
-5.012042e-02
-9.341229e-02
-3.302783e-01
-2.828567e-01
-1.904553e-01
-1.904553e-01
-7.350456e-02
-7.350456e-02
3.902759e-01
7.017260e-01
1.884718e+00
1.218216e+00
3.902759e-01
7.017260e-01
1.884718e+00
1.218216e+00
5.317464e-02
5.317464e-02
3.615204e-02
3.615204e-02
9.058799e-02
9.058799e-02
-5.168710e-01
-6.353537e-01
-5.168710e-01
-6.353537e-01
-1.021614e+00
-1.021614e+00
-9.875729e-01
-9.875729e-01
6.190683e-02
7.982246e-01
6.190683e-02
7.982246e-01
-6.068581e-02
-6.068581e-02
-4.844691e-02
-4.844691e-02
-1.522662e-01
-1.299678e-01
-1.522662e-01
-1.299678e-01
-2.485811e-02
-4.289987e-02
-2.485811e-02
-4.289987e-02
1.500371e+00
5.199952e-01
-1.296018e+00
-1.399725e+00
1.500371e+00
5.199952e-01
-1.296018e+00
-1.399725e+00
-2.177872e-01
-2.177872e-01
-2.238895e-01
-2.238895e-01
2.210621e+00
-1.265653e+00
2.210621e+00
-1.265653e+00
3.155805e+00
1.134068e+01
3.155805e+00
1.134068e+01
-5.374809e-02
-5.374809e-02
2.379443e-01
2.379443e-01
-8.969358e-02
2.780751e-01
-8.969358e-02
2.780751e-01
3.054456e-02
3.054456e-02
-2.363882e-02
-5.096854e-02
-2.363882e-02
-5.096854e-02
5.250929e-02
5.250929e-02
3.524253e-03
3.524253e-03
3.419685e-03
3.419685e-03
-1.207871e-02
-1.031806e-01
-1.207871e-02
-1.031806e-01
4.684698e-02
4.684698e-02
-3.190252e-02
-3.190252e-02
-3.181018e-02
1.218774e-02
-3.181018e-02
1.218774e-02
-6.007940e-02
-6.007940e-02
-1.665055e-02
-1.665055e-02
-2.183149e-02
2.028641e-02
-2.183149e-02
2.028641e-02
-1.037560e-02
-1.037560e-02
-6.604892e-03
-6.604892e-03
-1.894263e-01
-1.347145e-01
-1.894263e-01
-1.347145e-01
6.884985e-02
8.987723e-02
6.884985e-02
8.987723e-02
5.045461e-02
5.045461e-02
6.307066e-02
3.690172e-03
6.307066e-02
3.690172e-03
1.428631e-01
1.428631e-01
-8.327990e-02
-8.327990e-02
-4.901749e-02
-4.901749e-02
-4.203726e-02
4.243668e-02
-4.203726e-02
4.243668e-02
-2.366260e-02
-2.366260e-02
4.240407e-02
4.240407e-02
2.016127e-02
-4.025224e-02
2.016127e-02
-4.025224e-02
1.362893e-01
1.362893e-01
3.882580e-02
3.882580e-02
1.287556e-03
3.205221e-02
1.287556e-03
3.205221e-02
-4.708152e-02
-4.708152e-02
-5.328747e-02
-5.328747e-02
3.668761e-02
1.535172e-02
3.668761e-02
1.535172e-02
-9.910747e-02
1.218580e-01
-9.910747e-02
1.218580e-01
-8.096488e-03
-8.096488e-03
-3.518524e-02
-8.311105e-02
-3.518524e-02
-8.311105e-02
4.156380e-02
4.156380e-02
9.464999e-02
9.464999e-02
3.078932e-02
3.078932e-02
-8.019809e-03
-1.200525e-03
-8.019809e-03
-1.200525e-03
-4.230566e-03
-4.230566e-03
-3.206424e-02
-3.206424e-02
-2.375810e-02
-2.443899e-02
-2.375810e-02
-2.443899e-02
-5.735831e-02
-5.735831e-02
-3.228394e-04
-3.228394e-04
-5.359336e-03
-1.498912e-02
-5.359336e-03
-1.498912e-02
7.984982e-03
7.984982e-03
-2.498234e-02
-2.498234e-02
-7.606909e-03
-1.052321e-03
-7.606909e-03
-1.052321e-03
-4.509666e-02
-1.038816e-01
-4.509666e-02
-1.038816e-01
-4.312636e-02
-4.312636e-02
6.570819e-03
2.222417e-02
6.570819e-03
2.222417e-02
-7.975123e-02
-7.975123e-02
-7.534937e-02
-7.534937e-02
-4.098885e-02
-4.098885e-02
-6.714836e-03
-4.249309e-02
-6.714836e-03
-4.249309e-02
-2.852207e-02
-2.852207e-02
-3.611173e-02
-3.611173e-02
-4.148360e-02
3.126724e-03
-4.148360e-02
3.126724e-03
-3.005343e-04
-3.005343e-04
1.150970e-02
1.150970e-02
3.386427e-02
2.274352e-03
3.386427e-02
2.274352e-03
-2.038349e-02
-2.038349e-02
-3.905517e-02
-3.905517e-02
-8.086394e-02
-3.901250e-02
-8.086394e-02
-3.901250e-02
3.437977e-02
-2.009734e-02
3.437977e-02
-2.009734e-02
3.654220e-02
3.654220e-02
-6.353132e-02
3.999310e-04
-6.353132e-02
3.999310e-04
-5.727784e-02
-5.727784e-02
-3.943143e-02
-3.943143e-02
-7.447716e-02
-7.447716e-02
-7.707618e-02
-1.180587e-01
-7.707618e-02
-1.180587e-01
-2.788182e-02
-2.788182e-02
1.691150e-02
1.691150e-02
4.426210e-02
-1.067843e-02
4.426210e-02
-1.067843e-02
1.669370e-02
1.669370e-02
1.417287e-02
1.417287e-02
3.490102e-02
1.895563e-02
3.490102e-02
1.895563e-02
-6.202912e-03
-6.202912e-03
-3.593053e-02
-3.593053e-02
-5.641010e-02
1.965249e-02
-5.641010e-02
1.965249e-02
-2.654701e-02
-7.896468e-02
-2.654701e-02
-7.896468e-02
-1.779861e-01
-1.779861e-01
-1.658115e-01
-4.497930e-02
-1.658115e-01
-4.497930e-02
-2.398355e-02
-2.398355e-02
-2.497579e-01
-2.497579e-01
-5.612811e-02
-5.612811e-02
-7.586381e-02
-2.350455e-01
-7.586381e-02
-2.350455e-01
3.535037e-02
3.535037e-02
-1.382718e-02
-1.382718e-02
3.457728e-02
6.560485e-02
3.457728e-02
6.560485e-02
-3.888311e-02
-3.888311e-02
2.891974e-02
2.891974e-02
-1.433369e-02
-4.252093e-02
-1.433369e-02
-4.252093e-02
2.570614e-02
2.570614e-02
-5.051529e-02
-5.051529e-02
3.277364e-02
4.269332e-02
3.277364e-02
4.269332e-02
-2.285254e-02
5.749600e-02
-2.285254e-02
5.749600e-02
-9.503910e-02
-9.503910e-02
-1.010907e-01
-4.087770e-02
-1.010907e-01
-4.087770e-02
7.793633e-02
7.793633e-02
-1.152147e-01
-1.152147e-01
1.022201e-02
1.022201e-02
1.396194e-02
-8.196074e-02
1.396194e-02
-8.196074e-02
1.040336e-01
1.040336e-01
6.784441e-02
6.784441e-02
2.417656e-02
4.138097e-02
2.417656e-02
4.138097e-02
7.453514e-03
7.453514e-03
-7.527850e-03
-7.527850e-03
-1.272174e-02
1.251619e-02
-1.272174e-02
1.251619e-02
3.943414e-02
3.943414e-02
5.356667e-02
5.356667e-02
1.159027e-01
5.797934e-02
1.159027e-01
5.797934e-02
-4.771218e-02
7.118702e-03
-4.771218e-02
7.118702e-03
-1.419123e-01
-1.419123e-01
-1.188273e-01
-3.636437e-02
-1.188273e-01
-3.636437e-02
-7.083849e-02
-7.083849e-02
-1.227151e-01
-1.227151e-01
-4.086549e-02
-4.086549e-02
4.740464e-03
-1.049303e-01
4.740464e-03
-1.049303e-01
-1.281448e-02
-1.281448e-02
-3.478457e-02
-3.478457e-02
-6.551072e-02
-7.801381e-03
-6.551072e-02
-7.801381e-03
-7.578798e-02
-7.578798e-02
-9.920859e-02
-9.920859e-02
-7.270411e-02
-6.622759e-02
-7.270411e-02
-6.622759e-02
2.487640e-03
2.487640e-03
1.057597e-01
1.057597e-01
-7.006313e-03
-5.274533e-02
-7.006313e-03
-5.274533e-02
1.824042e-02
-6.685990e-02
1.824042e-02
-6.685990e-02
2.321412e-03
2.321412e-03
1.051160e-01
8.383332e-02
1.051160e-01
8.383332e-02
-9.922022e-02
-9.922022e-02
5.027258e-02
5.027258e-02
1.547183e-02
1.547183e-02
-1.689826e-02
9.924201e-02
-1.689826e-02
9.924201e-02
-9.884174e-02
-9.884174e-02
2.507904e-02
2.507904e-02
-4.945858e-02
-1.630880e-01
-4.945858e-02
-1.630880e-01
1.004076e-01
1.004076e-01
1.473280e-02
1.473280e-02
-6.909906e-03
6.705349e-02
-6.909906e-03
6.705349e-02
1.320801e-02
1.320801e-02
5.193096e-02
5.193096e-02
4.940612e-02
-1.663883e-02
4.940612e-02
-1.663883e-02
1.401512e-02
-9.131429e-02
1.401512e-02
-9.131429e-02
7.249610e-02
7.249610e-02
7.240244e-02
-1.353092e-02
7.240244e-02
-1.353092e-02
-1.017036e-02
-1.017036e-02
8.844213e-02
8.844213e-02
2.115996e-02
2.115996e-02
1.180027e-01
2.154825e-01
1.180027e-01
2.154825e-01
-7.874446e-02
-7.874446e-02
-1.331503e-01
-1.331503e-01
1.073479e-02
3.348476e-02
1.073479e-02
3.348476e-02
-3.376627e-02
-3.376627e-02
-2.531155e-02
-2.531155e-02
-3.637591e-02
-1.890857e-02
-3.637591e-02
-1.890857e-02
-1.173348e-01
-1.173348e-01
-1.140258e-01
-1.140258e-01
-9.643975e-02
-7.688694e-02
-9.643975e-02
-7.688694e-02
2.931929e-02
6.306946e-03
2.931929e-02
6.306946e-03
1.202751e-01
1.202751e-01
1.724928e-01
8.588188e-02
1.724928e-01
8.588188e-02
5.639511e-02
5.639511e-02
2.464529e-01
2.464529e-01
1.481508e-01
1.481508e-01
1.088540e-01
1.987422e-01
1.088540e-01
1.987422e-01
8.266095e-02
8.266095e-02
1.110256e-01
1.110256e-01
2.585855e-02
4.157891e-02
2.585855e-02
4.157891e-02
8.455409e-03
8.455409e-03
-3.544912e-02
-3.544912e-02
2.090474e-02
3.257534e-03
2.090474e-02
3.257534e-03
2.046446e-02
2.046446e-02
3.380406e-02
3.380406e-02
1.034022e-02
3.056162e-02
1.034022e-02
3.056162e-02
5.280325e-02
7.085456e-02
5.280325e-02
7.085456e-02
1.174080e-01
1.174080e-01
5.248835e-03
-4.888553e-02
5.248835e-03
-4.888553e-02
4.997650e-02
4.997650e-02
1.177820e-01
1.177820e-01
6.857757e-02
6.857757e-02
5.652655e-02
3.987573e-02
5.652655e-02
3.987573e-02
1.581082e-02
1.581082e-02
-2.046519e-03
-2.046519e-03
1.334952e-01
1.053490e-01
1.334952e-01
1.053490e-01
3.806592e-02
3.806592e-02
5.819989e-02
5.819989e-02
2.722599e-02
1.081567e-01
2.722599e-02
1.081567e-01
1.964904e-03
1.964904e-03
-5.066888e-02
-5.066888e-02
-9.286578e-02
-5.916124e-02
-9.286578e-02
-5.916124e-02
-6.713753e-02
7.118769e-02
-6.713753e-02
7.118769e-02
-2.673110e-02
-2.673110e-02
-5.681464e-02
-6.500692e-02
-5.681464e-02
-6.500692e-02
1.881785e-02
1.881785e-02
1.678134e-02
1.678134e-02
1.532721e-02
1.532721e-02
-2.663133e-02
-2.951186e-02
-2.663133e-02
-2.951186e-02
8.726401e-02
8.726401e-02
1.010369e-01
1.010369e-01
-3.357514e-02
-3.084374e-02
-3.357514e-02
-3.084374e-02
6.576546e-02
6.576546e-02
7.326145e-03
7.326145e-03
-7.887286e-03
-1.300010e-02
-7.887286e-03
-1.300010e-02
-9.739124e-02
-9.739124e-02
-1.480266e-01
-1.480266e-01
-1.073285e-01
-5.444997e-02
-1.073285e-01
-5.444997e-02
-3.146082e-02
2.366314e-02
-3.146082e-02
2.366314e-02
-1.836792e-02
-1.836792e-02
3.393797e-02
-1.126668e-03
3.393797e-02
-1.126668e-03
8.036647e-02
8.036647e-02
5.583149e-02
5.583149e-02
1.872510e-02
1.872510e-02
6.020635e-02
1.648107e-01
6.020635e-02
1.648107e-01
-8.707287e-02
-8.707287e-02
-4.878431e-02
-4.878431e-02
-3.303952e-02
-1.068528e-01
-3.303952e-02
-1.068528e-01
1.033920e-02
1.033920e-02
-3.197084e-03
-3.197084e-03
2.658938e-02
5.507565e-02
2.658938e-02
5.507565e-02
2.576025e-02
2.576025e-02
3.934103e-02
3.934103e-02
1.336967e-01
7.644074e-02
1.336967e-01
7.644074e-02
9.306514e-02
1.074919e-01
2.208314e-01
1.150539e-01
9.306514e-02
1.074919e-01
2.208314e-01
1.150539e-01
4.589507e-02
8.627910e-02
4.589507e-02
8.627910e-02
1.319642e-01
2.592100e-01
1.319642e-01
2.592100e-01
1.525838e-01
1.525838e-01
7.630543e-03
-1.650195e-02
7.630543e-03
-1.650195e-02
2.562106e-02
2.195327e-02
2.562106e-02
2.195327e-02
-4.183389e-02
1.478771e-02
-4.183389e-02
1.478771e-02
-4.506595e-02
-4.511113e-02
-4.506595e-02
-4.511113e-02
-1.659423e-01
-1.659423e-01
2.328699e-01
1.711509e-01
2.328699e-01
1.711509e-01
1.440612e-01
1.440612e-01
1.711234e-01
1.678426e-01
1.711234e-01
1.678426e-01
1.271881e-01
1.271881e-01
2.588803e-02
2.588803e-02
-7.026126e-02
-7.026126e-02
-6.136607e-02
6.901771e-02
-6.136607e-02
6.901771e-02
-1.692851e-01
-1.692851e-01
-1.096889e-01
-1.096889e-01
1.457301e-01
1.096312e-01
1.457301e-01
1.096312e-01
1.756137e-01
1.756137e-01
1.862992e-01
1.949098e-01
1.862992e-01
1.949098e-01
7.864157e-02
7.864157e-02
1.306770e-01
1.306770e-01
3.616713e-02
3.616713e-02
2.256352e-02
6.373903e-02
2.256352e-02
6.373903e-02
-4.105763e-02
-4.105763e-02
3.587850e-02
3.587850e-02
1.476016e-01
2.754440e-02
1.476016e-01
2.754440e-02
2.103201e-01
2.103201e-01
8.702823e-02
3.449404e-02
8.702823e-02
3.449404e-02
3.002262e-02
3.002262e-02
-9.313025e-03
-9.313025e-03
-1.039789e-01
-1.039789e-01
-1.139783e-02
1.140787e-02
-1.139783e-02
1.140787e-02
3.635364e-02
3.635364e-02
1.024487e-01
1.024487e-01
2.192869e-02
7.514167e-02
2.192869e-02
7.514167e-02
-1.206667e-02
-1.206667e-02
-8.438829e-03
4.505726e-02
-8.438829e-03
4.505726e-02
3.392110e-02
3.392110e-02
7.594297e-02
7.594297e-02
1.255535e-01
1.255535e-01
8.008920e-02
6.141381e-02
8.008920e-02
6.141381e-02
1.433551e-01
1.433551e-01
4.517123e-02
4.517123e-02
3.000463e-02
-6.909003e-02
3.000463e-02
-6.909003e-02
-1.482388e-02
-1.482388e-02
-1.536201e-02
1.371055e-02
-1.536201e-02
1.371055e-02
-1.092658e-01
-1.092658e-01
-3.401966e-02
-3.401966e-02
-1.484108e-02
-1.484108e-02
-5.028641e-02
-7.374688e-02
-5.028641e-02
-7.374688e-02
5.755419e-03
5.755419e-03
3.235892e-02
3.235892e-02
-6.286525e-02
-2.160717e-02
-6.286525e-02
-2.160717e-02
1.832325e-01
1.832325e-01
8.987321e-02
7.234999e-02
8.987321e-02
7.234999e-02
1.862491e-01
1.862491e-01
1.912218e-01
1.912218e-01
7.824565e-02
7.824565e-02
-2.958134e-02
4.847660e-02
-2.958134e-02
4.847660e-02
-1.144361e-01
-1.144361e-01
-1.269161e-01
-1.269161e-01
-7.015916e-02
-5.755077e-02
-7.015916e-02
-5.755077e-02
-8.005700e-02
-8.005700e-02
-1.113408e-01
-1.113408e-01
-1.124169e-02
-8.543865e-02
-1.124169e-02
-8.543865e-02
-1.385080e-01
-1.385080e-01
-1.083848e-01
-1.083848e-01
-8.509599e-02
-2.793659e-02
-8.509599e-02
-2.793659e-02
1.370366e-02
1.370366e-02
9.339259e-02
9.339259e-02
2.627947e-02
-1.821413e-02
2.627947e-02
-1.821413e-02
-8.572752e-03
-8.572752e-03
-4.135901e-03
-4.135901e-03
-1.607954e-01
4.528887e-01
-1.607954e-01
4.528887e-01
-4.915240e-02
-4.915240e-02
-6.173797e-01
-1.586310e-01
-6.173797e-01
-1.586310e-01
1.060275e+00
1.060275e+00
-2.052441e-02
-2.052441e-02
-2.307592e-02
-2.307592e-02
7.673840e-03
-1.428496e-01
7.673840e-03
-1.428496e-01
-3.580991e-02
-3.580991e-02
-4.286124e-02
-4.286124e-02
9.337790e-02
8.167825e-02
9.337790e-02
8.167825e-02
-5.960656e-02
-5.960656e-02
3.234931e-02
3.234931e-02
-1.618847e-01
-2.146847e-02
-1.618847e-01
-2.146847e-02
5.328905e-02
5.328905e-02
6.193018e-03
6.193018e-03
-1.114237e-01
-1.592041e-01
-1.114237e-01
-1.592041e-01
2.858371e-02
2.858371e-02
2.351562e-02
2.351562e-02
7.408455e-02
-1.534835e-03
7.408455e-02
-1.534835e-03
1.423580e-02
1.423580e-02
4.843669e-02
4.843669e-02
4.362387e-02
4.362387e-02
1.382488e-02
1.382488e-02
-8.040308e-03
5.364796e-02
-8.040308e-03
5.364796e-02
-1.580250e-02
-1.580250e-02
3.055262e-02
3.055262e-02
-6.632172e-02
-1.689931e-01
-6.632172e-02
-1.689931e-01
-3.416221e-01
-3.416221e-01
-2.394523e-01
-2.394523e-01
-1.784882e-01
-2.908261e-01
-1.784882e-01
-2.908261e-01
6.183858e-02
6.183858e-02
6.161040e-02
6.161040e-02
2.775279e-01
3.463436e-01
2.775279e-01
3.463436e-01
3.839897e-01
3.839897e-01
3.421050e-01
3.421050e-01
1.790075e-01
1.625488e-01
1.790075e-01
1.625488e-01
-7.575541e-02
-7.575541e-02
-7.646772e-03
-7.646772e-03
-1.384006e-01
-5.883482e-01
-1.384006e-01
-5.883482e-01
-3.710113e-01
-3.710113e-01
-6.708214e-01
-6.708214e-01
-6.607518e-01
5.417865e-01
-6.607518e-01
5.417865e-01
-1.481410e-01
5.023361e-01
-1.481410e-01
5.023361e-01
-6.680672e-02
1.462171e-01
-6.680672e-02
1.462171e-01
2.449851e-01
4.016354e-01
2.449851e-01
4.016354e-01
-1.089735e-01
-8.918544e-02
-2.623677e-02
-9.852265e-02
-1.089735e-01
-8.918544e-02
-2.623677e-02
-9.852265e-02
-1.389262e-01
-1.334006e-01
-1.389262e-01
-1.334006e-01
4.486151e-02
4.923432e-02
4.486151e-02
4.923432e-02
-1.073346e-01
-1.073346e-01
-1.059760e-01
-9.644112e-02
-5.478872e-03
-2.247959e-02
-1.059760e-01
-9.644112e-02
-5.478872e-03
-2.247959e-02
-4.470731e-02
-3.791040e-02
-4.470731e-02
-3.791040e-02
4.986380e-03
-9.646520e-03
4.986380e-03
-9.646520e-03
-7.778124e-02
-7.778124e-02
2.383403e-02
-1.353379e-01
4.108602e-02
-3.976031e-02
2.383403e-02
-1.353379e-01
4.108602e-02
-3.976031e-02
-9.162813e-02
1.316627e-01
-9.162813e-02
1.316627e-01
2.415341e-01
1.095337e-01
2.415341e-01
1.095337e-01
-6.505109e-02
-6.505109e-02
3.452429e-02
-4.085129e-02
5.748360e-02
3.452429e-02
-4.085129e-02
5.748360e-02
-4.170411e-02
-1.058463e-01
-4.170411e-02
-1.058463e-01
-9.473841e-02
1.519753e-02
-9.473841e-02
1.519753e-02
2.104973e-01
2.104973e-01
3.032690e-01
2.592797e-01
1.478502e-01
2.790843e-01
3.032690e-01
2.592797e-01
1.478502e-01
2.790843e-01
3.550731e-02
3.550731e-02
1.856487e-01
1.856487e-01
-8.613234e-02
5.981093e-02
4.769018e-02
-7.662841e-02
-8.613234e-02
5.981093e-02
4.769018e-02
-7.662841e-02
4.516520e-02
1.483621e-01
4.516520e-02
1.483621e-01
1.648110e-01
9.279460e-02
1.648110e-01
9.279460e-02
3.306834e-03
3.306834e-03
-2.629610e-01
-2.691407e-02
3.983957e-01
-4.868377e-02
-2.629610e-01
-2.691407e-02
3.983957e-01
-4.868377e-02
1.973678e-01
1.973678e-01
6.983027e-01
6.983027e-01
1.519084e-01
1.519084e-01
6.985314e-02
4.788990e-02
6.985314e-02
4.788990e-02
5.063287e-02
5.063287e-02
2.413043e-02
1.907438e-04
2.413043e-02
1.907438e-04
-1.409198e-01
-1.409198e-01
-4.943486e-02
-1.817700e-02
1.057213e-01
1.131129e-01
-4.943486e-02
-1.817700e-02
1.057213e-01
1.131129e-01
-1.062613e-01
-1.062613e-01
-6.227280e-02
1.351219e-01
-6.227280e-02
1.351219e-01
1.215975e-01
1.215975e-01
-8.710642e-03
-5.721488e-02
-8.111539e-02
-1.088723e-01
-8.710642e-03
-5.721488e-02
-8.111539e-02
-1.088723e-01
3.639810e-03
-1.114982e-02
3.639810e-03
-1.114982e-02
6.632559e-03
6.632559e-03
-5.025753e-02
2.114218e-02
-5.025753e-02
2.114218e-02
7.370371e-02
7.370371e-02
9.161946e-02
3.327523e-01
1.803149e-01
-5.928925e-02
9.161946e-02
3.327523e-01
1.803149e-01
-5.928925e-02
2.488323e-01
2.488323e-01
-5.066498e-01
-5.066498e-01
3.697173e-01
1.561441e-01
3.697173e-01
1.561441e-01
1.556239e-01
1.556239e-01
2.142488e-01
3.434899e-01
2.142488e-01
3.434899e-01
7.983924e-02
1.065310e-02
8.775529e-02
7.983924e-02
1.065310e-02
8.775529e-02
-3.723589e-02
-3.723589e-02
1.726976e-01
1.726976e-01
-9.193110e-02
1.746724e-02
-2.953406e-02
-1.375605e-01
-9.193110e-02
1.746724e-02
-2.953406e-02
-1.375605e-01
-1.357932e-01
8.805344e-02
-1.357932e-01
8.805344e-02
-9.931729e-02
-9.931729e-02
-3.317804e-01
-3.317804e-01
-1.784054e-01
-2.240939e-01
-2.730052e-02
-3.694161e-02
-1.784054e-01
-2.240939e-01
-2.730052e-02
-3.694161e-02
-1.073569e-01
3.556421e-02
-1.073569e-01
3.556421e-02
-9.221897e-02
-4.289124e-02
-9.221897e-02
-4.289124e-02
-3.339236e-02
-3.339236e-02
8.917466e-02
1.281713e-01
1.504356e-01
3.514023e-03
8.917466e-02
1.281713e-01
1.504356e-01
3.514023e-03
1.032063e-01
1.032063e-01
-1.853740e-02
-1.853740e-02
-3.103526e-02
-3.103526e-02
-1.179917e-01
-1.179917e-01
-4.003223e-02
-1.257993e-01
-4.003223e-02
-1.257993e-01
-3.845594e-01
-1.008064e-01
-2.930770e-01
-5.598801e-03
-3.845594e-01
-1.008064e-01
-2.930770e-01
-5.598801e-03
1.680555e-01
-2.422655e-01
1.680555e-01
-2.422655e-01
-1.556158e-01
-2.195146e-01
-1.556158e-01
-2.195146e-01
-5.777265e-01
-5.777265e-01
-1.147000e-01
-1.672326e-01
-1.147000e-01
-1.672326e-01
4.480093e-02
4.480093e-02
9.251810e-03
-1.484796e-01
9.251810e-03
-1.484796e-01
-1.240473e-01
-1.240473e-01
1.684020e-01
1.002549e-01
1.684020e-01
1.002549e-01
1.375186e-01
1.375186e-01
2.901420e-01
2.901420e-01
-2.689065e-02
-2.689065e-02
4.938107e-01
-1.089903e-01
4.938107e-01
-1.089903e-01
-8.335745e-01
-8.335745e-01
-1.257577e-01
-2.095247e-01
-1.257577e-01
-2.095247e-01
4.412011e-02
-7.502671e-02
4.412011e-02
-7.502671e-02
3.221025e-02
3.727693e-02
5.964559e-02
3.816856e-02
3.221025e-02
3.727693e-02
5.964559e-02
3.816856e-02
-7.327086e-02
-1.273648e-01
-7.327086e-02
-1.273648e-01
-3.662287e-02
-3.662287e-02
3.556404e-02
5.368948e-02
3.556404e-02
5.368948e-02
1.097628e-01
1.097628e-01
-3.974772e-02
-3.974772e-02
7.581622e-02
7.581622e-02
-1.662070e-01
-1.400599e-01
-1.662070e-01
-1.400599e-01
-2.090535e-02
3.620908e-02
-2.090535e-02
3.620908e-02
6.020787e-01
6.020787e-01
1.976945e-01
1.976945e-01
1.137845e-01
1.137845e-01
1.332279e-01
1.332279e-01
-1.374941e-01
-1.374941e-01
4.439577e-02
4.439577e-02
7.420678e-02
-7.891336e-02
7.420678e-02
-7.891336e-02
-3.439833e-01
-2.491667e-01
-3.439833e-01
-2.491667e-01
4.323413e-02
4.323413e-02
-2.497291e-01
-2.497291e-01
3.341894e-02
3.341894e-02
-2.583698e-02
-2.583698e-02
-1.024471e-01
-2.123668e-01
-1.024471e-01
-2.123668e-01
-1.169871e-02
-1.169871e-02
-2.894964e-02
-2.765650e-02
-2.894964e-02
-2.765650e-02
6.183387e-02
6.183387e-02
9.804027e-03
2.620088e-02
9.804027e-03
2.620088e-02
-7.136132e-02
-1.235998e-02
-7.136132e-02
-1.235998e-02
6.984346e-04
1.004542e-01
6.984346e-04
1.004542e-01
2.539396e-02
1.923123e-02
2.539396e-02
1.923123e-02
1.155483e-02
-3.873444e-02
1.155483e-02
-3.873444e-02
-1.804398e-03
-1.390257e-02
-1.804398e-03
-1.390257e-02
-8.584790e-02
-8.272645e-02
-8.584790e-02
-8.272645e-02
-1.109600e-02
-1.701852e-02
-1.109600e-02
-1.701852e-02
1.215922e-02
8.810942e-03
1.215922e-02
8.810942e-03
-4.610571e-02
1.005996e-02
-4.610571e-02
1.005996e-02
-7.105527e-02
2.232382e-02
-7.105527e-02
2.232382e-02
3.532628e-02
-5.748648e-03
3.532628e-02
-5.748648e-03
-3.621860e-03
-1.461362e-03
-3.621860e-03
-1.461362e-03
2.255687e-02
4.015150e-03
2.255687e-02
4.015150e-03
-3.980304e-02
-1.548655e-02
-3.980304e-02
-1.548655e-02
-4.108715e-02
2.860499e-02
-4.108715e-02
2.860499e-02
-1.262318e-01
-3.115310e-02
-1.262318e-01
-3.115310e-02
6.400368e-02
8.181678e-02
6.400368e-02
8.181678e-02
-4.050870e-02
-2.020427e-03
-4.050870e-02
-2.020427e-03
4.456519e-02
3.472119e-02
4.456519e-02
3.472119e-02
6.762555e-02
3.463690e-02
6.762555e-02
3.463690e-02
3.604254e-02
-8.424907e-03
3.604254e-02
-8.424907e-03
7.111326e-03
-3.505871e-02
7.111326e-03
-3.505871e-02
-7.114033e-02
-9.504996e-03
-7.114033e-02
-9.504996e-03
2.668407e-02
2.341746e-02
2.668407e-02
2.341746e-02
3.430362e-02
6.884026e-02
3.430362e-02
6.884026e-02
5.835895e-02
-2.878174e-02
5.835895e-02
-2.878174e-02
-2.819978e-02
1.720433e-02
-2.819978e-02
1.720433e-02
-7.440865e-03
1.300977e-03
-7.440865e-03
1.300977e-03
-1.853279e-02
7.562370e-02
-1.853279e-02
7.562370e-02
7.066758e-02
7.482805e-02
7.066758e-02
7.482805e-02
9.185685e-02
1.090617e-01
9.185685e-02
1.090617e-01
8.776765e-02
3.829658e-03
8.776765e-02
3.829658e-03
-3.088140e-03
5.241058e-03
-3.088140e-03
5.241058e-03
-7.240627e-02
-2.327542e-02
-7.240627e-02
-2.327542e-02
-9.759672e-03
2.076991e-02
-9.759672e-03
2.076991e-02
2.465120e-02
2.480665e-02
2.465120e-02
2.480665e-02
7.445695e-02
-2.626710e-03
7.445695e-02
-2.626710e-03
-6.347913e-02
-1.326430e-02
-6.347913e-02
-1.326430e-02
-3.020804e-02
1.703679e-02
-3.020804e-02
1.703679e-02
-1.055750e-01
5.754149e-02
-1.055750e-01
5.754149e-02
4.837167e-02
-1.310339e-02
4.837167e-02
-1.310339e-02
5.487532e-02
5.487532e-02
-7.773550e-02
-7.773550e-02
-8.870738e-02
-1.290969e-03
-8.870738e-02
-1.290969e-03
-5.694741e-02
-5.694741e-02
5.431165e-02
5.431165e-02
6.647173e-02
-2.568810e-02
6.647173e-02
-2.568810e-02
2.333334e-02
2.333334e-02
2.372816e-03
2.372816e-03
-2.163102e-02
-3.914980e-03
-2.163102e-02
-3.914980e-03
-3.869345e-02
-3.869345e-02
-2.026034e-02
-2.026034e-02
-8.104585e-03
7.577213e-03
-8.104585e-03
7.577213e-03
5.018409e-02
5.018409e-02
1.780448e-02
1.780448e-02
-4.694360e-02
-3.207535e-02
-4.694360e-02
-3.207535e-02
1.709720e-02
1.709720e-02
-4.769050e-03
-4.769050e-03
-2.701711e-02
7.596029e-03
-2.701711e-02
7.596029e-03
-3.623463e-02
-3.623463e-02
-2.986463e-03
-2.986463e-03
-5.933424e-02
-1.041778e-01
-5.933424e-02
-1.041778e-01
2.149618e-02
2.149618e-02
1.762065e-02
1.762065e-02
6.766342e-02
2.883196e-02
6.766342e-02
2.883196e-02
-8.695204e-03
-8.695204e-03
6.241436e-02
6.241436e-02
-5.702120e-02
-1.956113e-02
-5.702120e-02
-1.956113e-02
7.318078e-02
7.318078e-02
-5.427546e-02
-5.427546e-02
-7.774772e-02
-5.159164e-02
-7.774772e-02
-5.159164e-02
-4.725430e-02
-4.725430e-02
3.399506e-03
3.399506e-03
-3.262074e-02
-3.816172e-02
-3.262074e-02
-3.816172e-02
-6.108878e-02
-6.108878e-02
-8.322349e-02
-8.322349e-02
-6.229353e-03
-5.100458e-02
-6.229353e-03
-5.100458e-02
-2.832017e-02
-2.832017e-02
-2.126376e-02
-2.126376e-02
2.894186e-02
2.184377e-02
2.894186e-02
2.184377e-02
-3.154520e-02
-3.154520e-02
-2.269566e-02
-2.269566e-02
-3.730497e-02
3.858674e-03
-3.730497e-02
3.858674e-03
3.249882e-02
3.249882e-02
-4.397621e-02
-4.397621e-02
4.479132e-02
5.542528e-02
4.479132e-02
5.542528e-02
-4.987486e-02
-4.987486e-02
3.302632e-02
3.302632e-02
-1.443872e-02
-1.055209e-01
-1.443872e-02
-1.055209e-01
6.178848e-02
6.178848e-02
1.923769e-02
1.923769e-02
1.080048e-02
9.988366e-02
1.080048e-02
9.988366e-02
4.284168e-02
4.284168e-02
-7.810464e-03
-7.810464e-03
-5.519944e-03
-1.784325e-02
-5.519944e-03
-1.784325e-02
-1.678882e-01
-1.678882e-01
-8.598861e-02
-8.598861e-02
-3.651890e-02
-7.152788e-02
-3.651890e-02
-7.152788e-02
1.019304e-01
1.019304e-01
1.772105e-02
1.772105e-02
1.779649e-02
4.694645e-02
1.779649e-02
4.694645e-02
-1.074871e-01
-1.074871e-01
-5.492103e-02
-5.492103e-02
-7.703042e-02
-6.358658e-02
-7.703042e-02
-6.358658e-02
-5.109080e-03
-5.109080e-03
8.529258e-03
8.529258e-03
-2.493891e-02
-2.918088e-02
-2.493891e-02
-2.918088e-02
-3.254523e-02
-3.254523e-02
-9.994141e-02
-9.994141e-02
4.978628e-02
-1.514369e-02
4.978628e-02
-1.514369e-02
-9.434295e-02
-9.434295e-02
-5.231898e-02
-5.231898e-02
-8.679404e-03
7.062130e-02
-8.679404e-03
7.062130e-02
9.458162e-03
9.458162e-03
4.763213e-02
4.763213e-02
8.214364e-02
3.008213e-03
8.214364e-02
3.008213e-03
5.355416e-02
5.355416e-02
3.965623e-02
3.965623e-02
-1.158560e-01
1.704562e-02
-1.158560e-01
1.704562e-02
-2.846148e-02
-2.846148e-02
-1.207274e-02
-1.207274e-02
-1.225888e-02
-1.114223e-01
-1.225888e-02
-1.114223e-01
4.021376e-02
4.021376e-02
2.709709e-02
2.709709e-02
7.528061e-02
5.033321e-02
7.528061e-02
5.033321e-02
1.311845e-02
1.311845e-02
6.209178e-02
6.209178e-02
-1.788187e-02
-2.764059e-02
-1.788187e-02
-2.764059e-02
-3.389773e-02
-3.389773e-02
6.863178e-03
6.863178e-03
8.598525e-03
4.034350e-02
8.598525e-03
4.034350e-02
2.780445e-02
2.780445e-02
-8.202669e-02
-8.202669e-02
-5.274989e-02
-2.930094e-02
-5.274989e-02
-2.930094e-02
-1.001062e-01
-1.001062e-01
-1.772899e-04
-1.772899e-04
-3.025611e-02
-7.451082e-02
-3.025611e-02
-7.451082e-02
2.501213e-02
2.501213e-02
-1.514662e-02
-1.514662e-02
8.315876e-03
-1.347383e-02
8.315876e-03
-1.347383e-02
-1.143524e-02
-1.143524e-02
7.807850e-03
7.807850e-03
1.839237e-02
3.430881e-02
1.839237e-02
3.430881e-02
-3.195822e-02
-3.195822e-02
-1.181180e-01
-1.181180e-01
-1.184999e-01
-3.028471e-02
-1.184999e-01
-3.028471e-02
-5.064300e-02
-5.064300e-02
4.229959e-02
4.229959e-02
1.156330e-01
-2.279354e-02
1.156330e-01
-2.279354e-02
-3.957689e-03
-3.957689e-03
5.367024e-02
5.367024e-02
-9.918971e-02
-2.571075e-02
-9.918971e-02
-2.571075e-02
1.256142e-01
1.256142e-01
1.691235e-02
1.691235e-02
3.336983e-02
2.504372e-02
3.336983e-02
2.504372e-02
-1.771102e-03
-1.771102e-03
6.931951e-02
6.931951e-02
1.008560e-01
2.700037e-02
1.008560e-01
2.700037e-02
-1.302136e-02
-1.302136e-02
-1.709162e-01
-1.709162e-01
-3.619412e-02
4.218946e-02
-3.619412e-02
4.218946e-02
-1.154264e-01
-1.154264e-01
4.089225e-02
4.089225e-02
-2.267882e-03
2.480104e-03
-2.267882e-03
2.480104e-03
1.338365e-02
1.338365e-02
-4.628637e-02
-4.628637e-02
-2.608906e-02
-3.095340e-02
-2.608906e-02
-3.095340e-02
-1.645063e-02
-1.645063e-02
-2.169602e-02
-2.169602e-02
4.254681e-04
5.595208e-04
4.254681e-04
5.595208e-04
1.388072e-03
1.388072e-03
4.721579e-03
4.721579e-03
3.610472e-02
-4.905914e-02
3.610472e-02
-4.905914e-02
-6.963998e-03
-6.963998e-03
-1.866659e-04
-1.866659e-04
-2.238790e-02
2.213164e-02
-2.238790e-02
2.213164e-02
-1.861157e-02
-1.861157e-02
-4.928925e-02
-4.928925e-02
-4.948048e-02
-1.530720e-02
-4.948048e-02
-1.530720e-02
-2.113659e-02
-2.113659e-02
1.067751e-02
1.067751e-02
7.490030e-03
7.000888e-03
7.490030e-03
7.000888e-03
1.796405e-02
1.796405e-02
3.754004e-02
3.754004e-02
4.237861e-02
-1.371386e-02
4.237861e-02
-1.371386e-02
-2.165909e-02
-2.165909e-02
-7.421192e-02
-7.421192e-02
-5.518514e-02
-2.757746e-02
-5.518514e-02
-2.757746e-02
-1.241575e-02
-1.241575e-02
2.112601e-02
2.112601e-02
-7.678204e-02
-3.420375e-02
-7.678204e-02
-3.420375e-02
-3.760815e-02
-3.760815e-02
-4.559092e-02
-4.559092e-02
7.906393e-02
-2.094635e-02
7.906393e-02
-2.094635e-02
1.811804e-02
1.811804e-02
-4.879424e-02
-4.879424e-02
-1.411298e-01
5.474335e-02
-1.411298e-01
5.474335e-02
-7.749671e-02
-7.749671e-02
8.311728e-02
8.311728e-02
4.562439e-02
-1.822790e-01
4.562439e-02
-1.822790e-01
1.013035e-01
1.013035e-01
2.406551e-02
2.406551e-02
-1.323824e-02
1.226585e-01
-1.323824e-02
1.226585e-01
4.419234e-03
4.419234e-03
-6.413949e-02
-6.413949e-02
-6.198119e-02
-8.319082e-02
-6.198119e-02
-8.319082e-02
-1.117741e-02
-1.117741e-02
8.983149e-02
8.983149e-02
8.483661e-02
1.795650e-02
8.483661e-02
1.795650e-02
5.788584e-02
4.433285e-02
5.788584e-02
4.433285e-02
-3.737821e-02
-3.737821e-02
-7.949086e-02
-1.225112e-02
-7.949086e-02
-1.225112e-02
9.235383e-02
9.235383e-02
-1.161711e-02
-1.161711e-02
3.273023e-02
3.273023e-02
7.155358e-02
1.983469e-03
7.155358e-02
1.983469e-03
-3.712340e-02
-3.712340e-02
-1.202319e-02
-1.202319e-02
-3.174802e-02
1.478557e-02
-3.174802e-02
1.478557e-02
6.386375e-02
6.386375e-02
7.052553e-02
7.052553e-02
6.318645e-03
2.296499e-02
6.318645e-03
2.296499e-02
8.392151e-02
8.392151e-02
6.380683e-02
6.380683e-02
6.079478e-02
-3.027780e-03
6.079478e-02
-3.027780e-03
3.780165e-02
3.780165e-02
3.929601e-02
3.929601e-02
-4.288447e-03
2.769585e-02
-4.288447e-03
2.769585e-02
1.187457e-02
1.187457e-02
-3.149254e-02
-3.149254e-02
-1.642691e-02
-2.328334e-02
-1.642691e-02
-2.328334e-02
-1.134790e-01
-1.134790e-01
-1.785841e-01
-1.785841e-01
-1.481744e-01
-6.086004e-02
-1.481744e-01
-6.086004e-02
-6.991236e-02
5.615190e-02
-6.991236e-02
5.615190e-02
-7.694323e-02
-7.694323e-02
-5.545123e-02
-4.212542e-02
-5.545123e-02
-4.212542e-02
6.578704e-02
6.578704e-02
2.225218e-02
2.225218e-02
4.760598e-02
4.760598e-02
-9.714924e-02
-4.795927e-02
-9.714924e-02
-4.795927e-02
5.570601e-02
5.570601e-02
4.905286e-02
4.905286e-02
7.083751e-02
2.466799e-02
7.083751e-02
2.466799e-02
2.850044e-02
2.850044e-02
-2.269801e-02
-2.269801e-02
-9.829710e-02
-6.448684e-02
-9.829710e-02
-6.448684e-02
-5.955226e-02
-5.955226e-02
-8.576109e-03
-8.576109e-03
-2.253663e-02
-7.647392e-02
-2.253663e-02
-7.647392e-02
-5.460153e-03
-5.460153e-03
1.658342e-02
1.658342e-02
6.467167e-04
-1.434339e-02
6.467167e-04
-1.434339e-02
4.767196e-02
4.767196e-02
-2.508943e-03
-2.508943e-03
2.795538e-02
4.727788e-02
2.795538e-02
4.727788e-02
-8.175012e-02
-8.175012e-02
-1.323731e-01
-1.323731e-01
-5.663208e-02
-2.030751e-02
-5.663208e-02
-2.030751e-02
3.075000e-02
9.835059e-02
3.075000e-02
9.835059e-02
4.579340e-03
4.579340e-03
7.908272e-03
6.094280e-02
7.908272e-03
6.094280e-02
9.778460e-02
9.778460e-02
-3.757925e-02
-3.757925e-02
-5.949596e-02
-5.949596e-02
-2.415582e-02
-3.447040e-03
-2.415582e-02
-3.447040e-03
3.400802e-02
3.400802e-02
1.492143e-02
1.492143e-02
4.357997e-02
-2.607801e-02
4.357997e-02
-2.607801e-02
-6.868464e-02
-6.868464e-02
-6.451567e-02
-6.451567e-02
9.742286e-03
6.920889e-02
9.742286e-03
6.920889e-02
-4.553108e-02
-4.553108e-02
4.996506e-02
4.996506e-02
6.236097e-02
7.235729e-03
6.236097e-02
7.235729e-03
6.550964e-02
6.550964e-02
-8.584917e-03
-8.584917e-03
7.212349e-02
8.324870e-02
7.212349e-02
8.324870e-02
-3.128103e-02
-3.128103e-02
-5.782673e-03
-5.782673e-03
-6.727106e-02
3.187503e-03
-6.727106e-02
3.187503e-03
3.096356e-03
3.096356e-03
-2.355162e-02
-2.355162e-02
-8.084969e-02
-7.983505e-02
-8.084969e-02
-7.983505e-02
6.350614e-02
1.001592e-01
6.350614e-02
1.001592e-01
-6.765698e-02
-6.765698e-02
-5.154675e-02
9.228343e-02
-5.154675e-02
9.228343e-02
9.913812e-02
9.913812e-02
-1.125823e-01
-1.125823e-01
-1.295432e-01
-1.295432e-01
-1.568931e-01
-1.431133e-01
-1.568931e-01
-1.431133e-01
-1.026639e-01
-1.026639e-01
8.201541e-03
8.201541e-03
-2.255767e-02
-9.201462e-02
-2.255767e-02
-9.201462e-02
7.068201e-03
7.068201e-03
-1.138983e-02
-1.138983e-02
-3.803538e-02
-7.460076e-02
-3.803538e-02
-7.460076e-02
1.724112e-02
1.724112e-02
-5.725551e-03
-5.725551e-03
-5.226795e-02
-2.353200e-02
-5.226795e-02
-2.353200e-02
3.510424e-02
3.510424e-02
9.618122e-02
9.618122e-02
1.102295e-02
3.793644e-02
1.102295e-02
3.793644e-02
6.920568e-02
6.920568e-02
5.543587e-03
5.543587e-03
5.466000e-02
-1.972331e-02
5.466000e-02
-1.972331e-02
-3.665992e-02
-3.665992e-02
-4.168940e-02
-4.168940e-02
5.158175e-02
6.281164e-02
5.158175e-02
6.281164e-02
2.198517e-02
1.169470e-01
2.198517e-02
1.169470e-01
-8.283868e-02
-8.283868e-02
-1.104818e-01
-6.432068e-02
-1.104818e-01
-6.432068e-02
9.070938e-02
9.070938e-02
-3.713386e-02
-3.713386e-02
-3.964135e-02
-3.964135e-02
-3.031505e-02
-7.275567e-02
-3.031505e-02
-7.275567e-02
-4.364744e-02
-4.364744e-02
5.560756e-02
5.560756e-02
-1.231569e-02
-9.092661e-03
-1.231569e-02
-9.092661e-03
3.858475e-02
3.858475e-02
1.793530e-02
1.793530e-02
7.625635e-02
1.096210e-02
7.625635e-02
1.096210e-02
5.720070e-04
5.720070e-04
-3.581791e-02
-3.581791e-02
-4.445916e-02
6.268289e-02
-4.445916e-02
6.268289e-02
3.301088e-02
3.301088e-02
-2.166189e-04
-2.166189e-04
8.132114e-02
-1.990895e-04
8.132114e-02
-1.990895e-04
-4.612334e-02
-4.612334e-02
4.707136e-02
4.707136e-02
7.070244e-02
8.732513e-02
7.070244e-02
8.732513e-02
4.520183e-02
4.520183e-02
-1.100364e-02
-1.100364e-02
-1.459337e-01
-5.278477e-02
-1.459337e-01
-5.278477e-02
-2.436956e-02
4.176935e-02
-2.436956e-02
4.176935e-02
-4.227672e-02
-4.227672e-02
-1.827838e-02
3.952296e-02
-1.827838e-02
3.952296e-02
-1.617167e-02
-1.617167e-02
-1.669666e-01
-1.669666e-01
-1.405070e-01
-1.405070e-01
-9.971260e-02
-1.450734e-01
-9.971260e-02
-1.450734e-01
-4.024828e-02
-4.024828e-02
-6.570655e-02
-6.570655e-02
-9.019907e-02
-5.113617e-02
-9.019907e-02
-5.113617e-02
-3.659148e-02
-3.659148e-02
3.839335e-02
3.839335e-02
6.404951e-02
-5.029605e-02
6.404951e-02
-5.029605e-02
3.339962e-02
3.339962e-02
-4.224558e-02
-4.224558e-02
-1.617317e-02
6.258938e-02
-1.617317e-02
6.258938e-02
6.272976e-03
6.272976e-03
7.945021e-02
7.945021e-02
1.368866e-02
4.445585e-03
1.368866e-02
4.445585e-03
9.260298e-02
9.260298e-02
5.938306e-02
5.938306e-02
1.099801e-02
-2.074508e-02
1.099801e-02
-2.074508e-02
-5.595629e-02
-5.595629e-02
-1.191165e-01
-1.191165e-01
3.088363e-02
3.992291e-02
3.088363e-02
3.992291e-02
-1.487177e-02
-1.866754e-02
1.095942e-02
3.372317e-02
-1.487177e-02
-1.866754e-02
1.095942e-02
3.372317e-02
-8.340167e-03
-5.032883e-02
-8.340167e-03
-5.032883e-02
1.959546e-02
2.711077e-02
1.959546e-02
2.711077e-02
2.945052e-02
2.945052e-02
8.026665e-03
-1.956774e-03
8.026665e-03
-1.956774e-03
3.529667e-02
3.529667e-02
-2.597512e-02
-1.298465e-02
-2.597512e-02
-1.298465e-02
-4.363664e-02
-4.363664e-02
-1.545184e-02
-2.957001e-02
-1.545184e-02
-2.957001e-02
-4.856098e-02
-4.856098e-02
-2.302231e-02
1.291552e-02
-2.302231e-02
1.291552e-02
7.047245e-02
7.047245e-02
3.471462e-02
9.270340e-02
3.471462e-02
9.270340e-02
-2.700821e-02
-2.700821e-02
-5.973627e-02
-1.824374e-03
-5.973627e-02
-1.824374e-03
8.760292e-03
8.760292e-03
2.087851e-02
-2.722119e-02
2.087851e-02
-2.722119e-02
-7.743494e-03
-7.743494e-03
9.296511e-02
1.530859e-01
9.296511e-02
1.530859e-01
5.199008e-02
5.199008e-02
6.366699e-02
6.887107e-02
6.366699e-02
6.887107e-02
-1.009425e-01
-1.009425e-01
-2.579234e-01
-9.599859e-02
-2.579234e-01
-9.599859e-02
1.701034e-02
1.701034e-02
2.839613e-02
2.465972e-02
2.839613e-02
2.465972e-02
1.356051e-01
1.356051e-01
4.548080e-01
2.155465e-01
4.548080e-01
2.155465e-01
5.257626e-02
5.257626e-02
2.600057e-02
-4.117056e-02
2.600057e-02
-4.117056e-02
-4.294330e-03
1.783235e-02
-4.294330e-03
1.783235e-02
2.341240e-02
1.301653e-02
2.341240e-02
1.301653e-02
-1.748363e-02
6.694110e-02
-1.748363e-02
6.694110e-02
6.313992e-02
6.313992e-02
2.413400e-02
2.413400e-02
-9.092336e-03
-9.092336e-03
-6.816983e-02
-3.948866e-02
-6.816983e-02
-3.948866e-02
-2.993923e-02
-2.993923e-02
-1.010379e-01
-1.010379e-01
-4.575130e-02
-4.575130e-02
-8.511860e-02
-8.511860e-02
-1.319676e-02
4.035634e-02
-1.319676e-02
4.035634e-02
-9.815675e-02
-9.815675e-02
-6.989211e-02
-6.989211e-02
7.477123e-02
7.477123e-02
8.441788e-02
8.441788e-02
3.817994e-02
-2.693501e-02
3.817994e-02
-2.693501e-02
-3.956971e-03
-3.956971e-03
-2.586779e-02
-2.586779e-02
-1.322260e-01
-1.322260e-01
-1.062843e-01
-1.062843e-01
-5.481705e-02
-4.008424e-02
-5.481705e-02
-4.008424e-02
-6.070940e-02
-6.070940e-02
-2.771286e-03
-2.771286e-03
-9.083685e-02
-9.083685e-02
-1.836169e-02
-1.836169e-02
-1.182773e-01
-2.465466e-01
-1.182773e-01
-2.465466e-01
-2.629752e-02
-2.629752e-02
2.711307e-03
2.711307e-03
8.176133e-02
8.176133e-02
-6.486328e-02
-6.486328e-02
6.492990e-02
3.744415e-01
6.492990e-02
3.744415e-01
-3.182187e-02
-3.182187e-02
-8.041401e-02
-8.041401e-02
8.941442e-02
8.941442e-02
8.253792e-02
8.253792e-02
7.826395e-02
1.437778e-01
7.826395e-02
1.437778e-01
2.253057e-01
2.253057e-01
6.119074e-02
6.119074e-02
-7.639773e-02
-7.639773e-02
-3.826669e-02
-3.826669e-02
-3.918359e-02
-3.042434e-02
-3.918359e-02
-3.042434e-02
6.479745e-02
6.479745e-02
1.889571e-02
1.889571e-02
-7.627794e-02
-7.897323e-02
-7.627794e-02
-7.897323e-02
-3.260459e-02
-3.260459e-02
-3.790454e-02
-3.790454e-02
3.531781e-02
-6.190132e-03
3.531781e-02
-6.190132e-03
3.196551e-02
3.196551e-02
1.814396e-02
1.814396e-02
8.082499e-02
1.315097e-02
8.082499e-02
1.315097e-02
-1.137617e-01
-1.137617e-01
-6.720556e-02
-6.720556e-02
2.541875e-02
6.251281e-02
2.541875e-02
6.251281e-02
3.785611e-02
3.785611e-02
3.684609e-02
3.684609e-02
-5.693157e-03
3.390134e-02
-5.693157e-03
3.390134e-02
-1.338467e-03
-1.338467e-03
1.593173e-02
1.593173e-02
-1.148776e-01
7.304364e-03
-1.148776e-01
7.304364e-03
6.505461e-02
6.505461e-02
3.780293e-03
3.780293e-03
-4.399316e-02
-8.407131e-02
-4.399316e-02
-8.407131e-02
-4.081850e-02
-4.081850e-02
1.519580e-02
1.519580e-02
-2.075007e-02
-8.279146e-02
-2.075007e-02
-8.279146e-02
-6.480461e-02
-6.480461e-02
-1.076163e-01
-1.076163e-01
1.152311e-02
-5.463288e-02
1.152311e-02
-5.463288e-02
-2.534929e-02
-2.534929e-02
-1.301054e-02
-1.301054e-02
2.713099e-02
8.347298e-02
2.713099e-02
8.347298e-02
-6.862813e-02
-6.862813e-02
-8.396630e-02
-8.396630e-02
-9.971653e-02
-6.925961e-02
-9.971653e-02
-6.925961e-02
8.913162e-02
8.913162e-02
9.449544e-02
9.449544e-02
3.579647e-02
9.447610e-02
3.579647e-02
9.447610e-02
6.542988e-02
6.542988e-02
4.454439e-02
4.454439e-02
2.453495e-02
-1.488503e-02
2.453495e-02
-1.488503e-02
-2.312010e-02
-2.312010e-02
-6.557863e-02
-6.557863e-02
7.041648e-03
5.140839e-02
7.041648e-03
5.140839e-02
-1.780210e-02
-1.780210e-02
3.061743e-02
3.061743e-02
9.712741e-02
-6.465057e-02
9.712741e-02
-6.465057e-02
-3.046363e-02
-3.046363e-02
9.877813e-03
9.877813e-03
2.171692e-02
7.218128e-03
2.171692e-02
7.218128e-03
1.265380e-01
1.265380e-01
9.546973e-02
9.546973e-02
1.457130e-01
1.766293e-01
1.457130e-01
1.766293e-01
-6.200284e-02
1.939531e-02
-6.200284e-02
1.939531e-02
1.501189e-02
6.989544e-02
1.501189e-02
6.989544e-02
-2.181691e-03
3.449799e-03
-2.181691e-03
3.449799e-03
7.817687e-02
1.559189e-01
7.817687e-02
1.559189e-01
7.592972e-02
1.651772e-01
7.592972e-02
1.651772e-01
7.939253e-02
8.206088e-02
7.939253e-02
8.206088e-02
-1.605333e-02
8.774865e-02
-1.605333e-02
8.774865e-02
-1.002214e-01
2.360890e-02
-1.002214e-01
2.360890e-02
6.824355e-02
5.392224e-02
6.824355e-02
5.392224e-02
-4.262917e-02
-5.638236e-02
-4.262917e-02
-5.638236e-02
-2.686553e-03
-4.918604e-02
-2.686553e-03
-4.918604e-02
-1.503312e-01
-7.382348e-02
-1.503312e-01
-7.382348e-02
-1.255952e-03
1.421354e-02
-1.255952e-03
1.421354e-02
-4.289266e-03
-2.362478e-02
-4.289266e-03
-2.362478e-02
-7.472652e-02
-1.049826e-01
-7.472652e-02
-1.049826e-01
-5.032246e-02
-5.897063e-03
-5.032246e-02
-5.897063e-03
-3.767213e-02
-3.767213e-02
-3.041763e-02
-3.041763e-02
-9.007101e-02
-9.007101e-02
-3.741725e-02
-2.159314e-02
-3.741725e-02
-2.159314e-02
-5.354936e-02
-5.354936e-02
-4.367239e-02
-4.367239e-02
-4.119769e-02
-6.070197e-02
-4.119769e-02
-6.070197e-02
-3.732197e-02
-3.732197e-02
-1.855056e-03
-1.855056e-03
2.197287e-03
-1.235512e-02
2.197287e-03
-1.235512e-02
-2.239017e-02
-2.239017e-02
-5.849850e-02
-5.849850e-02
6.847808e-02
1.795727e-02
6.847808e-02
1.795727e-02
-8.317519e-02
-8.317519e-02
-5.990472e-02
-5.990472e-02
-6.802402e-03
6.210440e-02
-6.802402e-03
6.210440e-02
-7.939077e-02
-7.939077e-02
-2.795894e-02
-2.795894e-02
-1.911571e-02
-1.911571e-02
2.246129e-02
2.246129e-02
-5.115414e-02
3.650476e-03
-5.115414e-02
3.650476e-03
2.268235e-02
2.268235e-02
4.904847e-02
4.904847e-02
-1.453179e-02
-4.698088e-02
-1.453179e-02
-4.698088e-02
4.404854e-02
4.404854e-02
9.627014e-03
9.627014e-03
-1.958642e-02
2.095757e-03
-1.958642e-02
2.095757e-03
-1.737677e-02
-1.737677e-02
2.871084e-02
2.871084e-02
-7.755796e-03
-4.651316e-02
-7.755796e-03
-4.651316e-02
5.207719e-02
5.207719e-02
-1.767083e-02
-1.767083e-02
-1.462339e-02
4.655253e-02
-1.462339e-02
4.655253e-02
-2.421415e-02
-2.421415e-02
-1.155029e-01
-1.155029e-01
-1.499381e-02
-1.499381e-02
-2.219413e-02
-2.219413e-02
7.169649e-02
-1.308061e-02
7.169649e-02
-1.308061e-02
-4.415456e-02
-4.415456e-02
-1.172639e-01
-1.172639e-01
-1.392604e-02
7.666218e-02
-1.392604e-02
7.666218e-02
-6.022807e-02
-6.022807e-02
1.641342e-03
1.641342e-03
-2.751928e-02
-4.506436e-02
-2.751928e-02
-4.506436e-02
-1.654021e-02
-1.654021e-02
-1.184247e-02
-1.184247e-02
7.764565e-05
2.391951e-03
7.764565e-05
2.391951e-03
4.324115e-02
4.324115e-02
3.169638e-02
3.169638e-02
-1.240170e-02
-6.946979e-02
-1.240170e-02
-6.946979e-02
-6.372368e-02
-6.372368e-02
1.133433e-01
1.133433e-01
8.760662e-02
8.760662e-02
3.584676e-02
3.584676e-02
3.878954e-02
7.091458e-02
3.878954e-02
7.091458e-02
-3.971695e-02
-3.971695e-02
-4.282586e-02
-4.282586e-02
-1.306337e-01
-8.963185e-02
-1.306337e-01
-8.963185e-02
-4.249977e-02
-4.249977e-02
-2.452761e-02
-2.452761e-02
3.158596e-02
-3.100840e-02
3.158596e-02
-3.100840e-02
2.615320e-02
2.615320e-02
3.683720e-02
3.683720e-02
1.815005e-02
1.821891e-02
1.815005e-02
1.821891e-02
-5.064879e-02
-5.064879e-02
7.490072e-03
7.490072e-03
6.091225e-02
5.705109e-02
6.091225e-02
5.705109e-02
1.267213e-01
1.267213e-01
2.425078e-03
2.425078e-03
-2.838301e-02
-2.838301e-02
5.597849e-02
5.597849e-02
-4.717139e-03
-3.484237e-02
-4.717139e-03
-3.484237e-02
3.767379e-02
3.767379e-02
3.977662e-02
3.977662e-02
1.337051e-01
1.541380e-02
1.337051e-01
1.541380e-02
4.573339e-02
4.573339e-02
3.174199e-02
3.174199e-02
-2.180370e-02
3.664501e-02
-2.180370e-02
3.664501e-02
5.735983e-02
5.735983e-02
1.095764e-02
1.095764e-02
9.463838e-02
1.393281e-01
9.463838e-02
1.393281e-01
6.414030e-03
6.414030e-03
-3.568200e-02
-3.568200e-02
-4.012672e-02
-1.341469e-02
-4.012672e-02
-1.341469e-02
-7.356303e-02
-7.356303e-02
-4.563473e-02
-4.563473e-02
2.162327e-02
2.162327e-02
2.369905e-02
2.369905e-02
1.321435e-02
8.684278e-03
1.321435e-02
8.684278e-03
-3.082828e-02
-3.082828e-02
4.619395e-02
4.619395e-02
-2.942229e-02
-1.538214e-02
-2.942229e-02
-1.538214e-02
-1.119928e-02
-1.119928e-02
-4.547201e-02
-4.547201e-02
-1.001460e-01
-9.707103e-02
-1.001460e-01
-9.707103e-02
8.488593e-02
8.488593e-02
8.685575e-02
8.685575e-02
-2.758207e-02
-3.553423e-02
-2.758207e-02
-3.553423e-02
4.579295e-02
4.579295e-02
5.121287e-02
5.121287e-02
3.042134e-02
1.020025e-02
3.042134e-02
1.020025e-02
-1.374876e-02
-1.374876e-02
9.655414e-04
9.655414e-04
2.533004e-02
2.533004e-02
2.623990e-02
2.623990e-02
1.045049e-01
8.817734e-02
1.045049e-01
8.817734e-02
4.631956e-02
4.631956e-02
-2.210825e-02
-2.210825e-02
1.512521e-02
1.083983e-01
1.512521e-02
1.083983e-01
-1.224450e-01
-1.224450e-01
-1.233277e-01
-1.233277e-01
-7.938825e-02
-6.842275e-02
-7.938825e-02
-6.842275e-02
-1.008308e-01
-1.008308e-01
-7.265485e-02
-7.265485e-02
-7.263985e-02
-1.116475e-01
-7.263985e-02
-1.116475e-01
-3.591932e-02
-3.591932e-02
-6.178828e-04
-6.178828e-04
1.026936e-02
-4.513547e-02
1.026936e-02
-4.513547e-02
6.007434e-02
6.007434e-02
9.999394e-02
9.999394e-02
-4.942155e-02
-4.942155e-02
4.545261e-02
4.545261e-02
1.685672e-02
2.847316e-03
1.685672e-02
2.847316e-03
1.407478e-02
1.407478e-02
4.294398e-02
4.294398e-02
-2.076675e-02
-6.007510e-02
-2.076675e-02
-6.007510e-02
9.245200e-02
9.245200e-02
3.253912e-02
3.253912e-02
-6.335317e-02
-1.706520e-03
-6.335317e-02
-1.706520e-03
7.521743e-03
7.521743e-03
6.448029e-02
6.448029e-02
3.736746e-02
-4.087940e-02
3.736746e-02
-4.087940e-02
1.179625e-01
1.179625e-01
1.138200e-01
1.138200e-01
-3.649508e-02
6.783722e-03
-3.649508e-02
6.783722e-03
7.193504e-02
7.193504e-02
-1.866404e-02
-1.866404e-02
-1.695488e-02
-1.732712e-02
-1.695488e-02
-1.732712e-02
4.947071e-02
4.947071e-02
3.141215e-02
3.141215e-02
-1.673095e-02
4.707483e-02
-1.673095e-02
4.707483e-02
-1.639357e-02
-1.639357e-02
-1.742847e-02
-1.742847e-02
-2.961900e-02
-3.601973e-02
-2.961900e-02
-3.601973e-02
-6.658623e-02
-6.658623e-02
-6.580400e-02
-6.580400e-02
2.636289e-02
-2.171924e-02
2.636289e-02
-2.171924e-02
-6.504333e-03
-6.504333e-03
-4.559240e-02
-4.559240e-02
-6.375894e-02
3.529703e-02
-6.375894e-02
3.529703e-02
-7.963800e-02
-7.963800e-02
-5.099213e-02
-5.099213e-02
4.276799e-02
-5.625229e-03
4.276799e-02
-5.625229e-03
-5.673318e-02
-5.673318e-02
-2.751665e-02
-2.751665e-02
-1.730430e-02
-6.117421e-02
-1.730430e-02
-6.117421e-02
8.125727e-02
8.125727e-02
3.796614e-02
3.796614e-02
1.327994e-01
5.758610e-02
1.327994e-01
5.758610e-02
3.674546e-02
3.674546e-02
3.473214e-02
3.473214e-02
1.165024e-01
2.012120e-01
1.165024e-01
2.012120e-01
5.374944e-02
5.374944e-02
1.231986e-01
1.231986e-01
1.085969e-01
2.856082e-02
1.085969e-01
2.856082e-02
1.556216e-01
1.556216e-01
3.919529e-02
3.919529e-02
5.744759e-02
1.642738e-01
5.744759e-02
1.642738e-01
1.117922e-02
1.117922e-02
2.306827e-02
2.306827e-02
3.011380e-02
1.538495e-02
3.011380e-02
1.538495e-02
-1.490628e-02
-1.490628e-02
3.308806e-02
3.308806e-02
5.388839e-02
9.487610e-03
5.388839e-02
9.487610e-03
-1.370824e-02
-1.370824e-02
1.277026e-01
1.277026e-01
-1.440915e-02
-9.630693e-02
-1.440915e-02
-9.630693e-02
1.844080e-01
1.844080e-01
1.073875e-01
1.073875e-01
1.386075e-02
2.097154e-02
1.386075e-02
2.097154e-02
1.275341e-02
1.275341e-02
1.741502e-02
1.741502e-02
-7.281720e-02
-4.407461e-03
-7.281720e-02
-4.407461e-03
4.227965e-02
4.227965e-02
-1.444396e-02
-1.444396e-02
-1.258094e-01
-1.001393e-01
-1.258094e-01
-1.001393e-01
-1.741188e-02
-1.741188e-02
-2.624687e-02
-2.624687e-02
-1.142598e-01
-1.355954e-01
-1.142598e-01
-1.355954e-01
-8.003541e-02
-8.003541e-02
-1.560317e-02
-1.560317e-02
-7.079944e-02
-1.045649e-01
-7.079944e-02
-1.045649e-01
-1.491748e-01
-1.491748e-01
-1.884613e-01
-1.884613e-01
-2.013870e-01
-1.081557e-01
-2.013870e-01
-1.081557e-01
-1.849373e-01
-1.849373e-01
-9.671439e-02
-9.671439e-02
-1.073432e-01
-2.764167e-01
-1.073432e-01
-2.764167e-01
-6.767702e-02
-6.767702e-02
-1.851763e-01
-1.851763e-01
-2.135482e-01
-7.522192e-02
-2.135482e-01
-7.522192e-02
-2.720466e-01
-2.720466e-01
-2.513849e-01
-2.513849e-01
-1.570256e-01
-2.132196e-01
-1.570256e-01
-2.132196e-01
-1.899969e-01
-1.899969e-01
-1.056295e-01
-1.056295e-01
-1.280295e-01
-1.682185e-01
-1.280295e-01
-1.682185e-01
-8.702637e-02
-8.702637e-02
-6.346470e-02
-6.346470e-02
-4.569585e-02
-1.192058e-01
-4.569585e-02
-1.192058e-01
-8.763079e-02
-8.763079e-02
-1.501846e-01
-1.501846e-01
-4.814231e-02
-4.651476e-02
-4.814231e-02
-4.651476e-02
-1.726959e-01
-1.726959e-01
-5.527318e-02
-5.527318e-02
5.102616e-02
-3.368710e-02
5.102616e-02
-3.368710e-02
-4.343416e-02
-4.343416e-02
-1.084467e-01
-1.084467e-01
1.206268e-02
5.342658e-02
1.206268e-02
5.342658e-02
-4.585867e-02
-4.585867e-02
2.575829e-03
2.575829e-03
4.325945e-02
2.940181e-02
4.325945e-02
2.940181e-02
-5.021986e-02
-5.021986e-02
-6.212687e-02
-6.212687e-02
-4.432809e-02
2.457170e-03
-4.432809e-02
2.457170e-03
-9.312416e-02
-9.312416e-02
-5.231400e-02
-5.231400e-02
-4.968885e-02
-9.175283e-02
-4.968885e-02
-9.175283e-02
4.745710e-02
4.745710e-02
6.259002e-02
6.259002e-02
1.256990e-02
-2.971102e-02
1.256990e-02
-2.971102e-02
4.911693e-02
4.911693e-02
1.329466e-01
1.329466e-01
6.765352e-02
5.357322e-02
6.765352e-02
5.357322e-02
1.141452e-01
1.141452e-01
9.311801e-02
9.311801e-02
4.560355e-02
2.589210e-02
4.560355e-02
2.589210e-02
1.504589e-01
1.504589e-01
1.525414e-01
1.525414e-01
2.047071e-01
1.510660e-01
2.047071e-01
1.510660e-01
1.020238e-02
1.020238e-02
-1.387156e-01
-1.387156e-01
-1.276242e-01
4.561541e-02
-1.276242e-01
4.561541e-02
-1.879214e-01
-1.879214e-01
-7.284327e-02
-7.284327e-02
-8.653943e-02
-1.735294e-01
-8.653943e-02
-1.735294e-01
-1.165030e-01
-1.165030e-01
-4.145253e-02
-4.145253e-02
-1.703930e-01
-1.982994e-01
-1.703930e-01
-1.982994e-01
-2.272621e-02
-2.272621e-02
-5.026082e-02
-5.026082e-02
-1.585695e-01
-1.810825e-01
-1.585695e-01
-1.810825e-01
-6.853279e-02
-6.853279e-02
-1.508983e-01
-1.508983e-01
-1.885313e-01
-1.362630e-01
-1.885313e-01
-1.362630e-01
-1.384415e-01
-1.384415e-01
-2.138725e-02
-2.138725e-02
-1.444079e-01
-1.938732e-01
-1.444079e-01
-1.938732e-01
-3.991781e-02
-3.991781e-02
-1.053172e-01
-1.053172e-01
-1.112599e-01
-8.577661e-02
-1.112599e-01
-8.577661e-02
-9.170502e-02
-9.170502e-02
-8.371585e-03
-8.371585e-03
2.743196e-03
-1.568400e-01
2.743196e-03
-1.568400e-01
-2.179718e-01
-2.179718e-01
-2.676480e-01
-2.676480e-01
-1.080233e-01
-5.683761e-02
-1.080233e-01
-5.683761e-02
-2.754033e-01
-2.754033e-01
-2.331312e-01
-2.331312e-01
-2.379269e-01
-1.648240e-01
-2.379269e-01
-1.648240e-01
-1.856380e-01
-1.856380e-01
-4.108893e-02
-4.108893e-02
-5.945235e-02
-1.804573e-01
-5.945235e-02
-1.804573e-01
4.099199e-02
4.099199e-02
-1.487519e-02
-1.487519e-02
1.181887e-01
1.281195e-01
1.181887e-01
1.281195e-01
-2.701970e-02
-2.701970e-02
-1.297691e-01
-1.297691e-01
-3.303767e-01
-9.801226e-02
-3.303767e-01
-9.801226e-02
-2.389740e-01
-2.389740e-01
4.402058e-02
4.402058e-02
6.202837e-02
-4.358945e-01
6.202837e-02
-4.358945e-01
-3.202706e-02
-3.202706e-02
-6.098026e-02
-6.098026e-02
-1.186464e-01
-1.287035e-01
-1.186464e-01
-1.287035e-01
-5.434595e-02
-5.434595e-02
-1.335115e-01
-1.335115e-01
-6.958683e-02
-1.305670e-01
-6.958683e-02
-1.305670e-01
-2.393070e-01
-2.393070e-01
-1.953459e-01
-1.953459e-01
-2.805893e-01
-1.814396e-01
-2.805893e-01
-1.814396e-01
7.132045e-02
7.132045e-02
3.829893e-01
3.829893e-01
7.295914e-01
-6.358800e-02
7.295914e-01
-6.358800e-02
1.172511e-01
1.172511e-01
-6.315033e-01
-6.315033e-01
-7.199593e-01
1.004467e+00
-7.199593e-01
1.004467e+00
-9.158146e-01
-9.158146e-01
-3.339665e-02
-3.339665e-02
-4.751158e-02
-1.696778e+00
-4.751158e-02
-1.696778e+00
-9.434281e-02
-9.434281e-02
-1.863099e-02
-1.863099e-02
-5.274598e-03
-4.488490e-02
-5.274598e-03
-4.488490e-02
-1.290061e-01
-1.290061e-01
-1.290897e-01
-1.290897e-01
-1.704439e-02
4.095816e-02
-1.704439e-02
4.095816e-02
1.418419e-01
1.418419e-01
-1.702743e-02
-1.702743e-02
7.230353e-01
3.192553e-01
7.230353e-01
3.192553e-01
-1.059735e-01
-1.059735e-01
7.743017e-01
7.743017e-01
3.562707e-01
1.540883e-01
3.562707e-01
1.540883e-01
1.654185e+00
1.654185e+00
1.323998e-01
1.323998e-01
2.665313e+00
1.775247e+00
2.665313e+00
1.775247e+00
-1.944591e+00
-1.944591e+00
-8.154508e-02
-8.154508e-02
4.863325e-01
4.945948e-01
4.863325e-01
4.945948e-01
-2.288727e-01
-2.288727e-01
-2.065980e-01
-2.065980e-01
-3.974601e-01
-5.098784e-01
-3.974601e-01
-5.098784e-01
-1.036255e-03
-1.036255e-03
4.071752e-01
4.071752e-01
9.075124e-01
-1.247827e-01
9.075124e-01
-1.247827e-01
5.250365e-01
5.250365e-01
1.079432e+00
1.079432e+00
1.074233e+00
1.504144e+00
1.074233e+00
1.504144e+00
1.075724e+00
1.075724e+00
7.457652e-01
7.457652e-01
3.907710e+00
2.012457e+00
3.907710e+00
2.012457e+00
2.814953e+00
2.814953e+00
6.261161e+00
6.261161e+00
6.976973e+00
5.278652e+00
6.976973e+00
5.278652e+00
5.603841e+00
5.603841e+00
2.046372e+00
2.046372e+00
1.828901e+00
8.446451e+00
1.828901e+00
8.446451e+00
-7.725835e-01
-7.725835e-01
-5.682698e-01
-5.682698e-01
-5.969825e-01
-1.022439e+00
-5.969825e-01
-1.022439e+00
8.753762e-02
8.753762e-02
1.502814e+00
1.502814e+00
2.677800e+00
8.056330e-01
2.677800e+00
8.056330e-01
2.484657e+00
2.484657e+00
1.815143e+00
1.815143e+00
2.856894e+00
2.623752e+00
2.856894e+00
2.623752e+00
3.385899e+00
3.385899e+00
8.232065e+00
8.232065e+00
1.030381e+01
6.457574e+00
1.030381e+01
6.457574e+00
7.562756e+00
7.562756e+00
3.703090e+00
3.703090e+00
3.589615e+00
8.956867e+00
3.589615e+00
8.956867e+00
6.186471e+00
6.186471e+00
-1.595249e+00
-1.595249e+00
-4.735202e+00
3.734838e+00
-4.735202e+00
3.734838e+00
-1.038801e+00
-1.038801e+00
-2.066066e-01
-2.066066e-01
5.249526e-01
-5.088753e-01
5.249526e-01
-5.088753e-01
1.785052e+00
1.785052e+00
3.445941e+00
3.445941e+00
3.170801e+00
2.378603e+00
3.170801e+00
2.378603e+00
2.403023e+00
2.403023e+00
3.988902e+00
3.988902e+00
5.259981e+00
2.142097e+00
5.259981e+00
2.142097e+00
1.022863e+01
1.022863e+01
1.070914e+01
1.070914e+01
1.502682e+01
1.282808e+01
1.502682e+01
1.282808e+01
6.813863e+00
6.813863e+00
3.407828e+00
3.407828e+00
8.188551e+00
1.253472e+01
8.188551e+00
1.253472e+01
3.830355e-01
3.830355e-01
-8.630147e+00
-8.630147e+00
-1.715658e+01
-3.463021e+00
-1.715658e+01
-3.463021e+00
6.070567e-01
6.070567e-01
1.260000e+00
1.260000e+00
1.191466e+00
1.497767e+00
1.191466e+00
1.497767e+00
1.873453e+00
1.873453e+00
2.222582e+00
2.222582e+00
1.901660e-01
8.832783e-01
1.901660e-01
8.832783e-01
1.553938e+00
1.553938e+00
6.632346e+00
6.632346e+00
6.442083e+00
9.344280e-01
6.442083e+00
9.344280e-01
1.496080e+01
1.496080e+01
2.146770e+01
2.146770e+01
2.317254e+01
1.624002e+01
2.317254e+01
1.624002e+01
1.868263e+01
1.868263e+01
4.464624e+00
4.464624e+00
-1.122870e+00
1.702795e+01
-1.122870e+00
1.702795e+01
-9.653789e+00
-9.653789e+00
-3.166083e+01
-3.166083e+01
-4.225011e+01
-7.908147e+00
-4.225011e+01
-7.908147e+00
1.852256e+00
1.852256e+00
-1.082335e-01
-1.082335e-01
-1.426055e+00
3.531434e+00
-1.426055e+00
3.531434e+00
-5.029437e-02
-5.029437e-02
-2.987765e+00
-2.987765e+00
-2.152032e+00
5.313884e-01
-2.152032e+00
5.313884e-01
5.999739e-02
5.999739e-02
3.229640e+00
3.229640e+00
5.025786e+00
1.933487e+00
5.025786e+00
1.933487e+00
1.024892e+01
1.024892e+01
1.846900e+01
1.846900e+01
1.894948e+01
1.022803e+01
1.894948e+01
1.022803e+01
1.975534e+01
1.975534e+01
7.897025e+00
7.897025e+00
1.248945e+01
1.090803e+01
1.248945e+01
1.090803e+01
-1.818920e+00
-1.818920e+00
-5.031448e+01
-5.031448e+01
-1.335022e+01
2.357468e+01
-1.335022e+01
2.357468e+01
5.414545e+00
5.414545e+00
-1.400593e+00
-1.400593e+00
-3.491959e+00
3.231447e+00
-3.491959e+00
3.231447e+00
2.582394e+00
2.582394e+00
2.509552e+00
2.509552e+00
8.691934e+00
3.788151e+00
8.691934e+00
3.788151e+00
5.125269e+00
5.125269e+00
9.066678e+00
9.066678e+00
8.090989e+00
8.842165e+00
8.090989e+00
8.842165e+00
1.592568e+01
1.592568e+01
2.581954e+01
2.581954e+01
3.919457e+00
4.434314e+00
3.919457e+00
4.434314e+00
1.867961e+01
1.867961e+01
1.969867e+01
1.969867e+01
1.136090e+01
8.227893e+00
1.136090e+01
8.227893e+00
2.073891e+01
2.073891e+01
1.778564e+01
1.778564e+01
3.559635e+01
3.624932e+00
3.559635e+01
3.624932e+00
3.492315e-01
3.492315e-01
-4.787906e+00
-4.787906e+00
-3.642452e+00
7.413957e-01
-3.642452e+00
7.413957e-01
4.792192e+00
4.792192e+00
1.266005e+01
1.266005e+01
1.279460e+01
3.794928e+00
1.279460e+01
3.794928e+00
9.510280e+00
9.510280e+00
3.683228e+00
3.683228e+00
-1.090271e+00
9.794712e+00
-1.090271e+00
9.794712e+00
-1.009327e+01
-1.009327e+01
-2.756321e+01
-2.756321e+01
-3.487891e+01
-1.600164e+01
-3.487891e+01
-1.600164e+01
-2.929616e+01
-2.929616e+01
-1.300233e+01
-1.300233e+01
-1.983453e+01
-3.553322e+01
-1.983453e+01
-3.553322e+01
5.110277e+00
5.110277e+00
5.120063e+01
5.120063e+01
2.107622e+01
-5.653916e+00
2.107622e+01
-5.653916e+00
1.635090e+00
1.635090e+00
-3.484330e+00
-3.484330e+00
-2.209968e+00
1.521005e+00
-2.209968e+00
1.521005e+00
6.539188e-01
6.539188e-01
1.044401e+01
1.044401e+01
3.396799e+00
-1.627500e+00
3.396799e+00
-1.627500e+00
1.118867e+01
1.118867e+01
-3.795114e+00
-3.795114e+00
-3.477572e+00
6.413748e+00
-3.477572e+00
6.413748e+00
-1.929949e+01
-1.929949e+01
-2.864645e+01
-2.864645e+01
-1.618949e+01
-1.518583e+01
-1.618949e+01
-1.518583e+01
-2.629666e+01
-2.629666e+01
-1.249308e+01
-1.249308e+01
-4.615482e+00
-1.234655e+01
-4.615482e+00
-1.234655e+01
4.802192e-01
4.802192e-01
2.803135e+00
2.803135e+00
-4.455409e-01
3.700509e+00
-4.455409e-01
3.700509e+00
1.464696e+00
1.464696e+00
-4.178595e-01
-4.178595e-01
6.902769e-01
1.562040e+00
6.902769e-01
1.562040e+00
-2.207147e+00
-2.207147e+00
-1.816034e+00
-1.816034e+00
-2.033322e+00
-1.299357e+00
-2.033322e+00
-1.299357e+00
1.823512e+00
1.823512e+00
-7.481945e-01
-7.481945e-01
1.392576e+00
6.828653e-01
1.392576e+00
6.828653e-01
-8.332537e+00
-8.332537e+00
-9.000377e+00
-9.000377e+00
-6.771653e+00
-3.796455e+00
-6.771653e+00
-3.796455e+00
-4.161091e+00
-4.161091e+00
-4.747117e-01
-4.747117e-01
1.254669e+00
-2.261186e+00
1.254669e+00
-2.261186e+00
4.049089e-01
4.049089e-01
-1.017271e+00
-1.017271e+00
-8.717044e-01
3.357896e-01
-8.717044e-01
3.357896e-01
1.280003e+00
1.280003e+00
9.769560e-01
9.769560e-01
7.075679e-01
1.030023e+00
7.075679e-01
1.030023e+00
-4.151657e-01
-4.151657e-01
-1.083770e+00
-1.083770e+00
-6.268497e-01
-1.194393e-01
-6.268497e-01
-1.194393e-01
3.995313e-01
3.995313e-01
2.099357e+00
2.099357e+00
1.442998e+00
9.113498e-02
1.442998e+00
9.113498e-02
-6.182957e-01
-6.182957e-01
-4.618482e+00
-4.618482e+00
-2.624051e+00
7.316531e-01
-2.624051e+00
7.316531e-01
-3.004991e+00
-3.004991e+00
9.564215e-01
9.564215e-01
-7.030245e-01
-3.689858e+00
-7.030245e-01
-3.689858e+00
1.877580e+00
1.877580e+00
-3.702150e-02
-3.702150e-02
6.742684e-01
3.147891e+00
6.742684e-01
3.147891e+00
5.282632e-01
5.282632e-01
2.536483e-01
2.536483e-01
4.792984e-03
9.779570e-02
4.792984e-03
9.779570e-02
-1.165251e-01
-1.165251e-01
-4.074227e-01
-4.074227e-01
-3.661703e-01
-1.735078e-01
-3.661703e-01
-1.735078e-01
-1.480918e-02
-1.480918e-02
9.351103e-01
9.351103e-01
7.735195e-01
-1.059039e-01
7.735195e-01
-1.059039e-01
1.181929e+00
1.181929e+00
-1.028764e+00
-1.028764e+00
-4.929538e-01
1.059816e+00
-4.929538e-01
1.059816e+00
-2.095264e+00
-2.095264e+00
-1.126052e+00
-1.126052e+00
-3.913513e-01
-1.119144e+00
-3.913513e-01
-1.119144e+00
-7.911992e-02
-7.911992e-02
3.276300e-02
3.276300e-02
-1.158701e-02
-5.204857e-02
-1.158701e-02
-5.204857e-02
4.184045e-02
4.184045e-02
-4.773109e-02
-4.773109e-02
-8.025489e-02
-1.025153e-02
-8.025489e-02
-1.025153e-02
-8.250481e-02
-8.250481e-02
-4.014613e-02
-4.014613e-02
-3.569899e-02
-1.129428e-01
-3.569899e-02
-1.129428e-01
3.686446e-02
3.686446e-02
4.913906e-02
4.913906e-02
6.641141e-03
7.360957e-02
6.641141e-03
7.360957e-02
3.864334e-02
3.864334e-02
4.792140e-02
4.792140e-02
2.110974e-02
-5.461885e-02
2.110974e-02
-5.461885e-02
5.094681e-02
5.094681e-02
4.842970e-02
4.842970e-02
1.304218e-01
9.547855e-02
1.304218e-01
9.547855e-02
-1.185946e-02
-1.185946e-02
-9.870947e-02
-9.870947e-02
-1.445503e-01
-2.124223e-02
-1.445503e-01
-2.124223e-02
-8.895571e-02
-8.895571e-02
-5.950468e-02
-5.950468e-02
-6.983686e-02
-8.080072e-02
-6.983686e-02
-8.080072e-02
-5.982360e-02
-5.982360e-02
-4.352199e-02
-4.352199e-02
-1.233042e-02
-3.242289e-02
-1.233042e-02
-3.242289e-02
5.090226e-03
5.090226e-03
1.029487e-02
1.029487e-02
8.809592e-02
2.579167e-02
8.809592e-02
2.579167e-02
-5.377666e-02
-5.377666e-02
-3.801786e-02
-3.801786e-02
-1.211526e-01
-4.467262e-02
-1.211526e-01
-4.467262e-02
-1.358039e-02
-1.358039e-02
-2.495172e-02
-2.495172e-02
2.160945e-01
5.259077e-02
2.160945e-01
5.259077e-02
-2.416575e-01
-2.416575e-01
-6.032129e-01
-6.032129e-01
-6.750282e-01
-7.066516e-03
-6.750282e-01
-7.066516e-03
-5.420473e-01
-5.420473e-01
-4.377777e-02
-4.377777e-02
-1.507768e-01
-9.895286e-01
-1.507768e-01
-9.895286e-01
5.808026e-02
5.808026e-02
-7.716688e-02
-7.716688e-02
-8.494520e-02
4.203550e-01
-8.494520e-02
4.203550e-01
6.001231e-02
6.001231e-02
-4.967004e-01
-4.967004e-01
2.048570e+00
2.946934e-01
2.048570e+00
2.946934e-01
-1.988720e+00
-1.988720e+00
-1.335589e+00
-1.335589e+00
1.593507e+00
3.116623e+00
1.593507e+00
3.116623e+00
2.827832e-01
2.827832e-01
5.474311e-01
5.474311e-01
1.672544e+00
5.288963e-01
1.672544e+00
5.288963e-01
7.069213e-01
7.069213e-01
4.285444e-01
4.285444e-01
9.903388e-01
2.139195e+00
9.903388e-01
2.139195e+00
-2.479282e-01
-2.479282e-01
-6.445073e-01
-6.445073e-01
-1.341312e+00
-7.695099e-01
-1.341312e+00
-7.695099e-01
-5.027289e-01
-5.027289e-01
-2.902035e-01
-2.902035e-01
-3.013225e-01
-8.207156e-01
-3.013225e-01
-8.207156e-01
-2.126745e-01
-2.126745e-01
-2.064035e-01
-2.064035e-01
4.282240e-02
-1.783396e-02
4.282240e-02
-1.783396e-02
-2.566092e-02
-2.566092e-02
-3.084433e-02
-3.084433e-02
-8.576664e-02
-7.522500e-02
-8.576664e-02
-7.522500e-02
-5.297222e-02
-5.297222e-02
-7.874571e-02
-7.874571e-02
-7.773262e-02
-5.292105e-02
-7.773262e-02
-5.292105e-02
-4.186963e-02
-4.186963e-02
-1.024485e-02
-1.024485e-02
-8.280931e-03
-4.280802e-02
-8.280931e-03
-4.280802e-02
-2.299457e-03
-2.299457e-03
-7.043321e-02
-7.043321e-02
-3.026216e-02
-1.317120e-02
-3.026216e-02
-1.317120e-02
-8.732059e-02
-8.732059e-02
7.684002e-03
7.684002e-03
-1.219889e-02
-4.532781e-02
-1.219889e-02
-4.532781e-02
8.214823e-02
8.214823e-02
8.697875e-02
8.697875e-02
3.883062e-02
3.557845e-02
3.883062e-02
3.557845e-02
-9.336408e-02
-9.336408e-02
-1.998446e-01
-1.998446e-01
-1.318660e-01
-7.731610e-02
-1.318660e-01
-7.731610e-02
-7.389550e-02
-7.389550e-02
-4.941462e-02
-4.941462e-02
7.943397e-02
2.535708e-02
7.943397e-02
2.535708e-02
-6.888438e-02
-6.888438e-02
-5.346716e-02
-5.346716e-02
-1.448891e-01
-8.787312e-02
-1.448891e-01
-8.787312e-02
-1.790846e-02
-1.790846e-02
3.401702e-02
3.401702e-02
-7.994245e-02
-6.533440e-02
-7.994245e-02
-6.533440e-02
-5.901469e-02
-5.901469e-02
-5.369203e-02
-5.369203e-02
-9.679551e-03
-8.490954e-02
-9.679551e-03
-8.490954e-02
1.528085e-01
1.528085e-01
2.434211e-01
2.434211e-01
6.269170e-01
1.752065e-01
6.269170e-01
1.752065e-01
1.146588e-01
1.146588e-01
-5.732317e-01
-5.732317e-01
5.655712e-01
1.033597e+00
5.655712e-01
1.033597e+00
-1.406117e+00
-1.406117e+00
-8.638606e-01
-8.638606e-01
-2.160855e+00
-9.150470e-01
-2.160855e+00
-9.150470e-01
3.900133e-01
3.900133e-01
-3.067846e-01
-3.067846e-01
-4.701826e-01
-1.301439e+00
-4.701826e-01
-1.301439e+00
-2.952964e+00
-2.952964e+00
-2.684498e+00
-2.684498e+00
-1.222776e+01
-5.760353e+00
-1.222776e+01
-5.760353e+00
1.149689e+00
1.149689e+00
1.286734e+00
1.286734e+00
-4.137474e+00
-1.317802e+01
-4.137474e+00
-1.317802e+01
2.764792e-01
2.764792e-01
4.172407e+00
4.172407e+00
7.564684e+00
3.782576e+00
7.564684e+00
3.782576e+00
6.074841e+00
6.074841e+00
2.847463e+00
2.847463e+00
5.106699e+00
1.007091e+01
5.106699e+00
1.007091e+01
-9.188142e-01
-9.188142e-01
-2.241017e+00
-2.241017e+00
-2.953854e+00
-7.005843e-01
-2.953854e+00
-7.005843e-01
-1.348219e+00
-1.348219e+00
-3.888723e-01
-3.888723e-01
-6.329170e-01
-1.728896e+00
-6.329170e-01
-1.728896e+00
-1.449459e-01
-1.449459e-01
-2.536752e-01
-2.536752e-01
-5.834712e-01
-4.747179e-01
-5.834712e-01
-4.747179e-01
-1.261009e-01
-1.261009e-01
-1.082776e-01
-1.082776e-01
-3.938057e-03
-8.634453e-02
-3.938057e-03
-8.634453e-02
-6.084465e-02
-6.084465e-02
-6.267955e-02
-6.267955e-02
-5.091517e-02
-4.847928e-02
-5.091517e-02
-4.847928e-02
-3.363603e-02
-3.363603e-02
-1.140054e-02
-1.140054e-02
-2.025539e-02
2.768881e-02
-2.025539e-02
2.768881e-02
-1.566860e-02
-1.566860e-02
-1.754411e-02
-1.754411e-02
-2.073307e-02
-6.817146e-02
-2.073307e-02
-6.817146e-02
-8.614851e-02
-8.614851e-02
-9.015983e-02
-9.015983e-02
-1.285115e-01
-1.151215e-01
-1.285115e-01
-1.151215e-01
5.413875e-02
5.413875e-02
8.766340e-02
8.766340e-02
5.423322e-02
6.760599e-02
5.423322e-02
6.760599e-02
6.913371e-03
6.913371e-03
-2.821661e-02
-2.821661e-02
2.281878e-02
1.388506e-02
2.281878e-02
1.388506e-02
5.385351e-02
5.385351e-02
1.657397e-01
1.657397e-01
9.255526e-02
-3.883970e-02
9.255526e-02
-3.883970e-02
8.902203e-03
8.902203e-03
-1.278481e-01
-1.278481e-01
2.317251e-02
1.445813e-01
2.317251e-02
1.445813e-01
-2.712448e-02
-2.712448e-02
-2.911494e-02
-2.911494e-02
2.373622e-02
3.275603e-02
2.373622e-02
3.275603e-02
-1.014380e-01
-1.014380e-01
-1.889292e-01
-1.889292e-01
-2.908519e-01
-1.464883e-01
-2.908519e-01
-1.464883e-01
1.010989e-01
1.010989e-01
1.179633e+00
1.179633e+00
1.918814e+00
1.740986e-01
1.918814e+00
1.740986e-01
2.524769e+00
2.524769e+00
2.683307e+00
2.683307e+00
5.144088e+00
4.521020e+00
5.144088e+00
4.521020e+00
2.261126e-01
2.261126e-01
-4.013257e+00
-4.013257e+00
-8.160215e+00
4.054093e-01
-8.160215e+00
4.054093e-01
-5.819163e+00
-5.819163e+00
-1.883604e+00
-1.883604e+00
-6.382380e+00
-1.309696e+01
-6.382380e+00
-1.309696e+01
-6.356053e-01
-6.356053e-01
-7.655298e+00
-7.655298e+00
8.450858e+00
6.654362e+00
8.450858e+00
6.654362e+00
-1.262383e+01
-1.262383e+01
-1.182350e-01
-1.182350e-01
7.910328e+00
6.874828e+00
7.910328e+00
6.874828e+00
9.999344e+00
9.999344e+00
1.049453e+01
1.049453e+01
1.132248e+01
6.651179e+00
1.132248e+01
6.651179e+00
1.272393e+01
1.272393e+01
8.451608e+00
8.451608e+00
1.126881e+01
1.555192e+01
1.126881e+01
1.555192e+01
1.098190e+00
1.098190e+00
-2.647302e+00
-2.647302e+00
-1.210834e+00
2.945375e+00
-1.210834e+00
2.945375e+00
-1.923008e+00
-1.923008e+00
-1.130612e+00
-1.130612e+00
-1.348906e+00
-1.357620e+00
-1.348906e+00
-1.357620e+00
-7.219247e-01
-7.219247e-01
-5.606162e-01
-5.606162e-01
-3.588495e-01
-7.501393e-01
-3.588495e-01
-7.501393e-01
1.006026e-02
1.006026e-02
7.826634e-02
7.826634e-02
4.653129e-02
-1.249647e-02
4.653129e-02
-1.249647e-02
-8.599766e-03
-8.599766e-03
-4.924683e-02
-4.924683e-02
-5.076750e-02
2.980216e-02
-5.076750e-02
2.980216e-02
-5.968772e-03
-5.968772e-03
-5.469283e-02
-5.469283e-02
-6.729147e-02
-8.199968e-02
-6.729147e-02
-8.199968e-02
-5.855112e-02
-5.855112e-02
2.975443e-02
2.975443e-02
2.306073e-03
-3.114543e-02
2.306073e-03
-3.114543e-02
2.323136e-02
2.323136e-02
-1.169234e-02
-1.169234e-02
1.262905e-01
9.018692e-02
1.262905e-01
9.018692e-02
1.578086e-02
1.578086e-02
-1.189437e-02
-1.189437e-02
-2.781081e-02
3.180298e-02
-2.781081e-02
3.180298e-02
-5.783598e-03
-5.783598e-03
1.701296e-02
1.701296e-02
-4.186911e-02
-1.662364e-02
-4.186911e-02
-1.662364e-02
-6.043104e-02
-6.043104e-02
-3.167722e-02
-3.167722e-02
2.346108e-02
-2.493520e-02
2.346108e-02
-2.493520e-02
5.026747e-02
5.026747e-02
-1.111161e-03
-1.111161e-03
-1.094410e-01
-1.077225e-02
-1.094410e-01
-1.077225e-02
1.417177e-02
1.417177e-02
8.314627e-02
8.314627e-02
1.901232e-01
-3.224712e-02
1.901232e-01
-3.224712e-02
-2.250178e-02
-2.250178e-02
-1.741035e-01
-1.741035e-01
1.232244e-01
1.451478e-01
1.232244e-01
1.451478e-01
4.461167e-01
4.461167e-01
2.928020e+00
2.928020e+00
3.968938e+00
1.208377e+00
3.968938e+00
1.208377e+00
6.199506e+00
6.199506e+00
5.609064e+00
5.609064e+00
2.162759e+00
5.689969e+00
2.162759e+00
5.689969e+00
-2.605132e+00
-2.605132e+00
-1.476794e+01
-1.476794e+01
-1.891478e+01
-6.995468e+00
-1.891478e+01
-6.995468e+00
-2.234260e+01
-2.234260e+01
-1.510129e+01
-1.510129e+01
-2.996816e+01
-3.132800e+01
-2.996816e+01
-3.132800e+01
5.506717e+00
5.506717e+00
1.733666e+01
1.733666e+01
6.035070e+00
-1.437599e+01
6.035070e+00
-1.437599e+01
1.816084e+01
1.816084e+01
3.557843e+00
3.557843e+00
4.825325e-01
1.175356e+01
4.825325e-01
1.175356e+01
-4.756644e+00
-4.756644e+00
1.267021e+01
1.267021e+01
2.332112e+01
3.559763e+00
2.332112e+01
3.559763e+00
1.942295e+01
1.942295e+01
1.113639e+01
1.113639e+01
8.008797e+00
2.315297e+01
8.008797e+00
2.315297e+01
3.565977e+00
3.565977e+00
7.289795e-01
7.289795e-01
1.758090e+00
3.409891e+00
1.758090e+00
3.409891e+00
-1.010932e-01
-1.010932e-01
-9.198865e-01
-9.198865e-01
-2.087598e-01
8.551906e-01
-2.087598e-01
8.551906e-01
-5.095347e-01
-5.095347e-01
-1.634499e-01
-1.634499e-01
-2.170848e-01
-2.796734e-01
-2.170848e-01
-2.796734e-01
-1.002362e-01
-1.002362e-01
-5.497508e-02
-5.497508e-02
-1.041573e-01
-8.074700e-02
-1.041573e-01
-8.074700e-02
-2.725935e-03
-2.725935e-03
-7.669915e-02
-7.669915e-02
-7.642913e-02
-7.928734e-02
-7.642913e-02
-7.928734e-02
-5.030766e-02
-5.030766e-02
-4.553662e-03
-4.553662e-03
1.117987e-01
3.790569e-02
1.117987e-01
3.790569e-02
1.449505e-02
1.449505e-02
5.437098e-02
5.437098e-02
1.066665e-01
9.942686e-02
1.066665e-01
9.942686e-02
8.247132e-02
8.247132e-02
1.618879e-01
1.618879e-01
2.013653e-01
1.428175e-01
2.013653e-01
1.428175e-01
7.271354e-02
7.271354e-02
-1.031453e-01
-1.031453e-01
-1.497191e-01
4.958085e-02
-1.497191e-01
4.958085e-02
-3.756950e-02
-3.756950e-02
5.716316e-04
5.716316e-04
3.844165e-03
-6.531171e-02
3.844165e-03
-6.531171e-02
1.432389e-03
1.432389e-03
5.853165e-02
5.853165e-02
-1.178257e-01
-5.514010e-02
-1.178257e-01
-5.514010e-02
1.863884e-02
1.863884e-02
-7.751039e-02
-7.751039e-02
-1.506639e-01
-1.213709e-01
-1.506639e-01
-1.213709e-01
-5.456785e-02
-5.456785e-02
1.907577e-01
1.907577e-01
8.080417e-02
-2.541558e-01
8.080417e-02
-2.541558e-01
3.290345e-01
3.290345e-01
7.064940e-01
7.064940e-01
1.713679e+00
7.360310e-01
1.713679e+00
7.360310e-01
2.349261e+00
2.349261e+00
4.263728e+00
4.263728e+00
3.354234e+00
3.415941e+00
3.354234e+00
3.415941e+00
2.542896e+00
2.542896e+00
-3.817355e+00
-3.817355e+00
-8.279511e+00
-1.361552e+00
-8.279511e+00
-1.361552e+00
-1.066664e+01
-1.066664e+01
-2.006449e+01
-2.006449e+01
-2.226967e+01
-1.347556e+01
-2.226967e+01
-1.347556e+01
-4.052238e+01
-4.052238e+01
-5.300375e+01
-5.300375e+01
-8.160829e+01
-5.109368e+01
-8.160829e+01
-5.109368e+01
-5.697173e+01
-5.697173e+01
-2.527398e+01
-2.527398e+01
-4.947790e+01
-9.726406e+01
-4.947790e+01
-9.726406e+01
1.914790e+00
1.914790e+00
2.525560e+01
2.525560e+01
5.632599e+01
3.669717e+00
5.632599e+01
3.669717e+00
5.163179e+01
5.163179e+01
4.474356e+01
4.474356e+01
6.332349e+01
9.579331e+01
6.332349e+01
9.579331e+01
2.587244e+01
2.587244e+01
6.100815e+00
6.100815e+00
8.202837e+00
2.811219e+01
8.202837e+00
2.811219e+01
3.688014e+00
3.688014e+00
1.733133e+00
1.733133e+00
2.183622e+00
4.912461e+00
2.183622e+00
4.912461e+00
8.788331e-01
8.788331e-01
4.048006e-02
4.048006e-02
2.845760e-01
6.114608e-01
2.845760e-01
6.114608e-01
-2.201926e-01
-2.201926e-01
-7.048841e-02
-7.048841e-02
1.842413e-01
-2.114526e-01
1.842413e-01
-2.114526e-01
-6.394792e-02
-6.394792e-02
-5.696990e-02
-5.696990e-02
-4.012499e-02
-4.012499e-02
5.696339e-03
5.696339e-03
7.078002e-02
7.078002e-02
1.375823e-01
1.375823e-01
9.490094e-02
9.490094e-02
2.800627e-03
2.800627e-03
7.270521e-02
7.270521e-02
1.459264e-01
1.459264e-01
3.189190e-02
3.189190e-02
-5.846433e-02
-5.846433e-02
-1.806813e-02
-1.806813e-02
-2.268295e-02
-2.268295e-02
-3.359697e-02
-3.359697e-02
-4.078439e-02
-4.078439e-02
5.131300e-02
5.131300e-02
1.306303e-01
1.306303e-01
1.482877e-01
1.482877e-01
6.159805e-01
6.159805e-01
1.567507e+00
1.567507e+00
2.597320e+00
2.597320e+00
2.344404e+00
2.344404e+00
-1.366913e+00
-1.366913e+00
-7.834827e+00
-7.834827e+00
-1.279222e+01
-1.279222e+01
-1.568144e+01
-1.568144e+01
-2.328521e+01
-2.328521e+01
-5.194918e+01
-5.194918e+01
-8.767680e+01
-8.767680e+01
-1.054962e+02
-1.054962e+02
-5.161396e+01
-5.161396e+01
1.713822e+01
1.713822e+01
7.080556e+01
7.080556e+01
9.823712e+01
9.823712e+01
5.453293e+01
5.453293e+01
1.379646e+01
1.379646e+01
1.161044e+00
1.161044e+00
1.627071e+00
1.627071e+00
6.886867e-01
6.886867e-01
-3.929098e-01
-3.929098e-01
-4.063669e-01
-4.063669e-01
2.747760e-01
1.750073e-01
9.518281e-02
2.921032e-02
-3.136246e-01
-5.705429e-01
4.729931e-01
3.155991e-01
1.575016e-01
8.424721e-02
-2.262032e-01
-4.641028e-01
6.776340e-01
4.614517e-01
1.994086e-01
1.043795e-01
-9.707845e-02
-2.493681e-01
4.429388e-01
3.059614e-01
1.247982e-01
4.878684e-02
-4.102054e-02
-9.900238e-02
1.631436e-01
1.614029e-01
7.119533e-02
-3.755846e-02
-4.958798e-02
-4.133069e-02
-3.411772e-02
5.241264e-02
3.148185e-02
-8.492928e-02
-3.749248e-02
1.889432e-02
-2.777473e-01
-1.490100e-01
-2.113802e-02
-5.935186e-02
1.044021e-02
1.175808e-01
-3.319698e-01
-2.129637e-01
-6.105969e-02
-5.190200e-02
5.196401e-02
1.795703e-01
-2.752471e-01
-1.737992e-01
-6.329488e-02
-2.464875e-02
8.076395e-02
1.565870e-01
-1.429169e-01
-7.677573e-02
-1.309169e-02
-7.634650e-03
3.370861e-02
6.713775e-02
-3.648732e-02
-6.630680e-03
1.173568e-02
-1.771497e-02
-1.353811e-02
8.599110e-03
2.451325e-01
2.313345e-01
2.520232e-01
1.590876e-01
-2.136019e-01
-4.588690e-01
4.876021e-01
3.742790e-01
2.409029e-01
1.292549e-01
-2.010577e-01
-4.397753e-01
7.159695e-01
5.446200e-01
2.448230e-01
6.583349e-02
-1.576447e-01
-3.305808e-01
5.941159e-01
4.687485e-01
1.841352e-01
-6.943346e-03
-1.090605e-01
-1.793449e-01
2.571842e-01
1.709982e-01
1.172998e-02
-8.928088e-02
-1.006895e-01
-8.416950e-02
4.372901e-03
-1.429083e-02
-5.021294e-02
-1.146269e-01
-9.648811e-02
-3.119376e-02
-1.437554e-01
-7.613151e-02
-5.742857e-02
-1.473466e-01
-6.740590e-02
5.353187e-02
-3.288281e-01
-2.427031e-01
-1.776642e-01
-1.821518e-01
-1.739625e-04
1.652054e-01
-3.765199e-01
-2.998412e-01
-1.926335e-01
-1.107913e-01
6.394311e-02
1.873643e-01
-2.422656e-01
-1.638048e-01
-7.590591e-02
-4.142773e-02
4.425450e-02
1.048965e-01
-1.208950e-01
-6.616781e-02
-2.249488e-02
-2.770690e-02
1.214415e-02
4.615293e-02
-9.792670e-02
1.167284e-01
3.340916e-01
2.604536e-01
9.711457e-03
-1.646847e-01
1.098154e-01
1.253464e-01
6.965336e-02
1.529888e-02
-1.152136e-01
-2.625956e-01
7.039257e-01
3.958459e-01
-1.945697e-01
-3.550971e-01
-3.111093e-01
-3.889302e-01
5.920205e-01
3.096643e-01
-2.211803e-01
-3.803345e-01
-3.359278e-01
-3.808552e-01
-9.266471e-02
-4.587525e-02
-1.967704e-02
-1.358707e-01
-2.595844e-01
-2.876957e-01
2.299960e-01
2.379634e-01
2.734067e-01
1.853517e-02
-2.450083e-01
-2.262043e-01
6.290356e-01
4.009608e-01
1.270222e-01
-1.106489e-01
-2.514657e-01
-2.004753e-01
-3.546074e-02
-1.206385e-01
-2.608764e-01
-3.175107e-01
-1.961046e-01
-7.312455e-02
-6.513839e-01
-5.449497e-01
-4.084497e-01
-3.166653e-01
-9.083130e-02
7.328416e-02
-5.197649e-01
-4.031194e-01
-2.513745e-01
-1.611858e-01
-1.244385e-02
8.120862e-02
-3.266859e-01
-2.302595e-01
-1.234853e-01
-7.428340e-02
6.873796e-03
4.917686e-02
-4.906622e-01
-1.222989e-01
2.127114e-01
2.252194e-01
1.572359e-01
4.339119e-02
-1.033176e-01
-1.662697e-01
-3.916874e-01
-2.942307e-01
-4.683043e-02
-5.935254e-02
1.256321e+00
3.594249e-01
-9.899579e-01
-1.031233e+00
-4.729437e-01
-3.258656e-01
6.745719e-01
1.364396e-01
-6.683568e-01
-8.207122e-01
-6.295237e-01
-5.526438e-01
-3.057547e-01
-4.707984e-02
2.318109e-01
-1.213159e-03
-4.198901e-01
-5.853271e-01
-1.831492e-01
2.722583e-01
8.279383e-01
4.536337e-01
-2.515678e-01
-4.821921e-01
2.941290e-01
3.717073e-01
5.759295e-01
2.610446e-01
-2.660252e-01
-3.515664e-01
4.118851e-01
1.790563e-01
-6.947235e-02
-2.174985e-01
-2.806246e-01
-2.114245e-01
-6.853181e-01
-5.708775e-01
-4.411552e-01
-3.614596e-01
-1.783997e-01
-5.975383e-02
-6.490563e-01
-4.732810e-01
-2.455268e-01
-1.530264e-01
-4.267488e-02
2.715499e-02
-3.262236e-01
-2.076436e-01
-6.017599e-02
-2.316459e-02
1.483898e-02
4.471884e-02
-1.890317e+00
-9.751020e-01
2.966288e-01
5.307100e-01
1.873406e-01
-3.359389e-02
-6.853172e-01
-3.751565e-01
-8.195701e-02
5.573760e-02
1.170391e-01
2.368484e-02
6.614677e-01
5.919013e-02
-8.553464e-01
-7.311646e-01
-1.785662e-01
-6.240840e-02
-1.349861e-01
-2.446423e-01
-6.211825e-01
-7.251341e-01
-4.483083e-01
-3.344152e-01
1.365667e-01
5.709080e-02
2.738848e-01
1.745203e-01
-3.912307e-01
-5.613473e-01
4.072119e-01
4.433751e-01
7.109411e-01
4.809899e-01
-2.562025e-01
-5.320409e-01
5.789540e-02
3.026929e-01
3.152339e-01
-3.022339e-02
-1.902134e-01
-2.370026e-01
8.759130e-02
-1.749408e-01
-3.677842e-01
-2.887428e-01
-1.489874e-01
-1.858485e-02
-7.653800e-01
-6.416036e-01
-3.861583e-01
-2.198572e-01
-5.507301e-02
7.507881e-02
-5.554005e-01
-3.401321e-01
-6.797675e-02
1.375856e-02
8.014964e-02
1.216924e-01
-5.258387e-02
3.736852e-02
1.522247e-01
1.559584e-01
1.302070e-01
1.256256e-01
-3.210652e+00
-1.759811e+00
4.271545e-01
8.429237e-01
1.932117e-01
-1.361445e-01
-1.446579e+00
-6.000397e-01
4.344631e-01
5.562717e-01
2.732243e-01
5.633147e-02
-5.361595e-01
-4.365659e-01
-4.101539e-01
-1.373442e-01
1.847473e-01
1.608475e-01
-1.180368e+00
-7.743708e-01
-5.914843e-01
-5.068390e-01
-1.323244e-01
-6.556577e-02
3.480887e-01
-6.400275e-02
9.252894e-02
2.207287e-01
-3.100591e-01
-4.004236e-01
1.597851e+00
8.991546e-01
4.447269e-01
2.361073e-01
-3.438023e-01
-4.708242e-01
7.953674e-01
6.671457e-01
-1.736277e-01
-5.684924e-01
-2.060556e-01
-1.613058e-01
-3.938228e-01
-6.768287e-01
-8.241078e-01
-4.651083e-01
-7.662290e-02
8.858975e-02
-9.850990e-01
-8.054683e-01
-3.849336e-01
-1.531921e-01
1.786861e-02
1.980919e-01
-5.106037e-01
-2.891072e-01
-8.928745e-03
8.641919e-02
1.659609e-01
2.088368e-01
9.921030e-02
1.552103e-01
2.345563e-01
2.473780e-01
2.066571e-01
1.764605e-01
SCALARS S23 float 1
LOOKUP_TABLE default
-7.079891e+00
-3.248923e+00
1.758734e+00
-6.892375e+00
-7.079891e+00
-3.248923e+00
1.758734e+00
-6.892375e+00
1.968483e+00
9.437178e+00
1.968483e+00
9.437178e+00
7.666122e+00
3.926157e+00
7.666122e+00
3.926157e+00
-1.527978e+00
-1.527978e+00
1.369987e+00
1.189992e+00
9.444248e-01
1.141924e+00
1.369987e+00
1.189992e+00
9.444248e-01
1.141924e+00
6.617096e-01
2.849209e-01
6.617096e-01
2.849209e-01
-3.242021e-01
1.858108e-01
-3.242021e-01
1.858108e-01
8.663793e-01
8.663793e-01
1.274859e+00
1.092220e+00
9.464160e-01
1.274859e+00
1.092220e+00
9.464160e-01
6.903564e-01
6.560124e-01
6.903564e-01
6.560124e-01
6.110630e-01
5.437071e-01
6.110630e-01
5.437071e-01
2.393488e-01
2.393488e-01
-1.142851e-01
-1.065789e-01
-7.934836e-03
-1.408861e-01
-1.142851e-01
-1.065789e-01
-7.934836e-03
-1.408861e-01
8.432539e-02
2.332995e-01
8.432539e-02
2.332995e-01
1.256607e-01
7.844433e-02
1.256607e-01
7.844433e-02
-2.137558e-01
-2.137558e-01
5.364586e-01
1.270068e-02
2.827863e-01
8.636350e-01
5.364586e-01
1.270068e-02
2.827863e-01
8.636350e-01
8.933969e-02
8.933969e-02
3.334150e-01
3.334150e-01
6.921474e-02
7.445367e-03
-9.755194e-02
2.408712e-02
6.921474e-02
7.445367e-03
-9.755194e-02
2.408712e-02
-1.456588e-01
-1.456588e-01
6.296769e-02
6.296769e-02
-6.277388e-02
-1.979724e-01
1.043526e-01
1.957166e-01
-6.277388e-02
-1.979724e-01
1.043526e-01
1.957166e-01
-9.496453e-02
3.966652e-02
-9.496453e-02
3.966652e-02
2.007486e-01
1.902271e-01
2.007486e-01
1.902271e-01
1.039379e-01
1.039379e-01
2.775149e-01
3.099682e-01
3.036462e-01
9.264232e-02
2.775149e-01
3.099682e-01
3.036462e-01
9.264232e-02
3.289636e-01
3.527685e-01
3.289636e-01
3.527685e-01
3.754275e-01
3.104057e-01
3.754275e-01
3.104057e-01
8.441035e-02
8.441035e-02
2.461270e+00
4.124868e+00
7.534074e+00
4.950140e+00
2.461270e+00
4.124868e+00
7.534074e+00
4.950140e+00
6.313335e+00
8.443994e+00
6.313335e+00
8.443994e+00
1.706111e+00
2.903371e+00
1.706111e+00
2.903371e+00
1.686604e+00
1.686604e+00
-4.019029e-01
-5.054517e-01
1.123298e+00
-4.019029e-01
-5.054517e-01
1.123298e+00
4.299267e-01
2.881750e-01
4.299267e-01
2.881750e-01
-3.177327e-01
-3.177327e-01
7.924494e-01
7.924494e-01
1.073945e+00
1.180869e+00
1.073945e+00
1.180869e+00
-2.610579e+00
-2.355454e+00
-4.999403e+00
-4.799277e+00
-2.610579e+00
-2.355454e+00
-4.999403e+00
-4.799277e+00
2.623141e-01
2.623141e-01
9.571634e-01
1.133473e+00
3.493830e-01
7.687226e-01
9.571634e-01
1.133473e+00
3.493830e-01
7.687226e-01
-5.853560e-01
-5.853560e-01
-8.443128e-01
-8.443128e-01
1.096287e-01
1.096287e-01
-2.745786e-01
-2.745786e-01
9.446603e-01
9.446603e-01
6.253369e-01
6.253369e-01
1.077184e-01
5.799780e-02
1.077184e-01
5.799780e-02
-6.359448e-01
-6.359448e-01
-5.773651e-01
-3.010687e-01
-5.773651e-01
-3.010687e-01
-3.650064e-01
-3.650064e-01
-4.101710e-01
-9.258080e-02
-4.101710e-01
-9.258080e-02
-4.554841e-01
-1.514723e-01
-4.554841e-01
-1.514723e-01
-4.092889e-01
-4.505511e-01
-4.092889e-01
-4.505511e-01
-7.012064e-01
-7.012064e-01
-4.218470e-01
-4.218470e-01
2.400397e-01
2.147865e-01
2.400397e-01
2.147865e-01
2.991245e-01
2.991245e-01
-1.750545e-01
-2.156823e-01
-1.750545e-01
-2.156823e-01
1.123738e-01
-3.917163e-02
4.144010e-02
1.318339e-01
1.123738e-01
-3.917163e-02
4.144010e-02
1.318339e-01
-1.858723e-01
-1.505499e-01
-1.858723e-01
-1.505499e-01
5.372415e-02
7.918793e-03
5.372415e-02
7.918793e-03
-5.376394e-02
-9.208363e-02
-1.021624e-01
-6.522765e-02
-5.376394e-02
-9.208363e-02
-1.021624e-01
-6.522765e-02
-1.287741e-01
-1.495279e-01
-1.287741e-01
-1.495279e-01
-6.068622e-02
-1.182133e-01
-6.068622e-02
-1.182133e-01
-1.189666e-01
-1.189666e-01
8.359462e-02
2.623304e-01
8.359462e-02
2.623304e-01
1.887725e-01
1.887725e-01
2.020314e-01
2.020314e-01
3.175602e-01
3.864239e-01
3.379183e-01
2.392093e-01
3.175602e-01
3.864239e-01
3.379183e-01
2.392093e-01
2.354158e-01
2.354158e-01
1.919726e-01
1.919726e-01
1.324005e-01
2.395688e-01
2.901295e-01
2.756227e-01
1.324005e-01
2.395688e-01
2.901295e-01
2.756227e-01
2.491964e-01
2.491964e-01
-6.604854e-02
-2.024904e-01
-1.927100e-01
1.093956e-02
-6.604854e-02
-2.024904e-01
-1.927100e-01
1.093956e-02
-1.591703e-01
-1.591703e-01
1.904427e-01
3.146377e-01
1.904427e-01
3.146377e-01
2.143113e-01
6.806628e-01
2.143113e-01
6.806628e-01
3.412798e-01
3.412798e-01
1.621131e-01
1.621131e-01
2.845668e-01
2.845668e-01
2.352419e-01
6.606146e-02
2.352419e-01
6.606146e-02
2.260724e-01
3.310809e-01
2.260724e-01
3.310809e-01
3.274477e-01
3.274477e-01
-2.201925e-01
-7.555583e-02
1.510715e-01
-1.810084e-01
-2.201925e-01
-7.555583e-02
1.510715e-01
-1.810084e-01
2.266142e-02
2.266142e-02
2.034518e-01
2.034518e-01
7.128355e-01
1.373373e+00
3.243441e+00
1.903377e+00
7.128355e-01
1.373373e+00
3.243441e+00
1.903377e+00
-2.455909e-02
-2.455909e-02
-3.598112e-02
-3.598112e-02
1.497274e-01
1.497274e-01
-2.918767e+00
-2.371020e+00
-2.918767e+00
-2.371020e+00
-7.196617e+00
-7.196617e+00
-6.065058e+00
-6.065058e+00
2.245062e-01
9.914927e-01
2.245062e-01
9.914927e-01
-2.227428e-01
-2.227428e-01
-4.032510e-01
-4.032510e-01
-4.891713e-01
-2.436255e-01
-4.891713e-01
-2.436255e-01
-1.317518e-01
-1.417296e-01
-1.317518e-01
-1.417296e-01
-3.477693e+00
-1.346898e+00
-2.862646e+00
-6.996608e+00
-3.477693e+00
-1.346898e+00
-2.862646e+00
-6.996608e+00
-4.725222e-01
-4.725222e-01
-4.835747e-01
-4.835747e-01
-4.468526e+00
-9.555695e+00
-4.468526e+00
-9.555695e+00
9.841211e+00
8.248112e+00
9.841211e+00
8.248112e+00
2.584472e-01
2.584472e-01
1.540075e-01
1.540075e-01
1.736817e-01
1.666276e-01
1.736817e-01
1.666276e-01
1.463321e-01
1.463321e-01
1.220149e-01
1.377909e-01
1.220149e-01
1.377909e-01
7.488329e-02
7.488329e-02
1.184725e-01
1.184725e-01
1.668353e-02
1.668353e-02
9.576702e-02
9.931469e-02
9.576702e-02
9.931469e-02
-1.298376e-01
-1.298376e-01
-1.566381e-01
-1.566381e-01
6.922276e-02
1.104568e-01
6.922276e-02
1.104568e-01
-8.990497e-02
-8.990497e-02
-5.438756e-02
-5.438756e-02
-3.918184e-04
1.684368e-02
-3.918184e-04
1.684368e-02
-6.375697e-02
-6.375697e-02
-7.125863e-02
-7.125863e-02
-3.326645e-02
-1.977248e-02
-3.326645e-02
-1.977248e-02
9.706948e-02
8.068137e-02
9.706948e-02
8.068137e-02
1.318935e-01
1.318935e-01
1.229826e-01
9.456722e-02
1.229826e-01
9.456722e-02
9.473135e-02
9.473135e-02
1.299769e-01
1.299769e-01
1.036434e-01
1.036434e-01
8.432536e-02
1.026655e-01
8.432536e-02
1.026655e-01
1.038822e-01
1.038822e-01
9.165069e-02
9.165069e-02
5.106383e-02
7.523352e-02
5.106383e-02
7.523352e-02
6.790108e-02
6.790108e-02
4.111772e-02
4.111772e-02
4.012712e-02
5.345491e-02
4.012712e-02
5.345491e-02
1.939484e-02
1.939484e-02
7.754320e-03
7.754320e-03
1.552718e-02
2.200754e-02
1.552718e-02
2.200754e-02
9.461411e-02
1.001075e-01
9.461411e-02
1.001075e-01
9.435829e-02
9.435829e-02
7.450143e-02
7.439504e-02
7.450143e-02
7.439504e-02
7.856642e-02
7.856642e-02
8.737090e-02
8.737090e-02
7.800434e-02
7.800434e-02
7.753396e-02
9.176347e-02
7.753396e-02
9.176347e-02
5.643944e-02
5.643944e-02
4.095745e-02
4.095745e-02
3.720156e-02
3.924629e-02
3.720156e-02
3.924629e-02
4.065922e-02
4.065922e-02
2.564104e-02
2.564104e-02
2.149422e-02
3.533281e-02
2.149422e-02
3.533281e-02
9.542592e-03
9.542592e-03
5.193218e-03
5.193218e-03
4.445300e-03
9.087678e-03
4.445300e-03
9.087678e-03
6.553041e-02
6.405369e-02
6.553041e-02
6.405369e-02
5.945929e-02
5.945929e-02
4.374004e-02
5.429178e-02
4.374004e-02
5.429178e-02
5.095434e-02
5.095434e-02
7.461496e-02
7.461496e-02
5.725966e-02
5.725966e-02
4.837268e-02
5.447453e-02
4.837268e-02
5.447453e-02
2.107317e-02
2.107317e-02
3.100467e-02
3.100467e-02
3.161098e-02
2.704761e-02
3.161098e-02
2.704761e-02
3.273078e-02
3.273078e-02
2.400651e-02
2.400651e-02
2.045608e-02
2.433543e-02
2.045608e-02
2.433543e-02
1.740827e-02
1.740827e-02
1.384468e-02
1.384468e-02
1.101431e-02
1.708065e-02
1.101431e-02
1.708065e-02
4.169160e-02
3.760096e-02
4.169160e-02
3.760096e-02
2.272879e-02
2.272879e-02
-6.619045e-04
3.425193e-02
-6.619045e-04
3.425193e-02
2.356130e-02
2.356130e-02
1.663508e-02
1.663508e-02
3.812085e-02
3.812085e-02
1.902980e-02
-2.466217e-02
1.902980e-02
-2.466217e-02
3.781447e-02
3.781447e-02
2.475776e-02
2.475776e-02
8.149907e-03
2.588169e-02
8.149907e-03
2.588169e-02
1.851352e-02
1.851352e-02
1.487977e-02
1.487977e-02
1.305643e-02
1.626147e-02
1.305643e-02
1.626147e-02
1.004239e-02
1.004239e-02
6.286659e-03
6.286659e-03
5.861025e-03
7.780027e-03
5.861025e-03
7.780027e-03
2.906727e-02
2.302098e-02
2.906727e-02
2.302098e-02
-4.975548e-03
-4.975548e-03
-3.482730e-03
2.630344e-02
-3.482730e-03
2.630344e-02
2.184015e-02
2.184015e-02
-3.394712e-02
-3.394712e-02
5.475715e-03
5.475715e-03
-1.643335e-02
-3.961398e-02
-1.643335e-02
-3.961398e-02
1.709854e-02
1.709854e-02
8.656038e-04
8.656038e-04
6.429124e-03
1.220755e-02
6.429124e-03
1.220755e-02
1.117732e-02
1.117732e-02
1.213049e-02
1.213049e-02
2.851246e-03
1.516468e-03
2.851246e-03
1.516468e-03
6.801874e-03
6.801874e-03
3.048604e-03
3.048604e-03
1.733492e-03
3.038058e-03
1.733492e-03
3.038058e-03
2.362010e-02
1.651818e-02
2.362010e-02
1.651818e-02
2.524442e-03
2.524442e-03
1.328347e-03
2.223532e-02
1.328347e-03
2.223532e-02
3.071093e-02
3.071093e-02
-4.858838e-02
-4.858838e-02
-2.683751e-02
-2.683751e-02
-1.050533e-02
-5.411119e-02
-1.050533e-02
-5.411119e-02
1.600926e-02
1.600926e-02
3.779096e-03
3.779096e-03
5.886930e-03
4.343162e-02
5.886930e-03
4.343162e-02
-4.285973e-03
-4.285973e-03
-4.104333e-03
-4.104333e-03
-2.628104e-03
-5.025659e-03
-2.628104e-03
-5.025659e-03
-1.585273e-03
-1.585273e-03
-2.488027e-03
-2.488027e-03
-1.435614e-03
-1.520425e-03
-1.435614e-03
-1.520425e-03
1.245095e-02
2.620211e-02
1.245095e-02
2.620211e-02
-2.510455e-02
-2.510455e-02
-3.752793e-02
-4.782994e-03
-3.752793e-02
-4.782994e-03
-1.268974e-02
-1.268974e-02
-6.116766e-02
-6.116766e-02
-3.267377e-03
-3.267377e-03
-3.675519e-03
-3.322031e-02
-3.675519e-03
-3.322031e-02
3.957861e-02
3.957861e-02
9.071942e-03
9.071942e-03
-9.917988e-03
-1.288792e-02
-9.917988e-03
-1.288792e-02
-3.854577e-03
-3.854577e-03
6.560954e-04
6.560954e-04
3.037867e-03
-2.653037e-03
3.037867e-03
-2.653037e-03
3.564375e-03
3.564375e-03
3.527679e-03
3.527679e-03
2.862568e-03
5.546244e-03
2.862568e-03
5.546244e-03
-1.132275e-02
-3.078736e-02
-1.132275e-02
-3.078736e-02
-3.364406e-02
-3.364406e-02
-2.003834e-02
-7.676032e-03
-2.003834e-02
-7.676032e-03
-1.563634e-02
-1.563634e-02
-1.118444e-02
-1.118444e-02
-5.317530e-03
-5.317530e-03
-3.106930e-03
-6.312900e-03
-3.106930e-03
-6.312900e-03
-4.443103e-02
-4.443103e-02
-2.248853e-02
-2.248853e-02
-1.107599e-02
-2.595989e-02
-1.107599e-02
-2.595989e-02
-1.580590e-03
-1.580590e-03
4.173882e-03
4.173882e-03
6.184356e-03
3.367298e-03
6.184356e-03
3.367298e-03
6.596962e-03
6.596962e-03
3.413786e-03
3.413786e-03
4.637421e-03
6.361924e-03
4.637421e-03
6.361924e-03
2.582446e-03
8.036497e-03
2.582446e-03
8.036497e-03
2.048242e-02
2.048242e-02
6.081844e-02
1.879812e-02
6.081844e-02
1.879812e-02
2.370655e-02
2.370655e-02
3.301561e-02
3.301561e-02
1.073053e-02
1.073053e-02
1.421908e-02
6.216541e-02
1.421908e-02
6.216541e-02
-8.954325e-03
-8.954325e-03
-1.557028e-03
-1.557028e-03
3.968190e-03
3.299850e-03
3.968190e-03
3.299850e-03
6.976070e-03
6.976070e-03
5.405264e-03
5.405264e-03
2.918397e-03
5.950263e-03
2.918397e-03
5.950263e-03
3.746100e-03
3.746100e-03
2.289628e-03
2.289628e-03
-1.263200e-03
-4.241681e-04
-1.263200e-03
-4.241681e-04
2.075864e-02
2.457148e-02
2.075864e-02
2.457148e-02
7.596744e-02
7.596744e-02
6.684446e-02
1.423446e-02
6.684446e-02
1.423446e-02
2.042391e-02
2.042391e-02
7.554288e-02
7.554288e-02
2.467201e-02
2.467201e-02
2.984849e-02
7.275671e-02
2.984849e-02
7.275671e-02
2.336252e-02
2.336252e-02
1.266310e-02
1.266310e-02
1.355011e-02
2.516050e-02
1.355011e-02
2.516050e-02
6.091543e-03
6.091543e-03
2.968879e-03
2.968879e-03
3.367355e-03
8.424414e-03
3.367355e-03
8.424414e-03
-5.900075e-04
-5.900075e-04
2.693002e-04
2.693002e-04
-1.735259e-03
-2.072714e-03
-1.735259e-03
-2.072714e-03
1.116388e-02
2.066912e-02
1.116388e-02
2.066912e-02
3.859984e-02
3.859984e-02
3.888321e-03
3.309386e-03
3.888321e-03
3.309386e-03
1.603006e-02
1.603006e-02
3.916870e-02
3.916870e-02
1.233794e-02
1.233794e-02
-5.272350e-03
9.024436e-04
-5.272350e-03
9.024436e-04
1.527130e-02
1.527130e-02
8.271651e-03
8.271651e-03
-1.999851e-03
2.493007e-03
-1.999851e-03
2.493007e-03
9.847381e-05
9.847381e-05
-4.952710e-03
-4.952710e-03
-1.103713e-02
-1.050841e-02
-1.103713e-02
-1.050841e-02
-8.854135e-03
-8.854135e-03
-5.844168e-03
-5.844168e-03
-7.480154e-03
-1.135499e-02
-7.480154e-03
-1.135499e-02
-6.100643e-03
3.556362e-03
-6.100643e-03
3.556362e-03
-1.463705e-02
-1.463705e-02
-1.201674e-02
-8.272487e-03
-1.201674e-02
-8.272487e-03
-2.762163e-03
-2.762163e-03
-1.752919e-02
-1.752919e-02
-1.041943e-02
-1.041943e-02
-7.156285e-03
-1.326362e-02
-7.156285e-03
-1.326362e-02
-1.569024e-03
-1.569024e-03
-4.520828e-03
-4.520828e-03
1.244401e-03
3.715081e-05
1.244401e-03
3.715081e-05
-9.984535e-03
-9.984535e-03
-8.678661e-03
-8.678661e-03
-1.723687e-03
-3.243267e-04
-1.723687e-03
-3.243267e-04
-7.603018e-03
-7.603018e-03
-5.638988e-03
-5.638988e-03
-2.080041e-03
-2.485448e-03
-2.080041e-03
-2.485448e-03
-6.407878e-03
-7.397771e-03
-6.407878e-03
-7.397771e-03
-6.019514e-03
-6.019514e-03
-3.829510e-03
-6.419546e-03
-3.829510e-03
-6.419546e-03
-1.171067e-02
-1.171067e-02
-7.402972e-03
-7.402972e-03
-6.567988e-03
-6.567988e-03
-6.396292e-03
-5.438310e-03
-6.396292e-03
-5.438310e-03
-1.437784e-03
-1.437784e-03
2.135049e-03
2.135049e-03
1.552716e-03
-7.134236e-04
1.552716e-03
-7.134236e-04
3.241804e-03
3.241804e-03
1.153103e-03
1.153103e-03
-1.879321e-03
-9.806524e-04
-1.879321e-03
-9.806524e-04
-8.877422e-04
-8.877422e-04
-1.288416e-03
-1.288416e-03
-1.707880e-04
-5.566434e-04
-1.707880e-04
-5.566434e-04
4.168522e-02
3.093841e-02
5.224831e-02
8.055288e-02
4.168522e-02
3.093841e-02
5.224831e-02
8.055288e-02
2.195740e-02
2.883520e-02
2.195740e-02
2.883520e-02
5.204139e-02
7.714983e-02
5.204139e-02
7.714983e-02
9.097566e-02
9.097566e-02
1.020430e-02
1.187024e-03
1.020430e-02
1.187024e-03
3.613408e-03
-1.524472e-02
3.613408e-03
-1.524472e-02
7.080447e-04
1.217301e-02
7.080447e-04
1.217301e-02
-1.185861e-02
-3.793918e-02
-1.185861e-02
-3.793918e-02
-1.367096e-02
-1.367096e-02
7.326075e-02
7.119826e-03
7.326075e-02
7.119826e-03
4.968250e-02
4.968250e-02
4.928999e-02
8.588561e-02
4.928999e-02
8.588561e-02
-1.120065e-02
-1.120065e-02
1.132143e-02
1.132143e-02
1.615576e-03
1.615576e-03
-3.032081e-03
1.491568e-02
-3.032081e-03
1.491568e-02
6.173707e-03
6.173707e-03
3.199773e-03
3.199773e-03
9.951100e-02
5.056594e-02
9.951100e-02
5.056594e-02
6.933277e-02
6.933277e-02
7.946889e-02
9.435062e-02
7.946889e-02
9.435062e-02
7.964091e-02
7.964091e-02
2.095734e-02
2.095734e-02
-7.673477e-04
-7.673477e-04
-5.810440e-03
1.731251e-02
-5.810440e-03
1.731251e-02
4.020933e-04
4.020933e-04
-2.052333e-03
-2.052333e-03
5.114495e-02
8.428430e-02
5.114495e-02
8.428430e-02
4.308266e-02
4.308266e-02
2.487597e-03
-1.011067e-03
2.487597e-03
-1.011067e-03
6.204547e-03
6.204547e-03
8.098317e-03
8.098317e-03
-3.359189e-03
-3.359189e-03
1.179552e-02
1.111689e-02
1.179552e-02
1.111689e-02
8.011087e-03
8.011087e-03
2.017969e-02
2.017969e-02
8.101414e-03
-9.553061e-03
8.101414e-03
-9.553061e-03
-3.214100e-03
-3.214100e-03
1.781626e-02
4.075444e-02
1.781626e-02
4.075444e-02
-1.291811e-02
-1.291811e-02
1.716647e-02
1.716647e-02
1.746102e-02
1.746102e-02
1.056339e-02
7.246254e-03
1.056339e-02
7.246254e-03
1.276727e-02
1.276727e-02
3.449371e-03
3.449371e-03
3.244214e-02
-9.126359e-02
3.244214e-02
-9.126359e-02
2.977255e-02
2.977255e-02
2.517380e-02
1.649099e-02
2.517380e-02
1.649099e-02
-1.149572e-01
-1.149572e-01
-9.833842e-04
-9.833842e-04
2.564179e-03
2.564179e-03
-2.544702e-04
-7.534715e-04
-2.544702e-04
-7.534715e-04
-6.007920e-03
-6.007920e-03
-1.073326e-02
-1.073326e-02
8.712263e-02
2.534426e-02
8.712263e-02
2.534426e-02
1.084162e-01
1.084162e-01
6.324697e-02
1.902331e-01
6.324697e-02
1.902331e-01
2.530217e-02
2.530217e-02
9.429301e-02
9.429301e-02
7.360852e-02
7.360852e-02
6.516789e-02
9.739699e-02
6.516789e-02
9.739699e-02
5.485667e-02
5.485667e-02
4.893151e-02
4.893151e-02
4.295608e-02
4.321301e-02
4.295608e-02
4.321301e-02
2.379946e-02
2.379946e-02
7.381592e-03
7.381592e-03
2.285406e-02
2.226806e-02
2.285406e-02
2.226806e-02
1.519673e-02
1.519673e-02
1.105196e-02
1.105196e-02
2.347042e-02
3.216891e-02
2.347042e-02
3.216891e-02
1.558893e-02
1.558893e-02
3.164668e-02
3.164668e-02
2.124676e-02
2.740104e-02
2.124676e-02
2.740104e-02
3.107592e-02
3.107592e-02
2.205602e-02
2.205602e-02
-2.670694e-01
-2.826026e-01
-2.670694e-01
-2.826026e-01
1.840740e-01
1.840740e-01
1.826963e-01
-1.925474e-02
1.826963e-01
-1.925474e-02
1.762366e-01
1.762366e-01
9.311827e-02
9.311827e-02
7.276940e-02
7.276940e-02
6.412985e-02
8.290768e-02
6.412985e-02
8.290768e-02
6.164598e-02
6.164598e-02
7.046163e-02
7.046163e-02
1.155348e-01
1.120613e-01
1.155348e-01
1.120613e-01
5.309692e-02
5.309692e-02
5.342456e-02
5.342456e-02
1.422233e-02
3.317021e-02
1.422233e-02
3.317021e-02
5.684012e-02
5.684012e-02
5.152879e-02
5.152879e-02
5.354877e-02
3.958687e-02
5.354877e-02
3.958687e-02
3.891993e-02
3.891993e-02
2.241470e-02
2.241470e-02
5.720012e-02
4.666539e-02
5.720012e-02
4.666539e-02
2.162139e-02
2.162139e-02
5.175887e-02
5.175887e-02
5.619769e-02
5.619769e-02
8.103105e-03
8.103105e-03
3.704976e-02
6.384921e-02
3.704976e-02
6.384921e-02
5.372799e-02
5.372799e-02
1.009458e-01
1.009458e-01
3.422775e-02
2.893436e-02
3.422775e-02
2.893436e-02
-2.371386e-02
-2.371386e-02
-2.641311e-02
-2.641311e-02
-2.194200e-03
-4.774640e-02
-2.194200e-03
-4.774640e-02
7.288890e-03
7.288890e-03
-2.006065e-03
-2.006065e-03
-1.390759e-02
1.082393e-01
-1.390759e-02
1.082393e-01
8.248767e-02
8.248767e-02
-5.645020e-02
-5.645020e-02
-1.518979e-01
-1.922726e-02
-1.518979e-01
-1.922726e-02
-3.986786e-03
-3.986786e-03
-1.634903e-01
-1.634903e-01
-7.697247e-02
-2.807078e-02
-7.697247e-02
-2.807078e-02
1.619499e-01
1.619499e-01
-2.434105e-01
-2.434105e-01
-3.022464e-01
4.204807e-01
-3.022464e-01
4.204807e-01
-5.908269e-02
9.888348e-02
-5.908269e-02
9.888348e-02
1.225343e-02
-8.403840e-02
1.225343e-02
-8.403840e-02
8.657985e-02
1.035242e-01
8.657985e-02
1.035242e-01
-1.706561e-02
-1.490967e-02
-4.502361e-03
1.947341e-02
-1.706561e-02
-1.490967e-02
-4.502361e-03
1.947341e-02
4.300597e-02
-3.184523e-02
4.300597e-02
-3.184523e-02
-3.942815e-02
-6.531361e-06
-3.942815e-02
-6.531361e-06
3.919540e-02
3.919540e-02
7.669644e-03
1.607807e-02
3.212198e-03
-1.834096e-03
7.669644e-03
1.607807e-02
3.212198e-03
-1.834096e-03
1.767162e-02
1.781425e-02
1.767162e-02
1.781425e-02
1.043720e-02
4.497900e-03
1.043720e-02
4.497900e-03
5.221585e-03
5.221585e-03
-2.295394e-01
-1.628957e-01
-1.100459e-01
-5.192666e-02
-2.295394e-01
-1.628957e-01
-1.100459e-01
-5.192666e-02
-7.785953e-02
-8.335506e-02
-7.785953e-02
-8.335506e-02
-5.586802e-02
-1.067994e-01
-5.586802e-02
-1.067994e-01
2.225034e-02
2.225034e-02
-1.520723e-02
-1.671065e-02
6.257485e-02
-1.520723e-02
-1.671065e-02
6.257485e-02
-6.832966e-02
-7.387057e-02
-6.832966e-02
-7.387057e-02
-1.450191e-01
-1.349556e-01
-1.450191e-01
-1.349556e-01
-4.319704e-02
-4.319704e-02
-2.998170e-01
-1.310800e-01
-2.656457e-01
-2.606991e-01
-2.998170e-01
-1.310800e-01
-2.656457e-01
-2.606991e-01
-1.470201e-01
-1.470201e-01
-1.688173e-01
-1.688173e-01
-2.552123e-02
9.032405e-02
-1.934228e-01
-7.102894e-02
-2.552123e-02
9.032405e-02
-1.934228e-01
-7.102894e-02
1.145480e-01
-1.678153e-01
1.145480e-01
-1.678153e-01
-2.650053e-01
-6.186511e-02
-2.650053e-01
-6.186511e-02
6.112317e-02
6.112317e-02
-2.600129e-01
-4.598323e-01
-6.080989e-01
-5.117534e-01
-2.600129e-01
-4.598323e-01
-6.080989e-01
-5.117534e-01
-2.715624e-01
-2.715624e-01
-3.874337e-01
-3.874337e-01
-1.951363e-01
-1.951363e-01
-3.781958e-02
-2.740747e-02
-3.781958e-02
-2.740747e-02
1.573436e-02
1.573436e-02
3.016338e-03
9.798070e-03
3.016338e-03
9.798070e-03
1.324324e-02
1.324324e-02
-5.895693e-03
1.811657e-03
-1.757876e-02
-2.362230e-02
-5.895693e-03
1.811657e-03
-1.757876e-02
-2.362230e-02
2.766872e-02
2.766872e-02
2.081614e-02
-2.563988e-02
2.081614e-02
-2.563988e-02
-2.323319e-02
-2.323319e-02
-5.327904e-04
7.583283e-03
1.114654e-02
2.030247e-03
-5.327904e-04
7.583283e-03
1.114654e-02
2.030247e-03
2.045934e-03
2.914703e-03
2.045934e-03
2.914703e-03
7.087818e-05
7.087818e-05
2.605903e-03
6.619474e-04
2.605903e-03
6.619474e-04
-3.090509e-03
-3.090509e-03
1.589523e-01
-1.537610e-01
-1.295762e-01
-3.620565e-01
1.589523e-01
-1.537610e-01
-1.295762e-01
-3.620565e-01
1.230365e-02
1.230365e-02
-6.399772e-01
-6.399772e-01
-3.675997e-01
-2.185577e-01
-3.675997e-01
-2.185577e-01
-2.197801e-01
-2.197801e-01
-3.769659e-01
-3.811317e-01
-3.769659e-01
-3.811317e-01
1.346148e-02
-1.882533e-02
1.020157e-02
1.346148e-02
-1.882533e-02
1.020157e-02
-2.561262e-02
-2.561262e-02
4.878478e-02
4.878478e-02
-6.729206e-02
-1.354475e-01
-2.120735e-02
-9.547118e-02
-6.729206e-02
-1.354475e-01
-2.120735e-02
-9.547118e-02
-4.683194e-02
3.600737e-02
-4.683194e-02
3.600737e-02
-1.328265e-02
-1.328265e-02
-1.412773e-01
-1.412773e-01
-4.553465e-02
9.155364e-02
2.123784e-01
-9.628697e-02
-4.553465e-02
9.155364e-02
2.123784e-01
-9.628697e-02
1.035668e-01
1.724038e-01
1.035668e-01
1.724038e-01
3.098489e-01
3.132426e-01
3.098489e-01
3.132426e-01
5.736056e-02
5.736056e-02
8.092553e-02
9.586340e-02
2.267117e-01
1.232416e-01
8.092553e-02
9.586340e-02
2.267117e-01
1.232416e-01
2.417316e-01
2.417316e-01
1.978008e-01
1.978008e-01
1.988249e-02
1.988249e-02
3.430084e-02
3.430084e-02
8.579815e-02
6.650584e-02
8.579815e-02
6.650584e-02
5.318762e-01
4.746914e-01
9.537212e-01
1.139650e+00
5.318762e-01
4.746914e-01
9.537212e-01
1.139650e+00
3.380513e-01
6.150200e-01
3.380513e-01
6.150200e-01
7.141941e-01
1.069387e+00
7.141941e-01
1.069387e+00
8.602562e-01
8.602562e-01
3.391629e-02
2.561121e-02
3.391629e-02
2.561121e-02
6.410862e-02
6.410862e-02
-2.982846e-01
-1.168133e-01
-2.982846e-01
-1.168133e-01
-1.076364e-01
-1.076364e-01
1.064559e-01
3.009722e-01
1.064559e-01
3.009722e-01
5.028388e-02
5.028388e-02
1.780858e-01
1.780858e-01
2.470260e-02
2.470260e-02
6.778962e-01
3.869054e-01
6.778962e-01
3.869054e-01
5.820533e-02
5.820533e-02
-5.898083e-02
-1.936396e-01
-5.898083e-02
-1.936396e-01
1.060303e-01
6.717850e-02
1.060303e-01
6.717850e-02
-5.748701e-03
-2.767996e-03
1.323670e-01
7.469067e-02
-5.748701e-03
-2.767996e-03
1.323670e-01
7.469067e-02
-1.809163e-02
6.497600e-03
-1.809163e-02
6.497600e-03
-1.391453e-02
-1.391453e-02
-2.468256e-02
-1.625407e-02
-2.468256e-02
-1.625407e-02
-2.032386e-02
-2.032386e-02
-2.990457e-02
-2.990457e-02
-2.978073e-02
-2.978073e-02
9.376378e-02
-3.327446e-02
9.376378e-02
-3.327446e-02
1.712767e-02
-3.961109e-02
1.712767e-02
-3.961109e-02
-1.997180e-01
-1.997180e-01
1.348311e-01
1.348311e-01
2.401599e-02
2.401599e-02
2.358800e-03
2.358800e-03
3.302700e-02
3.302700e-02
-1.838493e-03
-1.838493e-03
-1.327530e-02
2.408035e-02
-1.327530e-02
2.408035e-02
4.450910e-01
2.431184e-01
4.450910e-01
2.431184e-01
3.418552e-01
3.418552e-01
1.587034e-01
1.587034e-01
3.195237e-01
3.195237e-01
4.556042e-01
4.556042e-01
2.241447e-02
3.037058e-02
2.241447e-02
3.037058e-02
1.007054e-02
1.007054e-02
9.423036e-03
5.197776e-03
9.423036e-03
5.197776e-03
4.249594e-03
4.249594e-03
-4.283306e-02
-3.111369e-02
-4.283306e-02
-3.111369e-02
-1.814137e-02
-1.657680e-02
-1.814137e-02
-1.657680e-02
-3.643617e-02
-3.413408e-02
-3.643617e-02
-3.413408e-02
7.685479e-03
-1.223027e-02
7.685479e-03
-1.223027e-02
-1.184123e-03
-4.382684e-03
-1.184123e-03
-4.382684e-03
-4.888358e-03
-2.124178e-02
-4.888358e-03
-2.124178e-02
-1.315489e-02
-2.762198e-04
-1.315489e-02
-2.762198e-04
-1.798144e-02
-5.976771e-03
-1.798144e-02
-5.976771e-03
-8.205922e-03
-1.658729e-02
-8.205922e-03
-1.658729e-02
-1.631728e-02
-7.345602e-03
-1.631728e-02
-7.345602e-03
7.710069e-03
-4.377888e-03
7.710069e-03
-4.377888e-03
5.484961e-03
7.513230e-03
5.484961e-03
7.513230e-03
1.324984e-02
-4.348837e-03
1.324984e-02
-4.348837e-03
-4.520909e-03
-2.649554e-03
-4.520909e-03
-2.649554e-03
1.355482e-02
1.428769e-02
1.355482e-02
1.428769e-02
-1.065799e-02
-1.781491e-03
-1.065799e-02
-1.781491e-03
6.532057e-03
-1.706968e-03
6.532057e-03
-1.706968e-03
-1.341336e-02
-3.733047e-03
-1.341336e-02
-3.733047e-03
7.010350e-03
-2.320989e-03
7.010350e-03
-2.320989e-03
2.435879e-03
-1.616315e-03
2.435879e-03
-1.616315e-03
1.515699e-02
-4.828399e-03
1.515699e-02
-4.828399e-03
9.970803e-03
1.215066e-03
9.970803e-03
1.215066e-03
-3.481325e-04
2.102734e-04
-3.481325e-04
2.102734e-04
-9.565985e-03
1.193376e-02
-9.565985e-03
1.193376e-02
2.053919e-05
-3.451422e-04
2.053919e-05
-3.451422e-04
2.077931e-03
-5.713614e-04
2.077931e-03
-5.713614e-04
1.948929e-02
-4.532917e-03
1.948929e-02
-4.532917e-03
-1.077166e-02
-3.106427e-04
-1.077166e-02
-3.106427e-04
-1.007046e-02
5.361429e-04
-1.007046e-02
5.361429e-04
-6.045964e-03
1.886241e-02
-6.045964e-03
1.886241e-02
1.895469e-03
-6.532688e-04
1.895469e-03
-6.532688e-04
8.871893e-03
-1.508893e-03
8.871893e-03
-1.508893e-03
-5.636032e-03
-1.836304e-02
-5.636032e-03
-1.836304e-02
4.641123e-03
-5.786361e-04
4.641123e-03
-5.786361e-04
-3.236624e-03
-4.742791e-05
-3.236624e-03
-4.742791e-05
-8.237529e-03
-2.329915e-03
-8.237529e-03
-2.329915e-03
-4.325897e-03
4.297749e-04
-4.325897e-03
4.297749e-04
-1.193810e-03
7.753021e-04
-1.193810e-03
7.753021e-04
-8.965697e-04
-2.864046e-03
-8.965697e-04
-2.864046e-03
4.537565e-03
-4.460646e-05
4.537565e-03
-4.460646e-05
9.328788e-03
-2.745832e-04
9.328788e-03
-2.745832e-04
3.838479e-04
-1.099269e-03
3.838479e-04
-1.099269e-03
-3.014493e-02
-3.014493e-02
-3.421043e-02
-3.421043e-02
-9.225584e-03
-1.293992e-02
-9.225584e-03
-1.293992e-02
-1.150249e-02
-1.150249e-02
-5.056283e-03
-5.056283e-03
-5.816096e-03
5.483003e-04
-5.816096e-03
5.483003e-04
-7.724448e-03
-7.724448e-03
1.338856e-02
1.338856e-02
1.555231e-02
-5.318978e-03
1.555231e-02
-5.318978e-03
1.736208e-02
1.736208e-02
-2.971134e-03
-2.971134e-03
-6.647311e-03
1.063538e-02
-6.647311e-03
1.063538e-02
1.013832e-02
1.013832e-02
2.141253e-02
2.141253e-02
2.838377e-03
-7.057653e-03
2.838377e-03
-7.057653e-03
-1.230979e-02
-1.230979e-02
-3.077928e-02
-3.077928e-02
-2.347107e-02
-4.502152e-03
-2.347107e-02
-4.502152e-03
-1.251701e-02
-1.251701e-02
7.800562e-03
7.800562e-03
9.268636e-03
-1.185933e-02
9.268636e-03
-1.185933e-02
1.571362e-03
1.571362e-03
-1.763259e-02
-1.763259e-02
-1.018255e-02
4.801285e-03
-1.018255e-02
4.801285e-03
-9.732839e-03
-9.732839e-03
2.440041e-02
2.440041e-02
1.256423e-02
-3.172643e-03
1.256423e-02
-3.172643e-03
3.163635e-02
3.163635e-02
-1.161557e-02
-1.161557e-02
-1.733769e-02
3.114684e-03
-1.733769e-02
3.114684e-03
-2.656124e-02
-2.656124e-02
-1.122599e-03
-1.122599e-03
3.350835e-03
-1.224822e-02
3.350835e-03
-1.224822e-02
-7.819006e-03
-7.819006e-03
-1.244810e-02
-1.244810e-02
-8.919350e-03
-7.992409e-03
-8.919350e-03
-7.992409e-03
2.502849e-03
2.502849e-03
8.893415e-04
8.893415e-04
2.563411e-03
4.375645e-03
2.563411e-03
4.375645e-03
-2.217201e-03
-2.217201e-03
-5.901297e-04
-5.901297e-04
-1.508760e-03
-8.674614e-04
-1.508760e-03
-8.674614e-04
-1.063325e-02
-1.063325e-02
-8.570444e-03
-8.570444e-03
-8.541070e-03
-1.419924e-02
-8.541070e-03
-1.419924e-02
-1.185944e-03
-1.185944e-03
-4.864907e-03
-4.864907e-03
-4.833544e-03
2.726766e-03
-4.833544e-03
2.726766e-03
-1.553723e-02
-1.553723e-02
2.080036e-04
2.080036e-04
3.750511e-03
-4.701485e-03
3.750511e-03
-4.701485e-03
-6.892550e-03
-6.892550e-03
-6.103123e-03
-6.103123e-03
-1.298362e-02
-1.359781e-02
-1.298362e-02
-1.359781e-02
-7.618772e-03
-7.618772e-03
-1.118381e-02
-1.118381e-02
-7.415624e-03
-6.657479e-03
-7.415624e-03
-6.657479e-03
1.049524e-02
1.049524e-02
-2.120514e-03
-2.120514e-03
4.808265e-03
6.800835e-03
4.808265e-03
6.800835e-03
-4.715017e-03
-4.715017e-03
1.577396e-02
1.577396e-02
-4.030857e-03
-2.718744e-03
-4.030857e-03
-2.718744e-03
1.329253e-02
1.329253e-02
-2.380769e-04
-2.380769e-04
2.745521e-03
-3.252851e-03
2.745521e-03
-3.252851e-03
1.032737e-02
1.032737e-02
1.439827e-02
1.439827e-02
9.340287e-03
1.078036e-02
9.340287e-03
1.078036e-02
-1.400745e-02
-1.400745e-02
-1.325922e-02
-1.325922e-02
-8.669693e-04
-3.054142e-03
-8.669693e-04
-3.054142e-03
-1.759415e-03
-1.759415e-03
-6.040723e-03
-6.040723e-03
-7.506316e-03
2.548337e-03
-7.506316e-03
2.548337e-03
-7.707067e-03
-7.707067e-03
-4.478146e-03
-4.478146e-03
1.436998e-03
-6.973265e-03
1.436998e-03
-6.973265e-03
-1.038238e-03
-1.038238e-03
-4.185699e-05
-4.185699e-05
-1.422616e-03
4.975157e-04
-1.422616e-03
4.975157e-04
5.491419e-04
5.491419e-04
-9.537997e-04
-9.537997e-04
5.070039e-04
3.068381e-04
5.070039e-04
3.068381e-04
-1.130578e-02
-1.130578e-02
-7.618263e-03
-7.618263e-03
-3.385672e-03
-6.232373e-03
-3.385672e-03
-6.232373e-03
8.971808e-04
8.971808e-04
-5.868631e-03
-5.868631e-03
-4.297996e-03
-2.740452e-04
-4.297996e-03
-2.740452e-04
-7.073947e-03
-7.073947e-03
-1.056709e-03
-1.056709e-03
-2.672373e-03
-5.981191e-03
-2.672373e-03
-5.981191e-03
-4.892229e-03
-4.892229e-03
-4.921935e-03
-4.921935e-03
-3.730910e-03
-3.228690e-03
-3.730910e-03
-3.228690e-03
7.815026e-04
7.815026e-04
-7.728207e-04
-7.728207e-04
-1.232439e-03
-3.768197e-04
-1.232439e-03
-3.768197e-04
1.285668e-03
1.285668e-03
6.717338e-03
6.717338e-03
4.230721e-03
-7.268006e-04
4.230721e-03
-7.268006e-04
3.070008e-03
3.070008e-03
-2.963697e-03
-2.963697e-03
-2.025713e-03
2.476080e-03
-2.025713e-03
2.476080e-03
-3.211713e-03
-3.211713e-03
3.598632e-04
3.598632e-04
1.761570e-03
-8.355699e-04
1.761570e-03
-8.355699e-04
1.665655e-03
1.665655e-03
2.119943e-03
2.119943e-03
-3.170555e-05
3.542073e-04
-3.170555e-05
3.542073e-04
2.418811e-03
2.418811e-03
-9.921520e-04
-9.921520e-04
-1.707759e-03
1.397942e-03
-1.707759e-03
1.397942e-03
-5.791132e-04
-5.791132e-04
3.165105e-04
3.165105e-04
1.998304e-03
-1.383362e-03
1.998304e-03
-1.383362e-03
-5.770419e-04
-5.770419e-04
4.357718e-04
4.357718e-04
-8.460432e-04
7.606276e-04
-8.460432e-04
7.606276e-04
2.407452e-05
2.407452e-05
-4.734847e-04
-4.734847e-04
1.969826e-04
-3.631456e-04
1.969826e-04
-3.631456e-04
-5.083431e-04
-5.083431e-04
-5.734343e-04
-5.734343e-04
-7.063405e-04
-3.024354e-04
-7.063405e-04
-3.024354e-04
-1.264806e-03
-1.264806e-03
-1.261551e-03
-1.261551e-03
-2.149368e-04
8.811538e-04
-2.149368e-04
8.811538e-04
-1.040051e-03
-1.040051e-03
-1.391195e-03
-1.391195e-03
-9.820720e-04
-7.858192e-04
-9.820720e-04
-7.858192e-04
-1.942177e-03
-1.942177e-03
-1.385518e-03
-1.385518e-03
-7.763843e-04
-1.703297e-03
-7.763843e-04
-1.703297e-03
-1.055796e-03
-1.055796e-03
-2.379835e-03
-2.379835e-03
-1.908359e-03
-8.745100e-04
-1.908359e-03
-8.745100e-04
-2.601839e-03
-2.601839e-03
-2.290615e-03
-2.290615e-03
-3.747551e-03
-2.393727e-03
-3.747551e-03
-2.393727e-03
-3.109891e-03
-3.109891e-03
-2.420235e-03
-2.420235e-03
-2.766685e-03
-4.293936e-03
-2.766685e-03
-4.293936e-03
-6.816438e-04
-6.816438e-04
9.679912e-04
9.679912e-04
4.350325e-03
9.336780e-04
4.350325e-03
9.336780e-04
3.191898e-03
3.191898e-03
3.737939e-03
3.737939e-03
2.995830e-03
4.778565e-03
2.995830e-03
4.778565e-03
2.054415e-03
2.054415e-03
-5.588374e-05
-5.588374e-05
-1.589928e-03
7.815848e-04
-1.589928e-03
7.815848e-04
-1.409403e-03
-1.409403e-03
-9.168434e-04
-9.168434e-04
-2.685701e-04
-2.676902e-03
-2.685701e-04
-2.676902e-03
3.921975e-04
3.921975e-04
4.186887e-04
4.186887e-04
9.201253e-05
1.406442e-03
9.201253e-05
1.406442e-03
-6.988544e-04
-6.988544e-04
-8.533784e-04
-8.533784e-04
-1.775285e-04
-1.037826e-03
-1.775285e-04
-1.037826e-03
-1.921198e-04
-1.921198e-04
-2.015347e-04
-2.015347e-04
-7.937049e-04
-2.997169e-06
-7.937049e-04
-2.997169e-06
-5.144586e-05
-5.144586e-05
2.803121e-04
2.803121e-04
1.733966e-04
-3.145605e-04
1.733966e-04
-3.145605e-04
9.222754e-02
3.791257e-02
9.222754e-02
3.791257e-02
-1.857841e-03
-1.857841e-03
-4.285620e-02
2.664148e-02
-4.285620e-02
2.664148e-02
-2.953592e-02
-2.953592e-02
-3.461067e-02
-3.461067e-02
2.974842e-02
2.974842e-02
-3.110771e-02
-1.085959e-01
-3.110771e-02
-1.085959e-01
3.669454e-02
3.669454e-02
3.469887e-02
3.469887e-02
-4.941443e-02
-5.598611e-02
-4.941443e-02
-5.598611e-02
-8.180743e-02
-8.180743e-02
-1.040289e-01
-1.040289e-01
-1.577066e-02
-5.171279e-03
-1.577066e-02
-5.171279e-03
6.235758e-02
6.235758e-02
1.071341e-01
1.071341e-01
5.088821e-02
7.761602e-02
5.088821e-02
7.761602e-02
8.281786e-02
8.281786e-02
7.373391e-03
7.373391e-03
4.168158e-02
-1.398574e-02
4.168158e-02
-1.398574e-02
-7.436831e-02
-7.436831e-02
-1.344558e-01
-1.344558e-01
-2.263274e-01
-5.900520e-02
-2.263274e-01
-5.900520e-02
-1.468472e-01
-1.468472e-01
-1.073504e-01
-1.073504e-01
-4.332395e-02
-1.584784e-01
-4.332395e-02
-1.584784e-01
1.652713e-02
-5.117191e-02
1.652713e-02
-5.117191e-02
-2.177328e-02
-2.177328e-02
8.039389e-02
1.124156e-02
8.039389e-02
1.124156e-02
-4.621375e-02
-4.621375e-02
-9.208400e-02
-9.208400e-02
-2.669915e-02
-2.669915e-02
1.485996e-02
8.386736e-02
1.485996e-02
8.386736e-02
-5.035809e-02
-5.035809e-02
-2.246823e-02
-2.246823e-02
2.418791e-02
-6.252960e-02
2.418791e-02
-6.252960e-02
8.259770e-02
8.259770e-02
-1.728087e-03
-1.728087e-03
-4.348144e-02
8.172832e-02
-4.348144e-02
8.172832e-02
-4.883860e-03
-4.883860e-03
-3.607600e-03
-3.607600e-03
-2.104510e-03
-5.166775e-02
-2.104510e-03
-5.166775e-02
-3.836145e-02
-3.836145e-02
4.012201e-02
4.012201e-02
3.937944e-02
1.876769e-02
3.937944e-02
1.876769e-02
-1.302886e-02
-1.302886e-02
-1.471819e-01
-1.471819e-01
-9.629386e-03
1.603274e-02
-9.629386e-03
1.603274e-02
-1.378413e-01
-1.378413e-01
-8.565466e-02
-8.565466e-02
-4.610979e-02
-3.030504e-02
-4.610979e-02
-3.030504e-02
1.737548e-02
-7.364916e-02
1.737548e-02
-7.364916e-02
1.287802e-01
1.287802e-01
5.551354e-02
5.760438e-02
5.551354e-02
5.760438e-02
-1.659550e-02
-1.659550e-02
1.589032e-01
1.589032e-01
3.824897e-02
3.824897e-02
2.490499e-02
5.250292e-02
2.490499e-02
5.250292e-02
-5.154682e-02
-5.154682e-02
7.746675e-02
7.746675e-02
8.599045e-02
1.595317e-02
8.599045e-02
1.595317e-02
1.222334e-01
1.222334e-01
1.455096e-02
1.455096e-02
3.445407e-02
9.938233e-02
3.445407e-02
9.938233e-02
-2.036412e-02
-2.036412e-02
-3.352893e-04
-3.352893e-04
1.038163e-03
-3.351634e-02
1.038163e-03
-3.351634e-02
-1.968650e-03
-1.968650e-03
-2.313433e-02
-2.313433e-02
-1.422594e-01
-2.377436e-02
-1.422594e-01
-2.377436e-02
1.464597e-02
1.464597e-02
7.470479e-02
7.470479e-02
1.831225e-01
-4.583797e-02
1.831225e-01
-4.583797e-02
5.645621e-02
5.645621e-02
2.131612e-02
2.131612e-02
1.236113e-01
1.991310e-01
1.236113e-01
1.991310e-01
4.382769e-02
3.000346e-02
4.382769e-02
3.000346e-02
1.235390e-03
1.235390e-03
-5.281782e-02
-2.205440e-02
-5.281782e-02
-2.205440e-02
-1.049619e-02
-1.049619e-02
-3.713703e-02
-3.713703e-02
-6.636748e-02
-6.636748e-02
-1.028631e-01
-8.627333e-02
-1.028631e-01
-8.627333e-02
-4.131054e-02
-4.131054e-02
-1.284412e-02
-1.284412e-02
-4.687877e-02
-5.268562e-02
-4.687877e-02
-5.268562e-02
6.818093e-02
6.818093e-02
8.199984e-02
8.199984e-02
1.484203e-01
6.979539e-02
1.484203e-01
6.979539e-02
-6.967500e-02
-6.967500e-02
-2.919773e-02
-2.919773e-02
-1.524874e-01
-8.157459e-02
-1.524874e-01
-8.157459e-02
1.020265e-01
1.020265e-01
-2.529032e-02
-2.529032e-02
1.169619e-01
8.421458e-02
1.169619e-01
8.421458e-02
-7.094292e-02
-7.094292e-02
1.637031e-01
1.637031e-01
3.699748e-02
-2.095521e-02
3.699748e-02
-2.095521e-02
2.168561e-01
2.168561e-01
1.254288e-01
1.254288e-01
-2.953061e-02
4.948556e-02
-2.953061e-02
4.948556e-02
-1.832922e-02
-5.119052e-02
-1.832922e-02
-5.119052e-02
-8.121069e-02
-8.121069e-02
7.791979e-04
8.377967e-02
7.791979e-04
8.377967e-02
-1.119218e-02
-1.119218e-02
-1.078783e-01
-1.078783e-01
9.557526e-04
9.557526e-04
1.139300e-01
-1.104377e-02
1.139300e-01
-1.104377e-02
6.868647e-02
6.868647e-02
-1.586449e-02
-1.586449e-02
-3.456402e-02
3.802518e-02
-3.456402e-02
3.802518e-02
1.423542e-02
1.423542e-02
9.267115e-02
9.267115e-02
-2.537771e-02
7.543140e-03
-2.537771e-02
7.543140e-03
-5.419389e-02
-5.419389e-02
-1.279958e-01
-1.279958e-01
-1.079181e-02
-2.914351e-02
-1.079181e-02
-2.914351e-02
2.059471e-02
2.059471e-02
8.591890e-02
8.591890e-02
5.803846e-02
4.096189e-02
5.803846e-02
4.096189e-02
7.427689e-03
7.427689e-03
2.110393e-02
2.110393e-02
9.570833e-02
3.786305e-02
9.570833e-02
3.786305e-02
1.089070e-02
1.089070e-02
-6.176630e-02
-6.176630e-02
-2.886194e-02
5.540537e-02
-2.886194e-02
5.540537e-02
1.131879e-01
4.364677e-02
1.131879e-01
4.364677e-02
2.603038e-02
2.603038e-02
-2.284969e-02
-2.347143e-02
-2.284969e-02
-2.347143e-02
-2.016614e-02
-2.016614e-02
1.354211e-02
1.354211e-02
5.331399e-02
5.331399e-02
-2.937868e-02
-6.825969e-02
-2.937868e-02
-6.825969e-02
-2.812940e-02
-2.812940e-02
2.743936e-02
2.743936e-02
1.146605e-01
9.671484e-02
1.146605e-01
9.671484e-02
3.090599e-02
3.090599e-02
-7.215593e-02
-7.215593e-02
-1.410239e-02
-7.471649e-03
-1.410239e-02
-7.471649e-03
-3.951185e-03
-3.951185e-03
-7.638307e-03
-7.638307e-03
2.960210e-02
5.252821e-02
2.960210e-02
5.252821e-02
-1.869540e-02
-1.869540e-02
-1.362820e-02
-1.362820e-02
-1.122822e-01
-5.263657e-02
-1.122822e-01
-5.263657e-02
-7.459446e-03
-7.459446e-03
7.573650e-02
7.573650e-02
-7.588458e-03
-5.245305e-02
-7.588458e-03
-5.245305e-02
6.165945e-02
6.165945e-02
1.505248e-02
1.505248e-02
4.035415e-02
6.718089e-03
4.035415e-02
6.718089e-03
2.126664e-02
1.556924e-02
6.726075e-03
6.047766e-03
2.126664e-02
1.556924e-02
6.726075e-03
6.047766e-03
7.657320e-03
1.182511e-03
7.657320e-03
1.182511e-03
-1.039823e-02
-8.220911e-03
-1.039823e-02
-8.220911e-03
-2.165476e-02
-2.165476e-02
-1.364506e-02
-1.363857e-02
-1.364506e-02
-1.363857e-02
-8.653355e-03
-8.653355e-03
-7.749137e-03
-1.629993e-02
-7.749137e-03
-1.629993e-02
-2.047327e-02
-2.047327e-02
2.916009e-02
3.708812e-04
2.916009e-02
3.708812e-04
7.447878e-03
7.447878e-03
1.984769e-02
4.482708e-02
1.984769e-02
4.482708e-02
3.481468e-02
3.481468e-02
-3.151520e-02
1.486909e-03
-3.151520e-02
1.486909e-03
-9.528143e-03
-9.528143e-03
5.931707e-03
-1.176049e-03
5.931707e-03
-1.176049e-03
-2.690630e-02
-2.690630e-02
9.941700e-02
-7.686000e-03
9.941700e-02
-7.686000e-03
5.059992e-02
5.059992e-02
3.598852e-02
8.171575e-02
3.598852e-02
8.171575e-02
2.233491e-02
2.233491e-02
-9.539363e-03
1.585879e-02
-9.539363e-03
1.585879e-02
-2.102473e-02
-2.102473e-02
-4.161856e-02
-5.264039e-02
-4.161856e-02
-5.264039e-02
-1.106967e-02
-1.106967e-02
-2.293468e-02
2.689063e-02
-2.293468e-02
2.689063e-02
-5.738454e-03
-5.738454e-03
-3.140992e-02
-2.611400e-02
-3.140992e-02
-2.611400e-02
6.020182e-02
6.020182e-02
2.147798e-03
3.725683e-03
2.147798e-03
3.725683e-03
-8.967319e-03
-9.448503e-04
-8.967319e-03
-9.448503e-04
1.168317e-02
-9.755139e-04
1.168317e-02
-9.755139e-04
-1.059228e-02
7.492588e-03
-1.059228e-02
7.492588e-03
1.476384e-02
1.476384e-02
-4.996983e-03
-4.996983e-03
1.304336e-02
1.304336e-02
-1.760205e-03
-5.808941e-03
-1.760205e-03
-5.808941e-03
2.230483e-02
2.230483e-02
1.046292e-02
1.046292e-02
-5.732305e-03
-5.732305e-03
-1.287503e-02
-1.287503e-02
-1.140943e-02
-8.710074e-03
-1.140943e-02
-8.710074e-03
-1.680095e-02
-1.680095e-02
-8.544411e-03
-8.544411e-03
3.574045e-03
3.574045e-03
1.090664e-02
1.090664e-02
1.339033e-02
7.250257e-03
1.339033e-02
7.250257e-03
2.099287e-02
2.099287e-02
1.324489e-02
1.324489e-02
-1.371542e-02
-1.371542e-02
-4.090255e-03
-4.090255e-03
2.911521e-02
2.249812e-03
2.911521e-02
2.249812e-03
-1.451085e-02
-1.451085e-02
-1.592195e-04
-1.592195e-04
4.530094e-03
4.530094e-03
2.881867e-02
2.881867e-02
-1.629175e-02
-1.728476e-02
-1.629175e-02
-1.728476e-02
-7.343796e-03
-7.343796e-03
-1.627843e-02
-1.627843e-02
2.247397e-02
2.247397e-02
-2.334982e-02
-2.334982e-02
-1.596446e-02
2.677432e-03
-1.596446e-02
2.677432e-03
-1.704544e-03
-1.704544e-03
-2.471397e-02
-2.471397e-02
-5.027873e-02
-5.027873e-02
-1.831074e-02
-1.831074e-02
-3.708640e-02
-4.176476e-02
-3.708640e-02
-4.176476e-02
-4.321276e-02
-4.321276e-02
2.646780e-04
2.646780e-04
-2.981527e-03
-2.981527e-03
-3.205837e-03
-3.205837e-03
-2.466147e-04
3.442572e-03
-2.466147e-04
3.442572e-03
-3.640245e-03
-3.640245e-03
8.415975e-03
8.415975e-03
2.027335e-02
-2.375190e-03
2.027335e-02
-2.375190e-03
2.073349e-02
2.073349e-02
-2.069354e-02
-2.069354e-02
-5.849037e-02
2.409599e-02
-5.849037e-02
2.409599e-02
-1.598193e-02
-1.598193e-02
-7.107764e-03
-7.107764e-03
-7.774939e-03
-1.742319e-02
-7.774939e-03
-1.742319e-02
-1.775302e-03
-1.775302e-03
1.765408e-03
1.765408e-03
-2.203244e-02
-3.029307e-03
-2.203244e-02
-3.029307e-03
-7.031251e-03
-7.031251e-03
-3.851694e-02
-3.851694e-02
1.753373e-02
-2.993769e-02
1.753373e-02
-2.993769e-02
3.878163e-05
3.878163e-05
5.921106e-04
5.921106e-04
1.021842e-02
1.575302e-02
1.021842e-02
1.575302e-02
3.076033e-03
3.076033e-03
-7.421302e-03
-7.421302e-03
6.922533e-03
5.231954e-03
6.922533e-03
5.231954e-03
-3.043208e-02
-3.043208e-02
-8.609288e-04
-8.609288e-04
-2.867499e-02
-8.188604e-03
-2.867499e-02
-8.188604e-03
1.415033e-02
1.415033e-02
7.197072e-03
7.197072e-03
-5.699200e-03
-3.777277e-03
-5.699200e-03
-3.777277e-03
-4.149717e-03
-4.149717e-03
2.372747e-02
2.372747e-02
2.341995e-02
-7.112571e-03
2.341995e-02
-7.112571e-03
4.062191e-02
4.062191e-02
1.625599e-02
1.625599e-02
2.005579e-02
4.045667e-02
2.005579e-02
4.045667e-02
-1.262668e-02
-1.262668e-02
-1.022771e-02
-1.022771e-02
1.340919e-03
-4.648879e-03
1.340919e-03
-4.648879e-03
-6.649349e-04
-6.649349e-04
9.578958e-03
9.578958e-03
-5.119031e-03
8.895482e-03
-5.119031e-03
8.895482e-03
1.138613e-02
1.138613e-02
-5.180692e-02
-5.180692e-02
-7.173487e-02
-1.716724e-02
-7.173487e-02
-1.716724e-02
7.627390e-04
7.627390e-04
-5.311592e-03
-5.311592e-03
-2.084276e-02
7.433549e-04
-2.084276e-02
7.433549e-04
1.067383e-02
1.067383e-02
-1.818021e-02
-1.818021e-02
-1.639419e-02
6.376587e-03
-1.639419e-02
6.376587e-03
-4.380485e-02
-4.380485e-02
-2.488975e-02
-2.488975e-02
-3.862562e-03
-4.813759e-02
-3.862562e-03
-4.813759e-02
5.933948e-02
5.060244e-02
5.933948e-02
5.060244e-02
9.214491e-02
4.879028e-02
9.214491e-02
4.879028e-02
-4.382431e-02
-4.915062e-02
-4.382431e-02
-4.915062e-02
-4.364727e-02
-5.344311e-02
-4.364727e-02
-5.344311e-02
-9.216773e-02
-8.336887e-02
-9.216773e-02
-8.336887e-02
-5.131965e-03
-1.813186e-02
-5.131965e-03
-1.813186e-02
1.387711e-02
-4.587295e-02
1.387711e-02
-4.587295e-02
4.473684e-03
-1.323026e-02
4.473684e-03
-1.323026e-02
-3.625052e-02
-2.813718e-02
-3.625052e-02
-2.813718e-02
-5.220133e-02
-1.855575e-03
-5.220133e-02
-1.855575e-03
-1.965344e-03
3.506254e-03
-1.965344e-03
3.506254e-03
-5.718067e-02
-3.580538e-02
-5.718067e-02
-3.580538e-02
1.817863e-02
2.211785e-02
1.817863e-02
2.211785e-02
2.003474e-02
2.510514e-02
2.003474e-02
2.510514e-02
2.872436e-02
-4.539576e-02
2.872436e-02
-4.539576e-02
-2.514950e-02
-5.477974e-02
-2.514950e-02
-5.477974e-02
2.364817e-02
2.364817e-02
2.348456e-02
2.348456e-02
9.323222e-02
9.323222e-02
1.141212e-01
7.999320e-02
1.141212e-01
7.999320e-02
6.527190e-02
6.527190e-02
3.709667e-02
3.709667e-02
-3.328107e-03
2.597384e-02
-3.328107e-03
2.597384e-02
7.725554e-02
7.725554e-02
3.089983e-02
3.089983e-02
3.391368e-02
3.775917e-02
3.391368e-02
3.775917e-02
8.982326e-03
8.982326e-03
-1.038789e-02
-1.038789e-02
1.831806e-02
2.884032e-02
1.831806e-02
2.884032e-02
-6.585182e-02
-6.585182e-02
-3.391705e-02
-3.391705e-02
-2.222880e-02
-3.528475e-04
-2.222880e-02
-3.528475e-04
-4.169445e-02
-4.169445e-02
-3.134200e-02
-3.134200e-02
-4.207421e-02
-4.207421e-02
-2.800002e-02
-2.800002e-02
-5.461757e-02
-1.188704e-01
-5.461757e-02
-1.188704e-01
4.055887e-03
4.055887e-03
1.669953e-02
1.669953e-02
1.413684e-01
9.359121e-02
1.413684e-01
9.359121e-02
-3.424234e-02
-3.424234e-02
-4.974584e-02
-4.974584e-02
-2.841605e-02
7.312331e-02
-2.841605e-02
7.312331e-02
-3.845065e-02
-3.845065e-02
1.684970e-02
1.684970e-02
8.432338e-02
-3.885179e-02
8.432338e-02
-3.885179e-02
5.208732e-02
5.208732e-02
5.660277e-02
5.660277e-02
-4.249227e-02
2.155917e-02
-4.249227e-02
2.155917e-02
1.409740e-01
1.409740e-01
7.083280e-02
7.083280e-02
-3.961476e-02
-3.961476e-02
1.265963e-02
1.265963e-02
2.471393e-02
5.057150e-02
2.471393e-02
5.057150e-02
7.372976e-02
7.372976e-02
1.141196e-01
1.141196e-01
-6.513192e-02
-2.493365e-02
-6.513192e-02
-2.493365e-02
1.583702e-01
1.583702e-01
8.205247e-02
8.205247e-02
5.039889e-02
-2.488636e-02
5.039889e-02
-2.488636e-02
2.488660e-03
2.488660e-03
3.794379e-02
3.794379e-02
-4.200760e-02
3.661638e-02
-4.200760e-02
3.661638e-02
-5.363722e-02
-5.363722e-02
-8.144032e-02
-8.144032e-02
-2.001469e-03
-7.277367e-02
-2.001469e-03
-7.277367e-02
-2.119028e-02
-2.119028e-02
4.867754e-02
4.867754e-02
4.031906e-02
4.031906e-02
2.081982e-02
2.081982e-02
2.562546e-02
-2.258814e-02
2.562546e-02
-2.258814e-02
-1.825352e-02
-1.825352e-02
-9.180672e-02
-9.180672e-02
-2.879557e-03
3.739373e-02
-2.879557e-03
3.739373e-02
-1.201462e-01
-1.201462e-01
-5.279921e-02
-5.279921e-02
-3.862157e-02
8.930662e-03
-3.862157e-02
8.930662e-03
-1.516818e-02
-1.516818e-02
4.728133e-03
4.728133e-03
6.699842e-02
-7.600960e-02
6.699842e-02
-7.600960e-02
2.537631e-02
2.537631e-02
-4.347610e-03
-4.347610e-03
-1.152279e-02
1.211327e-01
-1.152279e-02
1.211327e-01
2.543273e-02
2.543273e-02
-8.390805e-03
-8.390805e-03
1.663042e-02
1.663042e-02
1.113222e-02
1.113222e-02
1.771645e-02
5.601894e-02
1.771645e-02
5.601894e-02
-4.184150e-02
-4.184150e-02
-1.011410e-02
-1.011410e-02
-3.878998e-02
-1.005685e-01
-3.878998e-02
-1.005685e-01
6.480180e-02
6.480180e-02
1.697541e-02
1.697541e-02
9.366736e-03
3.854352e-02
9.366736e-03
3.854352e-02
-5.198273e-04
-5.198273e-04
7.822753e-02
7.822753e-02
5.434365e-02
4.309399e-02
5.434365e-02
4.309399e-02
8.076570e-02
8.076570e-02
-2.285485e-02
-2.285485e-02
-1.328826e-03
1.206068e-02
-1.328826e-03
1.206068e-02
-6.590160e-02
-6.590160e-02
-6.874280e-02
-6.874280e-02
-3.752179e-02
-3.752179e-02
3.103972e-02
3.103972e-02
7.359935e-02
-5.041794e-02
7.359935e-02
-5.041794e-02
2.560222e-02
2.560222e-02
1.794031e-02
1.794031e-02
7.445401e-02
1.242822e-01
7.445401e-02
1.242822e-01
-4.206700e-02
-4.206700e-02
-5.032686e-02
-5.032686e-02
-2.040192e-02
-3.815964e-02
-2.040192e-02
-3.815964e-02
-9.379653e-03
-9.379653e-03
-2.801534e-02
-2.801534e-02
-2.897491e-02
1.382337e-02
-2.897491e-02
1.382337e-02
1.532632e-02
1.532632e-02
1.001160e-01
1.001160e-01
5.800248e-02
3.829136e-02
5.800248e-02
3.829136e-02
5.513209e-02
5.513209e-02
-1.229169e-02
-1.229169e-02
4.981454e-02
4.981454e-02
1.490550e-01
1.490550e-01
1.864306e-01
9.501803e-02
1.864306e-01
9.501803e-02
6.417871e-02
6.417871e-02
-3.871430e-02
-3.871430e-02
-1.580649e-01
1.937414e-03
-1.580649e-01
1.937414e-03
1.766879e-02
1.766879e-02
2.832009e-02
2.832009e-02
1.433775e-02
1.183089e-02
1.433775e-02
1.183089e-02
-6.505017e-03
-6.505017e-03
2.526803e-02
2.526803e-02
2.266285e-02
-7.829616e-02
2.266285e-02
-7.829616e-02
3.267214e-02
3.267214e-02
-3.512631e-02
-3.512631e-02
-3.212610e-02
2.176184e-02
-3.212610e-02
2.176184e-02
-6.839126e-02
-6.839126e-02
-3.059784e-03
-3.059784e-03
-6.470838e-03
-6.470838e-03
-5.537057e-02
-5.537057e-02
-3.034037e-02
2.951326e-02
-3.034037e-02
2.951326e-02
-9.020923e-02
-9.020923e-02
-1.081576e-01
-1.081576e-01
-9.920506e-02
-8.651663e-02
-9.920506e-02
-8.651663e-02
-9.555500e-02
-9.555500e-02
-4.918134e-02
-4.918134e-02
-5.321868e-02
-6.108678e-02
-5.321868e-02
-6.108678e-02
-3.122569e-02
-3.122569e-02
-2.467781e-02
-2.467781e-02
1.294397e-03
-4.982227e-02
1.294397e-03
-4.982227e-02
-5.650528e-02
-5.650528e-02
-9.062404e-02
-9.062404e-02
-5.918048e-02
-2.507627e-02
-5.918048e-02
-2.507627e-02
-4.387558e-02
-4.387558e-02
1.816885e-02
1.816885e-02
-5.033855e-03
-1.058459e-02
-5.033855e-03
-1.058459e-02
-1.550219e-02
-1.550219e-02
-3.366555e-02
-3.366555e-02
-1.379874e-01
-1.247842e-01
-1.379874e-01
-1.247842e-01
-9.832537e-02
-9.832537e-02
-8.732719e-02
-8.732719e-02
-1.162894e-01
-1.413358e-01
-1.162894e-01
-1.413358e-01
-4.139429e-02
-4.139429e-02
-5.546344e-02
-5.546344e-02
-5.210914e-02
-6.276380e-02
-5.210914e-02
-6.276380e-02
-5.172873e-02
-5.172873e-02
-1.321493e-03
-1.321493e-03
-3.150127e-02
-7.678182e-02
-3.150127e-02
-7.678182e-02
-1.190833e-02
-1.190833e-02
-1.529409e-02
-1.529409e-02
1.887595e-02
2.271323e-02
1.887595e-02
2.271323e-02
3.578778e-02
3.578778e-02
8.181633e-03
8.181633e-03
5.625555e-02
3.053936e-02
5.625555e-02
3.053936e-02
-1.507225e-01
-1.507225e-01
-1.782274e-01
-1.782274e-01
-1.342613e-01
-1.701613e-01
-1.342613e-01
-1.701613e-01
-1.550855e-01
-1.550855e-01
-1.002422e-01
-1.002422e-01
-1.576848e-01
-1.765637e-01
-1.576848e-01
-1.765637e-01
-8.134172e-02
-8.134172e-02
-9.783238e-02
-9.783238e-02
-1.623527e-01
-1.364167e-01
-1.623527e-01
-1.364167e-01
-1.144490e-01
-1.144490e-01
-8.080984e-02
-8.080984e-02
-1.523292e-01
-1.695169e-01
-1.523292e-01
-1.695169e-01
-2.519003e-02
-2.519003e-02
-1.858873e-02
-1.858873e-02
-3.979769e-02
-9.713325e-02
-3.979769e-02
-9.713325e-02
1.741380e-02
1.741380e-02
6.667939e-02
6.667939e-02
3.873922e-02
2.789287e-02
3.873922e-02
2.789287e-02
-1.892438e-01
-1.892438e-01
-1.390853e-01
-1.390853e-01
-1.075354e-01
-1.039215e-01
-1.075354e-01
-1.039215e-01
-1.727876e-01
-1.727876e-01
-1.780774e-01
-1.780774e-01
-1.337726e-01
-1.178549e-01
-1.337726e-01
-1.178549e-01
-1.194016e-01
-1.194016e-01
-1.005838e-01
-1.005838e-01
1.815928e-02
-6.133293e-02
1.815928e-02
-6.133293e-02
-1.299182e-01
-1.299182e-01
-1.479191e-01
-1.479191e-01
-7.285732e-02
-1.003473e-02
-7.285732e-02
-1.003473e-02
-1.001969e-01
-1.001969e-01
-2.563822e-02
-2.563822e-02
3.248653e-03
-3.350211e-02
3.248653e-03
-3.350211e-02
-2.039612e-02
-2.039612e-02
-1.840039e-02
-1.840039e-02
-6.220627e-02
-7.751681e-02
-6.220627e-02
-7.751681e-02
-2.873645e-02
-2.873645e-02
-3.838833e-02
-3.838833e-02
-6.692171e-02
-2.228012e-02
-6.692171e-02
-2.228012e-02
-9.758817e-02
-9.758817e-02
-1.091785e-01
-1.091785e-01
-5.062528e-02
-1.032028e-01
-5.062528e-02
-1.032028e-01
-5.519353e-02
-5.519353e-02
-1.674531e-02
-1.674531e-02
-6.535321e-02
-3.431860e-02
-6.535321e-02
-3.431860e-02
1.139590e-02
1.139590e-02
2.577454e-03
2.577454e-03
9.164787e-03
-3.918225e-02
9.164787e-03
-3.918225e-02
1.736327e-02
1.736327e-02
4.650743e-02
4.650743e-02
-3.071792e-02
-2.879133e-02
-3.071792e-02
-2.879133e-02
-4.815279e-03
-4.815279e-03
-3.007006e-03
-3.007006e-03
3.662579e-02
2.696288e-02
3.662579e-02
2.696288e-02
-6.035935e-02
-6.035935e-02
-9.066591e-02
-9.066591e-02
2.243222e-02
-2.090006e-02
2.243222e-02
-2.090006e-02
-9.813313e-02
-9.813313e-02
-5.122718e-02
-5.122718e-02
-5.013580e-02
-7.657156e-02
-5.013580e-02
-7.657156e-02
-4.432287e-02
-4.432287e-02
-9.082818e-02
-9.082818e-02
-3.136263e-02
-8.532488e-03
-3.136263e-02
-8.532488e-03
-8.051435e-02
-8.051435e-02
-2.132667e-02
-2.132667e-02
5.393914e-02
4.178110e-03
5.393914e-02
4.178110e-03
-2.104738e-02
-2.104738e-02
-5.832916e-02
-5.832916e-02
-2.815770e-02
6.823655e-02
-2.815770e-02
6.823655e-02
-3.252685e-02
-3.252685e-02
1.680817e-02
1.680817e-02
-2.267285e-02
-9.372401e-02
-2.267285e-02
-9.372401e-02
3.157086e-02
3.157086e-02
4.861525e-02
4.861525e-02
-5.194188e-02
-2.161177e-02
-5.194188e-02
-2.161177e-02
-1.055333e-04
-1.055333e-04
5.024358e-02
5.024358e-02
1.713075e-01
5.481385e-02
1.713075e-01
5.481385e-02
6.609232e-02
6.609232e-02
8.005325e-02
8.005325e-02
1.057624e-01
1.614764e-01
1.057624e-01
1.614764e-01
1.046652e-01
1.046652e-01
1.323318e-01
1.323318e-01
1.213336e-01
1.068334e-01
1.213336e-01
1.068334e-01
7.925347e-02
7.925347e-02
-7.470811e-02
-7.470811e-02
-5.894937e-02
6.583989e-02
-5.894937e-02
6.583989e-02
-1.259709e-01
-1.259709e-01
-7.624708e-02
-7.624708e-02
-7.247636e-02
-1.170629e-01
-7.247636e-02
-1.170629e-01
2.387162e-02
2.387162e-02
-8.079714e-02
-8.079714e-02
-6.466173e-02
8.512930e-02
-6.466173e-02
8.512930e-02
-4.475458e-02
-4.475458e-02
-9.081910e-03
-9.081910e-03
-2.854921e-01
-1.507010e-01
-2.854921e-01
-1.507010e-01
2.242944e-02
2.242944e-02
4.962755e-02
4.962755e-02
-1.386735e-01
-3.063079e-01
-1.386735e-01
-3.063079e-01
6.999301e-02
6.999301e-02
9.488539e-02
9.488539e-02
1.741107e-01
4.586788e-02
1.741107e-01
4.586788e-02
9.396545e-02
9.396545e-02
-1.414553e-02
-1.414553e-02
3.083712e-02
1.752415e-01
3.083712e-02
1.752415e-01
-8.655158e-02
-8.655158e-02
-1.371432e-03
-1.371432e-03
7.497460e-03
-2.529562e-02
7.497460e-03
-2.529562e-02
-4.320497e-02
-4.320497e-02
-1.318713e-01
-1.318713e-01
-2.076205e-01
-9.613396e-02
-2.076205e-01
-9.613396e-02
-1.146171e-01
-1.146171e-01
-1.810153e-01
-1.810153e-01
-5.528922e-02
-7.040203e-02
-5.528922e-02
-7.040203e-02
-2.998929e-01
-2.998929e-01
-1.905677e-01
-1.905677e-01
-1.488652e-01
-1.597567e-01
-1.488652e-01
-1.597567e-01
7.488841e-02
7.488841e-02
2.185693e-01
2.185693e-01
9.728370e-02
-4.450981e-02
9.728370e-02
-4.450981e-02
1.829728e-01
1.829728e-01
6.341760e-02
6.341760e-02
9.736069e-02
7.481844e-02
9.736069e-02
7.481844e-02
2.051677e-02
2.051677e-02
1.925897e-02
1.925897e-02
6.641784e-02
1.838936e-01
6.641784e-02
1.838936e-01
1.752983e-02
1.752983e-02
-1.556599e-01
-1.556599e-01
-6.275741e-02
3.349468e-02
-6.275741e-02
3.349468e-02
-8.564057e-02
-8.564057e-02
-7.754242e-02
-7.754242e-02
-1.291294e-01
-6.194919e-02
-1.291294e-01
-6.194919e-02
-2.149949e-01
-2.149949e-01
-3.481476e-01
-3.481476e-01
-3.600568e-01
-2.474918e-01
-3.600568e-01
-2.474918e-01
-3.206760e-01
-3.206760e-01
7.967188e-02
7.967188e-02
3.154403e-01
-2.441729e-01
3.154403e-01
-2.441729e-01
2.969746e-01
2.969746e-01
2.115544e-01
2.115544e-01
3.086837e-01
7.108418e-01
3.086837e-01
7.108418e-01
1.888516e-01
1.888516e-01
-2.489045e-02
-2.489045e-02
-5.431797e-01
-4.016968e-01
-5.431797e-01
-4.016968e-01
5.197263e-03
5.197263e-03
8.698348e-02
8.698348e-02
1.763269e-01
1.864653e-02
1.763269e-01
1.864653e-02
9.383352e-02
9.383352e-02
-1.153731e-01
-1.153731e-01
-1.069978e-01
1.113266e-01
-1.069978e-01
1.113266e-01
-1.868066e-01
-1.868066e-01
-1.045212e-01
-1.045212e-01
-9.945562e-02
-2.791853e-01
-9.945562e-02
-2.791853e-01
8.399366e-02
8.399366e-02
5.263180e-01
5.263180e-01
6.754675e-01
3.364669e-01
6.754675e-01
3.364669e-01
8.295346e-01
8.295346e-01
-4.007049e-02
-4.007049e-02
-7.902241e-01
5.489263e-01
-7.902241e-01
5.489263e-01
-1.694547e+00
-1.694547e+00
-2.276067e+00
-2.276067e+00
-3.594050e+00
-2.720017e+00
-3.594050e+00
-2.720017e+00
-9.948071e-02
-9.948071e-02
-3.062022e-02
-3.062022e-02
-5.170232e-01
-3.103691e-01
-5.170232e-01
-3.103691e-01
-1.978357e-01
-1.978357e-01
-3.685657e-01
-3.685657e-01
-6.279066e-01
-6.168158e-01
-6.279066e-01
-6.168158e-01
-2.893601e-01
-2.893601e-01
6.415091e-02
6.415091e-02
2.852835e-01
-2.767854e-01
2.852835e-01
-2.767854e-01
5.137851e-01
5.137851e-01
3.494337e-01
3.494337e-01
-4.067728e-01
1.706888e-01
-4.067728e-01
1.706888e-01
1.344380e-01
1.344380e-01
2.371979e-01
2.371979e-01
2.419675e+00
1.918110e-01
2.419675e+00
1.918110e-01
4.180094e-01
4.180094e-01
1.187729e+00
1.187729e+00
7.966197e+00
5.468856e+00
7.966197e+00
5.468856e+00
-4.309120e-01
-4.309120e-01
-7.686399e-01
-7.686399e-01
-7.633092e-01
-5.356136e-01
-7.633092e-01
-5.356136e-01
-7.219465e-01
-7.219465e-01
-3.692042e-01
-3.692042e-01
1.947114e-01
-3.811348e-01
1.947114e-01
-3.811348e-01
-6.205319e-02
-6.205319e-02
-2.932769e-01
-2.932769e-01
-1.520471e+00
-6.032394e-02
-1.520471e+00
-6.032394e-02
-5.940682e-01
-5.940682e-01
3.267929e-01
3.267929e-01
5.018980e-01
-1.907686e+00
5.018980e-01
-1.907686e+00
2.441197e+00
2.441197e+00
5.130309e+00
5.130309e+00
9.470640e+00
4.893678e+00
9.470640e+00
4.893678e+00
7.972506e+00
7.972506e+00
8.624584e+00
8.624584e+00
9.863577e+00
1.182493e+01
9.863577e+00
1.182493e+01
-6.776926e-01
-6.776926e-01
-7.017155e-01
-7.017155e-01
-3.084619e-01
-6.863917e-01
-3.084619e-01
-6.863917e-01
2.802455e-01
2.802455e-01
5.484102e-01
5.484102e-01
-2.352359e-02
7.066048e-01
-2.352359e-02
7.066048e-01
-1.683494e+00
-1.683494e+00
-4.398619e+00
-4.398619e+00
-7.956412e+00
-4.073953e+00
-7.956412e+00
-4.073953e+00
-4.164710e+00
-4.164710e+00
6.165135e-01
6.165135e-01
1.479638e+00
-6.935612e+00
1.479638e+00
-6.935612e+00
8.800182e+00
8.800182e+00
1.783178e+01
1.783178e+01
2.564174e+01
1.486384e+01
2.564174e+01
1.486384e+01
2.188196e+01
2.188196e+01
1.747723e+01
1.747723e+01
2.014391e+01
2.716630e+01
2.014391e+01
2.716630e+01
-7.652835e-01
-7.652835e-01
3.917827e-01
3.917827e-01
4.137274e-01
-1.117588e+00
4.137274e-01
-1.117588e+00
1.263259e+00
1.263259e+00
-9.387954e-01
-9.387954e-01
-1.625450e+00
1.368366e+00
-1.625450e+00
1.368366e+00
-6.653170e+00
-6.653170e+00
-1.082961e+01
-1.082961e+01
-1.187377e+01
-7.910375e+00
-1.187377e+01
-7.910375e+00
-7.614427e+00
-7.614427e+00
7.527754e+00
7.527754e+00
2.153784e+01
-7.399721e+00
2.153784e+01
-7.399721e+00
3.979094e+01
3.979094e+01
6.113268e+01
6.113268e+01
6.950330e+01
6.170798e+01
6.950330e+01
6.170798e+01
5.350901e+01
5.350901e+01
3.590813e+01
3.590813e+01
4.899137e+01
5.400152e+01
4.899137e+01
5.400152e+01
-1.989583e+00
-1.989583e+00
7.386444e-01
7.386444e-01
1.621121e-01
-2.859456e+00
1.621121e-01
-2.859456e+00
2.694397e+00
2.694397e+00
-3.229647e+00
-3.229647e+00
-4.873524e+00
5.121778e+00
-4.873524e+00
5.121778e+00
-1.350219e+01
-1.350219e+01
-1.828258e+01
-1.828258e+01
-3.278195e+01
-2.160326e+01
-3.278195e+01
-2.160326e+01
-8.467428e+00
-8.467428e+00
3.070169e+01
3.070169e+01
1.661799e+01
-2.002759e+01
1.661799e+01
-2.002759e+01
7.482017e+01
7.482017e+01
8.545479e+01
8.545479e+01
6.244248e+01
5.067036e+01
6.244248e+01
5.067036e+01
6.705199e+01
6.705199e+01
5.475565e+01
5.475565e+01
2.660096e+01
4.289240e+01
2.660096e+01
4.289240e+01
-4.270370e+00
-4.270370e+00
-1.471303e+00
-1.471303e+00
-3.147123e+00
-3.205390e+00
-3.147123e+00
-3.205390e+00
7.091684e+00
7.091684e+00
-3.254127e+00
-3.254127e+00
4.255712e+00
5.187439e+00
4.255712e+00
5.187439e+00
-2.076760e+01
-2.076760e+01
-3.238488e+01
-3.238488e+01
-7.907036e+00
-3.379212e+00
-7.907036e+00
-3.379212e+00
-2.496726e+01
-2.496726e+01
-4.163048e+00
-4.163048e+00
-1.757805e+01
-7.999200e+00
-1.757805e+01
-7.999200e+00
7.458623e+00
7.458623e+00
1.060572e+01
1.060572e+01
-4.952960e+01
-3.819344e+01
-4.952960e+01
-3.819344e+01
5.578007e+00
5.578007e+00
-1.452216e+00
-1.452216e+00
-3.577402e+01
-4.244196e+01
-3.577402e+01
-4.244196e+01
8.707710e-01
8.707710e-01
-3.593794e+00
-3.593794e+00
-2.013053e+00
1.396705e+00
-2.013053e+00
1.396705e+00
-1.536610e+00
-1.536610e+00
7.591971e+00
7.591971e+00
5.217157e+00
-2.528745e+00
5.217157e+00
-2.528745e+00
1.599541e+01
1.599541e+01
1.735288e+01
1.735288e+01
2.275622e+01
1.733886e+01
2.275622e+01
1.733886e+01
3.079957e+00
3.079957e+00
-3.132432e+01
-3.132432e+01
-2.806294e+01
6.805315e+00
-2.806294e+01
6.805315e+00
-5.935288e+01
-5.935288e+01
-7.133299e+01
-7.133299e+01
-6.093965e+01
-5.397398e+01
-6.093965e+01
-5.397398e+01
-7.456720e+01
-7.456720e+01
-5.875180e+01
-5.875180e+01
-4.178965e+01
-6.078362e+01
-4.178965e+01
-6.078362e+01
-5.020083e-01
-5.020083e-01
-1.291609e+00
-1.291609e+00
-1.272295e+00
-9.123619e-01
-1.272295e+00
-9.123619e-01
9.116178e-01
9.116178e-01
4.829594e+00
4.829594e+00
3.053073e+00
8.451423e-01
3.053073e+00
8.451423e-01
9.691319e+00
9.691319e+00
1.348522e+01
1.348522e+01
5.793183e+00
4.259657e+00
5.793183e+00
4.259657e+00
9.186158e+00
9.186158e+00
-7.063745e+00
-7.063745e+00
1.114195e+00
5.559933e+00
1.114195e+00
5.559933e+00
-3.186156e+01
-3.186156e+01
-4.753892e+01
-4.753892e+01
-5.111630e+00
-3.482106e+00
-5.111630e+00
-3.482106e+00
-4.052340e+01
-4.052340e+01
-2.120746e+01
-2.120746e+01
-2.810175e+00
-4.469009e+00
-2.810175e+00
-4.469009e+00
-2.458094e-01
-2.458094e-01
-6.081090e-01
-6.081090e-01
1.103620e-02
1.308002e-01
1.103620e-02
1.308002e-01
-1.368678e-01
-1.368678e-01
6.943472e-01
6.943472e-01
1.097724e-01
-6.423239e-02
1.097724e-01
-6.423239e-02
1.153244e+00
1.153244e+00
1.337487e+00
1.337487e+00
-6.192891e-01
-1.530985e-01
-6.192891e-01
-1.530985e-01
7.539353e-01
7.539353e-01
-2.002017e+00
-2.002017e+00
-1.322684e+00
-9.666295e-01
-1.322684e+00
-9.666295e-01
-6.035606e+00
-6.035606e+00
-9.358080e+00
-9.358080e+00
-2.889689e+00
-1.917063e+00
-2.889689e+00
-1.917063e+00
-1.012343e+01
-1.012343e+01
-7.114113e+00
-7.114113e+00
-2.067075e+00
-2.779584e+00
-2.067075e+00
-2.779584e+00
-3.680780e-02
-3.680780e-02
-4.781286e-03
-4.781286e-03
-1.121612e-03
-8.695349e-02
-1.121612e-03
-8.695349e-02
6.058847e-02
6.058847e-02
1.204011e-01
1.204011e-01
-4.195714e-01
-1.080363e-01
-4.195714e-01
-1.080363e-01
-1.377381e-01
-1.377381e-01
-3.926466e-01
-3.926466e-01
-6.949091e-01
-8.472145e-01
-6.949091e-01
-8.472145e-01
-3.930789e-01
-3.930789e-01
-8.130903e-01
-8.130903e-01
-7.042253e-01
-3.909929e-01
-7.042253e-01
-3.909929e-01
-1.873200e+00
-1.873200e+00
-2.441226e+00
-2.441226e+00
-1.826449e-01
-3.842560e-01
-1.826449e-01
-3.842560e-01
-2.342430e+00
-2.342430e+00
-1.485155e+00
-1.485155e+00
-2.731474e+00
-1.147049e+00
-2.731474e+00
-1.147049e+00
-1.643985e-02
-1.643985e-02
1.082027e-01
1.082027e-01
2.556890e-01
2.711123e-02
2.556890e-01
2.711123e-02
-1.334354e-01
-1.334354e-01
-5.090152e-01
-5.090152e-01
-1.318944e-01
8.035635e-02
-1.318944e-01
8.035635e-02
-7.355109e-01
-7.355109e-01
-4.514130e-01
-4.514130e-01
-3.546526e-01
-1.833216e-01
-3.546526e-01
-1.833216e-01
-5.071126e-02
-5.071126e-02
2.134798e-01
2.134798e-01
1.594777e+00
2.732230e-01
1.594777e+00
2.732230e-01
9.587281e-02
9.587281e-02
-1.781163e-01
-1.781163e-01
-2.618770e+00
-2.151928e-01
-2.618770e+00
-2.151928e-01
-3.816774e-02
-3.816774e-02
-9.723427e-03
-9.723427e-03
-3.692463e-02
-3.565624e-02
-3.692463e-02
-3.565624e-02
4.340372e-02
4.340372e-02
1.942907e-02
1.942907e-02
2.137851e-02
2.590244e-02
2.137851e-02
2.590244e-02
-4.692380e-02
-4.692380e-02
-4.660775e-02
-4.660775e-02
-5.903608e-02
-4.179495e-02
-5.903608e-02
-4.179495e-02
-6.098724e-03
-6.098724e-03
2.564791e-04
2.564791e-04
-2.493614e-02
-4.243853e-02
-2.493614e-02
-4.243853e-02
2.347743e-02
2.347743e-02
4.835239e-02
4.835239e-02
4.520631e-03
2.004356e-02
4.520631e-03
2.004356e-02
5.973780e-02
5.973780e-02
5.530809e-02
5.530809e-02
9.619552e-02
4.105231e-02
9.619552e-02
4.105231e-02
2.395825e-02
2.395825e-02
7.468772e-02
7.468772e-02
3.832019e-02
3.315421e-02
3.832019e-02
3.315421e-02
1.700070e-01
1.700070e-01
8.356753e-02
8.356753e-02
2.991835e-02
5.755573e-02
2.991835e-02
5.755573e-02
5.109006e-04
5.109006e-04
8.425616e-03
8.425616e-03
1.963597e-02
2.312625e-02
1.963597e-02
2.312625e-02
3.581564e-02
3.581564e-02
4.323384e-02
4.323384e-02
4.020516e-02
4.798668e-02
4.020516e-02
4.798668e-02
-1.927082e-02
-1.927082e-02
2.237193e-02
2.237193e-02
1.202861e-01
2.970800e-02
1.202861e-01
2.970800e-02
1.271295e-01
1.271295e-01
1.253575e-01
1.253575e-01
2.877880e-01
2.879018e-01
2.877880e-01
2.879018e-01
-1.849299e-01
-1.849299e-01
6.923595e-03
6.923595e-03
8.956376e-02
7.459035e-02
8.956376e-02
7.459035e-02
5.844904e-01
5.844904e-01
5.282227e-02
5.282227e-02
8.097708e-01
5.976355e-01
8.097708e-01
5.976355e-01
-3.041194e-01
-3.041194e-01
2.895779e-01
2.895779e-01
-9.138621e-01
-3.145338e-01
-9.138621e-01
-3.145338e-01
6.302266e-02
6.302266e-02
-5.669005e-01
-5.669005e-01
-6.386572e-01
-5.625834e-01
-6.386572e-01
-5.625834e-01
-1.128487e+00
-1.128487e+00
-7.909721e-01
-7.909721e-01
-1.566763e+00
-1.033253e+00
-1.566763e+00
-1.033253e+00
1.682933e-01
1.682933e-01
2.565302e-01
2.565302e-01
7.612553e-01
-7.874865e-01
7.612553e-01
-7.874865e-01
2.621235e-01
2.621235e-01
3.601868e-01
3.601868e-01
1.749143e+00
1.525855e+00
1.749143e+00
1.525855e+00
3.188735e-01
3.188735e-01
1.415987e-01
1.415987e-01
3.442388e-01
1.218368e+00
3.442388e-01
1.218368e+00
4.940116e-02
4.940116e-02
1.384162e-01
1.384162e-01
1.609043e-01
4.292566e-02
1.609043e-01
4.292566e-02
1.647355e-01
1.647355e-01
1.267521e-01
1.267521e-01
1.541451e-02
1.365599e-01
1.541451e-02
1.365599e-01
-3.144921e-02
-3.144921e-02
-1.050393e-02
-1.050393e-02
-4.799276e-02
-3.803448e-02
-4.799276e-02
-3.803448e-02
-1.707539e-02
-1.707539e-02
-6.113700e-02
-6.113700e-02
-5.850151e-02
-6.985089e-02
-5.850151e-02
-6.985089e-02
-8.842002e-02
-8.842002e-02
-4.934881e-02
-4.934881e-02
-6.189079e-02
-6.253197e-02
-6.189079e-02
-6.253197e-02
-1.750156e-02
-1.750156e-02
-1.023817e-02
-1.023817e-02
-5.866438e-02
-6.081365e-02
-5.866438e-02
-6.081365e-02
6.028976e-03
6.028976e-03
-3.103601e-02
-3.103601e-02
9.464699e-03
-3.373711e-02
9.464699e-03
-3.373711e-02
-2.259088e-02
-2.259088e-02
5.407006e-02
5.407006e-02
5.195243e-02
3.810639e-02
5.195243e-02
3.810639e-02
3.649024e-02
3.649024e-02
1.734703e-02
1.734703e-02
4.457301e-03
1.969888e-02
4.457301e-03
1.969888e-02
6.671434e-03
6.671434e-03
3.114657e-02
3.114657e-02
3.243262e-02
3.282652e-02
3.243262e-02
3.282652e-02
4.788811e-02
4.788811e-02
2.770079e-02
2.770079e-02
6.738368e-02
3.824212e-02
6.738368e-02
3.824212e-02
6.009351e-02
6.009351e-02
1.754809e-02
1.754809e-02
7.014726e-02
1.063517e-01
7.014726e-02
1.063517e-01
-1.413540e-02
-1.413540e-02
1.234063e-01
1.234063e-01
-2.628497e-03
-8.652995e-02
-2.628497e-03
-8.652995e-02
4.301219e-01
4.301219e-01
5.673731e-01
5.673731e-01
7.727771e-01
4.886637e-01
7.727771e-01
4.886637e-01
3.569878e-01
3.569878e-01
1.530758e-01
1.530758e-01
-2.040078e-01
3.955450e-01
-2.040078e-01
3.955450e-01
2.556970e-01
2.556970e-01
7.340038e-01
7.340038e-01
-9.303856e-01
-6.486440e-01
-9.303856e-01
-6.486440e-01
-2.673160e-01
-2.673160e-01
-3.065870e+00
-3.065870e+00
-2.984483e+00
-1.067623e+00
-2.984483e+00
-1.067623e+00
-4.598444e+00
-4.598444e+00
-5.274684e+00
-5.274684e+00
-4.729848e+00
-4.531656e+00
-4.729848e+00
-4.531656e+00
-2.987360e+00
-2.987360e+00
-4.529298e-01
-4.529298e-01
-1.384708e-01
-3.840081e+00
-1.384708e-01
-3.840081e+00
2.084642e-01
2.084642e-01
1.795899e+00
1.795899e+00
6.309352e-01
1.640166e+00
6.309352e-01
1.640166e+00
2.809215e+00
2.809215e+00
3.402568e+00
3.402568e+00
2.926731e+00
9.115364e-01
2.926731e+00
9.115364e-01
2.511930e+00
2.511930e+00
7.497111e-01
7.497111e-01
9.276300e-01
3.204931e+00
9.276300e-01
3.204931e+00
1.357517e-01
1.357517e-01
3.089721e-01
3.089721e-01
6.229138e-01
1.114250e-01
6.229138e-01
1.114250e-01
1.645043e-01
1.645043e-01
-3.429918e-02
-3.429918e-02
6.047771e-02
3.497098e-01
6.047771e-02
3.497098e-01
-3.300290e-02
-3.300290e-02
-1.237335e-01
-1.237335e-01
-1.130603e-01
-5.944015e-02
-1.130603e-01
-5.944015e-02
-8.939551e-02
-8.939551e-02
-1.384254e-02
-1.384254e-02
3.231778e-02
-5.876810e-02
3.231778e-02
-5.876810e-02
-2.579622e-02
-2.579622e-02
-5.942819e-02
-5.942819e-02
-4.030258e-02
1.287963e-02
-4.030258e-02
1.287963e-02
-8.871227e-02
-8.871227e-02
-8.267286e-02
-8.267286e-02
-2.383910e-02
-5.644963e-02
-2.383910e-02
-5.644963e-02
-9.833073e-03
-9.833073e-03
7.868465e-02
7.868465e-02
1.325162e-01
7.342962e-02
1.325162e-01
7.342962e-02
9.268751e-02
9.268751e-02
5.013677e-02
5.013677e-02
-1.254616e-02
7.685932e-02
-1.254616e-02
7.685932e-02
-9.518275e-03
-9.518275e-03
1.182237e-02
1.182237e-02
-6.305227e-03
-4.446179e-02
-6.305227e-03
-4.446179e-02
8.987602e-02
8.987602e-02
2.049137e-02
2.049137e-02
1.188200e-02
3.090357e-02
1.188200e-02
3.090357e-02
-2.775213e-02
-2.775213e-02
7.323757e-02
7.323757e-02
5.001884e-02
3.782270e-03
5.001884e-02
3.782270e-03
1.364829e-01
1.364829e-01
6.220823e-02
6.220823e-02
1.234891e-01
1.675489e-01
1.234891e-01
1.675489e-01
-4.641215e-02
-4.641215e-02
4.737231e-02
4.737231e-02
1.316878e-02
-1.728863e-02
1.316878e-02
-1.728863e-02
3.722611e-01
3.722611e-01
5.664809e-01
5.664809e-01
-1.780407e-01
-5.369409e-02
-1.780407e-01
-5.369409e-02
9.214334e-02
9.214334e-02
-1.082196e+00
-1.082196e+00
-1.624544e+00
-4.244745e-01
-1.624544e+00
-4.244745e-01
-2.264770e+00
-2.264770e+00
-2.513507e+00
-2.513507e+00
-2.291982e+00
-3.138790e+00
-2.291982e+00
-3.138790e+00
-1.202136e+00
-1.202136e+00
-3.067014e-03
-3.067014e-03
3.693782e+00
1.310641e+00
3.693782e+00
1.310641e+00
1.665948e+00
1.665948e+00
6.274779e+00
6.274779e+00
8.441709e+00
3.876069e+00
8.441709e+00
3.876069e+00
2.691735e+00
2.691735e+00
-2.987692e+00
-2.987692e+00
-4.180800e+00
6.406850e+00
-4.180800e+00
6.406850e+00
-1.910835e+00
-1.910835e+00
-3.167536e+00
-3.167536e+00
-6.540797e+00
-6.914122e+00
-6.540797e+00
-6.914122e+00
-3.991765e+00
-3.991765e+00
1.345787e-01
1.345787e-01
-1.729950e+00
-7.146103e+00
-1.729950e+00
-7.146103e+00
3.068357e+00
3.068357e+00
3.519797e-01
3.519797e-01
-1.076261e+00
2.681968e+00
-1.076261e+00
2.681968e+00
-4.384633e-01
-4.384633e-01
1.024841e+00
1.024841e+00
1.343155e+00
-1.519141e+00
1.343155e+00
-1.519141e+00
7.389210e-01
7.389210e-01
2.717706e-01
2.717706e-01
7.147672e-01
1.162282e+00
7.147672e-01
1.162282e+00
-8.579446e-02
-8.579446e-02
-6.145668e-02
-6.145668e-02
-2.024065e-02
-2.038700e-02
-2.024065e-02
-2.038700e-02
-4.806048e-02
-4.806048e-02
5.033256e-02
5.033256e-02
1.241428e-02
-4.912417e-02
1.241428e-02
-4.912417e-02
6.171621e-02
6.171621e-02
-3.401140e-02
-3.401140e-02
5.437932e-03
3.353489e-02
5.437932e-03
3.353489e-02
-1.161538e-02
-1.161538e-02
5.794591e-02
5.794591e-02
1.332960e-01
8.808553e-02
1.332960e-01
8.808553e-02
9.563160e-02
9.563160e-02
1.416912e-01
1.416912e-01
8.838954e-02
9.828609e-02
8.838954e-02
9.828609e-02
9.957472e-02
9.957472e-02
-3.606396e-02
-3.606396e-02
3.430119e-02
7.181461e-02
3.430119e-02
7.181461e-02
-5.213587e-02
-5.213587e-02
2.677472e-02
2.677472e-02
1.318827e-01
3.026990e-02
1.318827e-01
3.026990e-02
-2.898983e-02
-2.898983e-02
5.419109e-03
5.419109e-03
5.772249e-02
1.245531e-01
5.772249e-02
1.245531e-01
1.106164e-01
1.106164e-01
-1.842091e-02
-1.842091e-02
-3.842755e-02
1.873114e-01
-3.842755e-02
1.873114e-01
1.404081e-01
1.404081e-01
3.076081e-01
3.076081e-01
5.289641e-01
-4.674588e-02
5.289641e-01
-4.674588e-02
6.569456e-02
6.569456e-02
-2.672371e-01
-2.672371e-01
-1.045040e+00
2.759988e-01
-1.045040e+00
2.759988e-01
-1.002857e+00
-1.002857e+00
-1.369981e+00
-1.369981e+00
-1.881025e+00
-2.486426e+00
-1.881025e+00
-2.486426e+00
-6.257980e-01
-6.257980e-01
-5.434556e-01
-5.434556e-01
2.147926e+00
8.499011e-01
2.147926e+00
8.499011e-01
-1.795529e+00
-1.795529e+00
-6.442076e-01
-6.442076e-01
7.628312e-01
9.402091e-01
7.628312e-01
9.402091e-01
3.949644e+00
3.949644e+00
5.158475e+00
5.158475e+00
4.251485e+00
3.819403e+00
4.251485e+00
3.819403e+00
1.343870e+00
1.343870e+00
-1.361893e+00
-1.361893e+00
-8.453554e+00
-8.512971e-01
-8.453554e+00
-8.512971e-01
1.805942e+00
1.805942e+00
2.235787e-01
2.235787e-01
6.302362e+00
-2.013410e+00
6.302362e+00
-2.013410e+00
-5.390547e+00
-5.390547e+00
-5.369772e+00
-5.369772e+00
-2.334736e-01
1.210072e+00
-2.334736e-01
1.210072e+00
-4.140433e+00
-4.140433e+00
-4.470286e-01
-4.470286e-01
1.773155e+00
3.017916e+00
1.773155e+00
3.017916e+00
2.092446e+00
2.092446e+00
-1.981676e+00
-1.981676e+00
-7.143314e-01
6.771723e-01
-7.143314e-01
6.771723e-01
-2.455247e+00
-2.455247e+00
9.968963e-01
9.968963e-01
-3.205336e-01
-2.789744e+00
-3.205336e-01
-2.789744e+00
1.123166e+00
1.123166e+00
9.548396e-01
9.548396e-01
1.016366e+00
8.413971e-01
1.016366e+00
8.413971e-01
-1.504874e-03
-1.504874e-03
2.479259e-02
2.479259e-02
2.971487e-02
4.465453e-03
2.971487e-02
4.465453e-03
4.871023e-02
4.871023e-02
3.426630e-02
3.426630e-02
6.949364e-02
8.919166e-02
6.949364e-02
8.919166e-02
5.302017e-03
5.302017e-03
5.314884e-02
5.314884e-02
3.761193e-02
1.577368e-03
3.761193e-02
1.577368e-03
1.100991e-01
1.100991e-01
1.100260e-01
1.100260e-01
8.852152e-02
9.816012e-02
8.852152e-02
9.816012e-02
1.067304e-01
1.067304e-01
5.700809e-02
5.700809e-02
6.557637e-02
9.178492e-02
6.557637e-02
9.178492e-02
3.101852e-02
3.101852e-02
9.314084e-02
9.314084e-02
4.527563e-02
2.249503e-02
4.527563e-02
2.249503e-02
1.259261e-01
1.259261e-01
1.613281e-01
1.613281e-01
1.195344e-01
1.295662e-01
1.195344e-01
1.295662e-01
1.981927e-01
1.981927e-01
1.055191e-01
1.055191e-01
8.888869e-02
1.413520e-01
8.888869e-02
1.413520e-01
2.275913e-01
2.275913e-01
-3.755293e-02
-3.755293e-02
-8.036363e-02
1.161472e-01
-8.036363e-02
1.161472e-01
-2.990466e-01
-2.990466e-01
6.836714e-01
6.836714e-01
5.001574e-01
-3.410422e-01
5.001574e-01
-3.410422e-01
2.529132e-01
2.529132e-01
-2.511652e+00
-2.511652e+00
-3.637287e+00
-3.315120e-01
-3.637287e+00
-3.315120e-01
-3.409006e+00
-3.409006e+00
1.155687e-01
1.155687e-01
4.503709e+00
-2.295601e+00
4.503709e+00
-2.295601e+00
4.324640e+00
4.324640e+00
4.212025e+00
4.212025e+00
4.613002e+00
7.145225e+00
4.613002e+00
7.145225e+00
3.074425e+00
3.074425e+00
2.331451e+00
2.331451e+00
5.553429e+00
5.403646e+00
5.553429e+00
5.403646e+00
2.264735e+00
2.264735e+00
3.978119e+00
3.978119e+00
4.151088e+00
1.578449e+00
4.151088e+00
1.578449e+00
2.271311e+00
2.271311e+00
-4.829769e+00
-4.829769e+00
1.196704e+01
1.316249e+01
1.196704e+01
1.316249e+01
-7.478107e-01
-7.478107e-01
7.802629e+00
7.802629e+00
-4.254834e+00
1.732490e+00
-4.254834e+00
1.732490e+00
4.714927e+00
4.714927e+00
4.784637e+00
4.784637e+00
1.077126e+01
2.097292e+00
1.077126e+01
2.097292e+00
6.995585e+00
6.995585e+00
1.137169e+00
1.137169e+00
-1.517623e+00
3.447561e+00
-1.517623e+00
3.447561e+00
-1.141660e+00
-1.141660e+00
9.821801e-01
9.821801e-01
1.690401e-01
-1.743061e+00
1.690401e-01
-1.743061e+00
-2.229502e+00
-2.229502e+00
-2.154850e+00
-2.154850e+00
-4.585805e+00
-8.141026e-01
-4.585805e+00
-8.141026e-01
7.592929e-01
7.592929e-01
1.110577e+00
1.110577e+00
1.065864e+00
7.615183e-01
1.065864e+00
7.615183e-01
3.850023e-02
3.850023e-02
-9.098683e-03
-9.098683e-03
9.442721e-03
9.442721e-03
6.080328e-02
6.080328e-02
2.434746e-02
2.434746e-02
1.273400e-02
1.273400e-02
7.100599e-02
7.100599e-02
6.315248e-02
6.315248e-02
6.139688e-02
6.139688e-02
5.219084e-02
5.219084e-02
1.845411e-02
1.845411e-02
9.628946e-03
9.628946e-03
3.634391e-02
3.634391e-02
3.287837e-02
3.287837e-02
9.096981e-02
9.096981e-02
3.703722e-02
3.703722e-02
3.018627e-04
3.018627e-04
-7.110273e-02
-7.110273e-02
-2.486686e-01
-2.486686e-01
-5.888813e-02
-5.888813e-02
-1.429952e+00
-1.429952e+00
-3.754211e+00
-3.754211e+00
3.259498e-01
3.259498e-01
7.956824e+00
7.956824e+00
7.924232e+00
7.924232e+00
6.047968e+00
6.047968e+00
1.023878e+01
1.023878e+01
1.148342e+01
1.148342e+01
1.398588e+01
1.398588e+01
2.763618e+01
2.763618e+01
3.886527e+01
3.886527e+01
2.598184e+01
2.598184e+01
-2.339241e-01
-2.339241e-01
-2.627717e+01
-2.627717e+01
-2.301473e+01
-2.301473e+01
-4.708163e+00
-4.708163e+00
-5.695128e+00
-5.695128e+00
-2.457110e+00
-2.457110e+00
-3.127476e+00
-3.127476e+00
-1.534069e+00
-1.534069e+00
-3.538873e-01
-3.538873e-01
-5.887727e+00
-5.887727e+00
5.143228e-01
5.888215e-01
5.296855e-01
2.174658e-01
-8.062886e-02
-2.001385e-01
1.788656e-01
3.751103e-01
4.601449e-01
1.801069e-01
-7.699403e-02
-1.652670e-01
-1.945421e-01
9.008693e-02
3.548402e-01
1.872302e-01
-5.396014e-03
-5.028811e-02
-2.038283e-01
-1.510785e-03
2.542075e-01
2.344514e-01
1.085531e-01
5.581175e-02
-7.554661e-02
-5.831888e-02
6.971509e-02
2.003001e-01
1.550953e-01
9.011190e-02
1.117408e-02
-1.471818e-01
-1.226370e-01
1.653823e-01
1.852677e-01
1.000344e-01
-6.628673e-03
-1.720253e-01
-1.402289e-01
2.028481e-01
2.461840e-01
1.436359e-01
9.619091e-02
-6.320577e-02
-2.668714e-02
2.790676e-01
2.928938e-01
1.968806e-01
8.530196e-02
-1.527203e-02
5.851636e-02
3.111200e-01
2.793077e-01
1.692541e-01
-4.885526e-02
-5.525285e-02
5.664416e-02
2.121550e-01
1.557168e-01
6.206226e-02
-6.439787e-02
-6.184489e-02
2.797390e-02
1.218639e-01
6.112155e-02
-6.244944e-03
2.740826e-01
3.995881e-01
5.164211e-01
4.138681e-01
1.618889e-01
3.790232e-03
-7.015335e-02
1.515489e-01
4.147726e-01
3.534627e-01
1.320562e-01
1.348117e-02
-4.358372e-01
-1.664537e-01
2.199599e-01
2.607748e-01
1.207356e-01
5.691154e-02
-2.657791e-01
-1.463206e-01
1.155193e-01
2.417286e-01
1.539904e-01
8.242419e-02
-3.158448e-02
1.898594e-02
1.448680e-01
2.377082e-01
1.744332e-01
9.362972e-02
3.232833e-01
1.922048e-01
1.119335e-01
1.987258e-01
1.675930e-01
1.004751e-01
4.722504e-01
1.885413e-01
-2.216283e-02
1.672457e-01
1.957231e-01
1.077969e-01
1.841743e-01
1.968239e-02
-5.544242e-02
1.800607e-01
2.287386e-01
1.312804e-01
2.819947e-02
-7.056346e-02
-3.193270e-02
1.821736e-01
1.757448e-01
9.260340e-02
-4.075165e-02
-1.003679e-01
-4.572170e-02
1.029082e-01
7.302619e-02
8.776774e-03
-7.859185e-02
-1.071132e-01
-5.576297e-02
4.409942e-02
1.564615e-02
-3.279801e-02
9.016536e-02
7.087249e-02
3.016586e-01
5.628692e-01
3.900502e-01
2.060997e-01
-2.196561e-01
-1.884927e-01
2.360399e-01
5.622630e-01
3.330167e-01
1.709166e-01
-5.681608e-01
-5.896498e-01
-2.957837e-02
4.799568e-01
2.715152e-01
1.350989e-01
-1.820936e-01
-3.392640e-01
-3.002108e-02
3.947123e-01
2.413810e-01
1.297295e-01
2.394004e-01
3.424353e-01
3.507549e-01
3.251430e-01
2.714122e-01
1.485781e-01
3.398855e-01
5.994908e-01
4.291867e-01
1.663658e-01
2.646127e-01
1.957712e-01
5.958653e-01
4.628055e-01
1.368466e-01
7.043673e-02
1.862425e-01
1.755589e-01
3.338037e-01
1.271639e-01
-1.058476e-01
3.432628e-02
1.509419e-01
1.010120e-01
-4.276064e-02
-1.550574e-01
-2.244930e-01
-4.861491e-02
4.970813e-02
1.501421e-02
-5.301386e-02
-2.142943e-01
-2.644079e-01
-9.532995e-02
-5.346105e-02
-6.950320e-02
-1.010025e-01
-2.227325e-01
-2.388190e-01
-9.203765e-02
-7.482383e-02
-9.874779e-02
-1.681912e-01
-6.603762e-01
-4.256813e-01
4.483204e-01
4.295641e-01
2.636863e-01
3.145593e-01
-2.803836e-01
-1.620086e-02
7.548680e-01
4.144389e-01
1.620665e-01
4.277891e-02
-4.992024e-01
7.558651e-02
1.007358e+00
4.678607e-01
1.133623e-01
-8.378322e-02
-2.991101e-01
1.426804e-01
7.130957e-01
4.417984e-01
2.572032e-01
5.452778e-01
5.450683e-01
3.600459e-01
3.116171e-01
3.451959e-01
2.423907e-01
-3.248326e-01
4.229279e-01
3.370516e-01
-7.839572e-02
2.870786e-01
2.343634e-01
-5.013988e-01
2.740395e-01
2.811736e-01
-2.333450e-01
1.577846e-01
2.951286e-01
3.256608e-01
2.432085e-01
-5.317999e-02
-1.520036e-01
4.611420e-02
1.291193e-01
1.808512e-01
-9.530473e-02
-3.897405e-01
-2.542784e-01
-8.495068e-02
-6.936476e-02
-1.375664e-01
-3.979743e-01
-5.411509e-01
-3.169425e-01
-1.837397e-01
-1.575140e-01
-1.787515e-01
-4.114884e-01
-4.900494e-01
-2.697797e-01
-1.899644e-01
-1.762431e-01
-1.901433e+00
-2.416264e+00
-1.731475e+00
9.035974e-02
6.522654e-01
5.919562e-01
1.444632e+00
3.280985e-01
3.142738e-03
8.635521e-01
6.063979e-01
2.804118e-01
4.436087e+00
2.618108e+00
1.322320e+00
1.622712e+00
7.354705e-01
7.002569e-02
1.678866e+00
1.231180e+00
9.060277e-01
1.052922e+00
7.142525e-01
3.512237e-01
-3.072665e+00
-1.729902e+00
-1.144937e-01
2.315329e-01
3.362291e-01
3.675449e-01
-3.130610e+00
-1.720897e+00
-4.909396e-01
-3.173926e-01
1.227814e-01
2.096542e-01
-5.767314e-01
3.181140e-01
2.580353e-01
-3.927488e-01
5.989321e-02
2.083953e-01
4.275796e-01
6.053914e-01
3.317587e-01
-1.878003e-01
-1.110029e-01
3.390905e-02
4.747391e-01
1.409088e-01
-3.227186e-01
-4.569699e-01
-3.519989e-01
-2.425735e-01
-3.267154e-01
-6.784773e-01
-8.937109e-01
-6.285519e-01
-4.027891e-01
-3.056572e-01
-4.339213e-01
-7.476035e-01
-8.422531e-01
-5.339551e-01
-3.521736e-01
-2.596576e-01
-3.319995e+00
-3.580386e+00
-2.511428e+00
-2.004533e-01
8.210963e-01
8.610202e-01
2.140005e+00
9.119911e-01
1.413667e-01
8.150757e-01
7.088449e-01
3.862945e-01
8.327426e+00
5.478316e+00
2.349230e+00
1.856303e+00
8.313827e-01
1.941350e-02
3.488841e+00
2.673182e+00
1.489821e+00
1.220071e+00
8.282425e-01
3.384635e-01
-6.769462e+00
-3.961362e+00
-4.675903e-01
2.150015e-01
3.311197e-01
4.503171e-01
-5.567175e+00
-3.620260e+00
-1.144113e+00
-3.773316e-01
5.071281e-02
2.412081e-01
8.993599e-02
4.646521e-01
1.315132e-01
-3.095775e-01
3.144001e-02
1.056932e-01
5.992874e-01
8.761230e-01
6.423798e-01
-8.399471e-02
-1.769337e-01
-5.407684e-02
5.311575e-01
2.881672e-01
-1.925604e-01
-5.558399e-01
-5.068620e-01
-3.323418e-01
-4.516776e-01
-8.441115e-01
-1.085848e+00
-8.075400e-01
-5.353564e-01
-3.907839e-01
-6.195589e-01
-9.653138e-01
-1.042545e+00
-6.787612e-01
-4.442368e-01
-3.049735e-01
SCALARS S13 float 1
LOOKUP_TABLE default
1.179846e+00
1.321551e+00
3.141480e+00
2.105152e+00
1.179846e+00
1.321551e+00
3.141480e+00
2.105152e+00
4.806672e-01
3.739994e+00
4.806672e-01
3.739994e+00
1.513884e+01
9.525280e+00
1.513884e+01
9.525280e+00
3.353207e+00
3.353207e+00
-3.382140e-01
-1.031514e-01
-3.698103e-02
-3.127619e-01
-3.382140e-01
-1.031514e-01
-3.698103e-02
-3.127619e-01
1.420927e-01
2.880877e-01
1.420927e-01
2.880877e-01
8.922346e-02
2.174949e-01
8.922346e-02
2.174949e-01
5.286883e-03
5.286883e-03
2.134269e-01
-1.087965e-01
-2.207082e-01
2.134269e-01
-1.087965e-01
-2.207082e-01
1.748040e-01
1.210794e-01
1.748040e-01
1.210794e-01
4.459142e-02
-1.204242e-01
4.459142e-02
-1.204242e-01
5.342137e-02
5.342137e-02
6.271804e-02
3.958250e-02
4.802161e-03
-5.965811e-02
6.271804e-02
3.958250e-02
4.802161e-03
-5.965811e-02
3.168169e-01
1.191691e-01
3.168169e-01
1.191691e-01
-1.299276e-01
-9.440485e-02
-1.299276e-01
-9.440485e-02
-9.930052e-02
-9.930052e-02
6.574294e-02
-1.300802e-01
3.233008e-01
5.443289e-01
6.574294e-02
-1.300802e-01
3.233008e-01
5.443289e-01
8.195613e-01
8.195613e-01
1.310943e+00
1.310943e+00
1.298028e-01
5.817552e-02
3.469046e-03
1.171442e-01
1.298028e-01
5.817552e-02
3.469046e-03
1.171442e-01
-3.974465e-02
-3.974465e-02
7.104926e-02
7.104926e-02
2.039046e-01
1.030608e-01
2.188838e-01
2.391596e-01
2.039046e-01
1.030608e-01
2.188838e-01
2.391596e-01
-9.770132e-02
1.205398e-01
-9.770132e-02
1.205398e-01
1.567746e-01
6.716679e-02
1.567746e-01
6.716679e-02
-1.248273e-01
-1.248273e-01
-5.565772e-02
7.090143e-02
-1.240143e-01
-1.185712e-01
-5.565772e-02
7.090143e-02
-1.240143e-01
-1.185712e-01
8.954210e-02
-1.693826e-01
8.954210e-02
-1.693826e-01
-3.398314e-01
-2.309752e-01
-3.398314e-01
-2.309752e-01
-5.326796e-02
-5.326796e-02
4.909168e-01
3.161311e+00
2.134416e+00
1.522181e+00
4.909168e-01
3.161311e+00
2.134416e+00
1.522181e+00
7.772424e+00
2.250186e+00
7.772424e+00
2.250186e+00
-6.694884e-01
-2.454058e-02
-6.694884e-01
-2.454058e-02
1.137350e-01
1.137350e-01
-6.400908e-01
-1.909160e-01
1.436362e-01
-6.400908e-01
-1.909160e-01
1.436362e-01
1.532121e-01
-9.362907e-03
1.532121e-01
-9.362907e-03
2.821533e-01
2.821533e-01
1.780024e-01
1.780024e-01
-2.052375e-01
-5.400821e-02
-2.052375e-01
-5.400821e-02
-1.100576e+00
-8.799811e-01
-9.993411e-01
-1.090526e+00
-1.100576e+00
-8.799811e-01
-9.993411e-01
-1.090526e+00
-1.158220e+00
-1.158220e+00
-7.089859e-02
1.586386e-01
-2.035163e-02
-3.500538e-01
-7.089859e-02
1.586386e-01
-2.035163e-02
-3.500538e-01
1.202207e-01
1.202207e-01
-8.601887e-01
-8.601887e-01
-3.856742e-01
-3.856742e-01
-8.055908e-01
-8.055908e-01
-1.345966e-02
-1.345966e-02
-1.643433e-01
-1.643433e-01
2.698743e-02
3.195633e-01
2.698743e-02
3.195633e-01
5.900955e-01
5.900955e-01
2.179027e+00
1.772994e+00
2.179027e+00
1.772994e+00
1.692373e+00
1.692373e+00
1.176755e+00
2.293255e-01
1.176755e+00
2.293255e-01
6.620287e-01
3.761405e-01
6.620287e-01
3.761405e-01
4.377713e-01
6.098726e-02
4.377713e-01
6.098726e-02
4.012422e-01
4.012422e-01
1.114461e-01
1.114461e-01
-3.090462e-02
6.359988e-02
-3.090462e-02
6.359988e-02
1.551989e-01
1.551989e-01
1.292757e-01
7.300825e-02
1.292757e-01
7.300825e-02
-3.127170e-02
1.133788e-02
-1.776427e-01
4.992947e-02
-3.127170e-02
1.133788e-02
-1.776427e-01
4.992947e-02
-9.908900e-04
-9.097125e-02
-9.908900e-04
-9.097125e-02
-1.793906e-01
-2.400695e-01
-1.793906e-01
-2.400695e-01
7.954579e-02
3.694016e-02
1.495444e-01
9.965874e-02
7.954579e-02
3.694016e-02
1.495444e-01
9.965874e-02
6.484334e-02
2.078804e-01
6.484334e-02
2.078804e-01
1.851047e-01
2.107115e-01
1.851047e-01
2.107115e-01
1.549211e-01
1.549211e-01
-2.129918e-01
-1.071702e-01
-2.129918e-01
-1.071702e-01
-3.208413e-01
-3.208413e-01
-2.851610e-01
-2.851610e-01
2.805639e-01
1.060716e-01
1.651165e-01
4.877699e-01
2.805639e-01
1.060716e-01
1.651165e-01
4.877699e-01
-5.490374e-02
-5.490374e-02
1.892843e-01
1.892843e-01
2.860072e-01
2.680549e-01
1.064408e-01
1.981157e-01
2.860072e-01
2.680549e-01
1.064408e-01
1.981157e-01
-2.513651e-02
-2.513651e-02
-2.648414e-02
-6.420118e-02
-4.982518e-02
-8.706830e-02
-2.648414e-02
-6.420118e-02
-4.982518e-02
-8.706830e-02
-1.164688e-01
-1.164688e-01
1.895497e-01
1.226947e-01
1.895497e-01
1.226947e-01
1.870616e-01
1.813441e-01
1.870616e-01
1.813441e-01
1.260443e-01
1.260443e-01
9.452623e-02
9.452623e-02
1.171876e-01
1.171876e-01
-8.437290e-02
-9.672524e-02
-8.437290e-02
-9.672524e-02
1.888952e-01
-1.860558e-02
1.888952e-01
-1.860558e-02
-1.629473e-01
-1.629473e-01
7.603535e-02
1.457837e-01
-1.536419e-01
-1.744514e-01
7.603535e-02
1.457837e-01
-1.536419e-01
-1.744514e-01
-4.354331e-04
-4.354331e-04
-1.386187e-01
-1.386187e-01
1.350008e+00
7.382974e-01
1.002853e+00
6.937099e-01
1.350008e+00
7.382974e-01
1.002853e+00
6.937099e-01
-2.844857e-03
-2.844857e-03
-1.925878e-01
-1.925878e-01
-1.067411e-01
-1.067411e-01
-1.092493e-01
1.058373e-01
-1.092493e-01
1.058373e-01
1.207363e+00
1.207363e+00
6.864424e-01
6.864424e-01
1.461096e+00
6.112848e-01
1.461096e+00
6.112848e-01
3.216880e-01
3.216880e-01
1.889707e-01
1.889707e-01
2.349018e-01
3.760984e-01
2.349018e-01
3.760984e-01
1.252829e-01
1.823074e-01
1.252829e-01
1.823074e-01
1.653061e+00
1.827500e+00
9.280415e-01
1.574541e+00
1.653061e+00
1.827500e+00
9.280415e-01
1.574541e+00
-1.051283e-01
-1.051283e-01
-4.496667e-02
-4.496667e-02
1.722440e+00
2.057906e+00
1.722440e+00
2.057906e+00
2.943178e+00
1.331520e+01
2.943178e+00
1.331520e+01
-1.417941e-01
-1.417941e-01
1.738257e-01
1.738257e-01
-1.520741e-01
-2.146077e-02
-1.520741e-01
-2.146077e-02
-2.521172e-01
-2.521172e-01
-9.702041e-02
-8.665650e-02
-9.702041e-02
-8.665650e-02
-2.738354e-02
-2.738354e-02
-1.996978e-01
-1.996978e-01
-1.508552e-01
-1.508552e-01
-1.999087e-01
-1.540151e-01
-1.999087e-01
-1.540151e-01
-1.355553e-01
-1.355553e-01
1.507429e-02
1.507429e-02
-1.130326e-01
-2.153430e-01
-1.130326e-01
-2.153430e-01
5.864137e-02
5.864137e-02
-4.510367e-02
-4.510367e-02
7.805412e-02
4.187743e-02
7.805412e-02
4.187743e-02
-7.527323e-02
-7.527323e-02
-7.156547e-02
-7.156547e-02
-1.180510e-01
-3.962442e-02
-1.180510e-01
-3.962442e-02
-5.557539e-04
-9.498666e-02
-5.557539e-04
-9.498666e-02
1.113419e-02
1.113419e-02
-1.292429e-02
1.569754e-02
-1.292429e-02
1.569754e-02
-4.523419e-02
-4.523419e-02
-1.139370e-01
-1.139370e-01
-1.648046e-01
-1.648046e-01
-1.598687e-01
-9.988059e-02
-1.598687e-01
-9.988059e-02
-1.404804e-01
-1.404804e-01
-1.838216e-01
-1.838216e-01
-5.557684e-02
-2.396820e-02
-5.557684e-02
-2.396820e-02
-1.009054e-01
-1.009054e-01
-6.712426e-03
-6.712426e-03
-2.139041e-01
-1.975359e-01
-2.139041e-01
-1.975359e-01
-6.668115e-02
-6.668115e-02
-9.785629e-02
-9.785629e-02
-1.343804e-01
-1.721311e-01
-1.343804e-01
-1.721311e-01
-1.951089e-02
7.784967e-04
-1.951089e-02
7.784967e-04
-5.591276e-02
-5.591276e-02
-4.828935e-02
-4.303132e-02
-4.828935e-02
-4.303132e-02
-6.852778e-03
-6.852778e-03
-2.592820e-02
-2.592820e-02
-2.378059e-02
-2.378059e-02
1.105830e-01
5.566772e-02
1.105830e-01
5.566772e-02
4.418393e-02
4.418393e-02
3.379175e-02
3.379175e-02
1.086725e-01
1.097561e-01
1.086725e-01
1.097561e-01
-1.023836e-01
-1.023836e-01
-2.224889e-01
-2.224889e-01
-8.805182e-02
1.380428e-02
-8.805182e-02
1.380428e-02
-2.275860e-01
-2.275860e-01
-1.816595e-01
-1.816595e-01
-1.063275e-02
-6.250271e-02
-1.063275e-02
-6.250271e-02
-5.300224e-02
-5.162209e-02
-5.300224e-02
-5.162209e-02
-5.807658e-02
-5.807658e-02
-1.052013e-01
-1.503232e-01
-1.052013e-01
-1.503232e-01
-1.117684e-01
-1.117684e-01
2.662606e-02
2.662606e-02
1.678203e-01
1.678203e-01
1.065353e-01
-4.030332e-03
1.065353e-01
-4.030332e-03
1.924583e-01
1.924583e-01
9.244511e-02
9.244511e-02
2.999076e-03
9.032423e-02
2.999076e-03
9.032423e-02
2.280908e-02
2.280908e-02
3.262763e-02
3.262763e-02
1.155508e-01
3.350511e-02
1.155508e-01
3.350511e-02
1.002311e-01
1.002311e-01
1.554498e-01
1.554498e-01
2.501510e-02
7.653483e-02
2.501510e-02
7.653483e-02
-1.748094e-01
-9.738447e-02
-1.748094e-01
-9.738447e-02
-1.889332e-01
-1.889332e-01
-2.471093e-01
-1.152687e-01
-2.471093e-01
-1.152687e-01
-5.767700e-02
-5.767700e-02
-1.082697e-01
-1.082697e-01
-5.823595e-02
-5.823595e-02
-1.465857e-01
-2.357258e-01
-1.465857e-01
-2.357258e-01
-3.534026e-02
-3.534026e-02
-1.743517e-02
-1.743517e-02
1.019051e-01
1.387046e-02
1.019051e-01
1.387046e-02
-1.349682e-02
-1.349682e-02
1.020924e-01
1.020924e-01
5.190410e-02
1.845795e-02
5.190410e-02
1.845795e-02
1.111850e-01
1.111850e-01
1.698453e-02
1.698453e-02
1.442580e-01
1.449401e-01
1.442580e-01
1.449401e-01
-1.425425e-01
-8.401404e-02
-1.425425e-01
-8.401404e-02
-2.287249e-01
-2.287249e-01
-1.873494e-01
-1.718098e-01
-1.873494e-01
-1.718098e-01
-1.228259e-01
-1.228259e-01
-2.319016e-01
-2.319016e-01
-1.420512e-01
-1.420512e-01
-1.109266e-01
-2.284820e-01
-1.109266e-01
-2.284820e-01
4.130129e-02
4.130129e-02
1.846917e-01
1.846917e-01
9.560826e-02
1.978936e-02
9.560826e-02
1.978936e-02
1.314525e-01
1.314525e-01
3.341806e-02
3.341806e-02
5.800905e-02
1.536847e-01
5.800905e-02
1.536847e-01
5.268386e-02
5.268386e-02
8.193914e-02
8.193914e-02
-3.566607e-02
-2.603521e-02
-3.566607e-02
-2.603521e-02
-1.013973e-01
-9.244813e-02
-1.013973e-01
-9.244813e-02
-1.047071e-01
-1.047071e-01
-1.003763e-01
-3.537441e-02
-1.003763e-01
-3.537441e-02
5.293172e-02
5.293172e-02
-2.488391e-01
-2.488391e-01
-2.071170e-01
-2.071170e-01
-3.436306e-01
-2.474609e-01
-3.436306e-01
-2.474609e-01
-5.260171e-02
-5.260171e-02
-4.674724e-03
-4.674724e-03
-4.715992e-02
-2.171308e-01
-4.715992e-02
-2.171308e-01
8.142031e-02
8.142031e-02
6.898375e-02
6.898375e-02
-1.428549e-03
1.480768e-02
-1.428549e-03
1.480768e-02
-4.700880e-02
-4.700880e-02
-9.328558e-02
-9.328558e-02
-4.177028e-03
-1.105262e-02
-4.177028e-03
-1.105262e-02
-1.107610e-01
3.280331e-02
-1.107610e-01
3.280331e-02
-2.270619e-01
-2.270619e-01
-2.900903e-01
-2.747726e-01
-2.900903e-01
-2.747726e-01
-2.000399e-01
-2.000399e-01
-2.457278e-01
-2.457278e-01
-2.511564e-01
-2.511564e-01
3.769125e-02
-1.277529e-01
3.769125e-02
-1.277529e-01
-1.826132e-01
-1.826132e-01
3.291816e-02
3.291816e-02
2.332830e-01
1.042924e-01
2.332830e-01
1.042924e-01
1.352838e-01
1.352838e-01
6.628721e-02
6.628721e-02
2.144184e-01
3.263187e-01
2.144184e-01
3.263187e-01
6.440352e-02
6.440352e-02
9.854698e-02
9.854698e-02
2.250198e-02
6.673526e-02
2.250198e-02
6.673526e-02
-2.613311e-01
-2.616078e-01
-2.613311e-01
-2.616078e-01
-2.249756e-01
-2.249756e-01
-1.109500e-01
-1.070129e-01
-1.109500e-01
-1.070129e-01
-1.126824e-01
-1.126824e-01
-4.560484e-02
-4.560484e-02
1.913590e-01
1.913590e-01
1.265445e-01
-3.411976e-02
1.265445e-01
-3.411976e-02
2.707325e-01
2.707325e-01
3.315641e-01
3.315641e-01
2.306404e-01
1.957678e-01
2.306404e-01
1.957678e-01
3.507739e-01
3.507739e-01
2.038193e-01
2.038193e-01
1.135710e-01
2.143534e-01
1.135710e-01
2.143534e-01
1.302315e-02
1.302315e-02
-7.014872e-02
-7.014872e-02
-8.025475e-02
-7.288385e-03
-8.025475e-02
-7.288385e-03
1.578344e-01
1.479694e-01
1.578344e-01
1.479694e-01
1.173566e-01
1.173566e-01
4.200391e-01
4.600831e-01
4.200391e-01
4.600831e-01
3.125914e-01
3.125914e-01
1.080157e-01
1.080157e-01
8.748030e-02
8.748030e-02
4.850537e-02
2.272665e-01
4.850537e-02
2.272665e-01
1.089410e-01
1.089410e-01
8.089688e-02
8.089688e-02
-7.018355e-02
8.903889e-03
-7.018355e-02
8.903889e-03
2.613146e-02
2.613146e-02
1.438136e-02
1.438136e-02
-1.028525e-01
-1.315602e-01
-1.028525e-01
-1.315602e-01
-5.296422e-02
-5.296422e-02
-1.238786e-01
-1.238786e-01
-1.526938e-01
-1.217949e-01
-1.526938e-01
-1.217949e-01
4.791525e-01
2.571276e-01
4.791525e-01
2.571276e-01
5.623434e-01
5.623434e-01
5.015018e-01
3.922879e-01
5.015018e-01
3.922879e-01
2.362127e-01
2.362127e-01
2.907108e-01
2.907108e-01
-1.579813e-02
-1.579813e-02
-2.403281e-02
3.032532e-01
-2.403281e-02
3.032532e-01
-1.182274e-01
-1.182274e-01
-1.573806e-01
-1.573806e-01
-1.706897e-01
-1.278477e-01
-1.706897e-01
-1.278477e-01
-2.064026e-01
-2.064026e-01
-1.650400e-01
-1.650400e-01
-2.850605e-01
-2.955441e-01
-2.850605e-01
-2.955441e-01
-8.755407e-02
-8.755407e-02
-5.763708e-02
-5.763708e-02
-5.805031e-02
-1.435154e-01
-5.805031e-02
-1.435154e-01
3.781610e-01
2.824090e-01
3.781610e-01
2.824090e-01
3.626773e-01
3.626773e-01
1.654748e-01
2.951765e-01
1.654748e-01
2.951765e-01
2.386448e-01
2.386448e-01
1.939674e-01
1.939674e-01
-2.464847e-02
-2.464847e-02
-3.902411e-02
3.743715e-02
-3.902411e-02
3.743715e-02
-1.461969e-01
-1.461969e-01
-2.843736e-01
-2.843736e-01
-3.652548e-01
-1.911730e-01
-3.652548e-01
-1.911730e-01
-4.665773e-01
-4.665773e-01
-4.857222e-01
-4.857222e-01
-4.916472e-01
-5.313346e-01
-4.916472e-01
-5.313346e-01
-3.005916e-01
-3.005916e-01
-1.684343e-01
-1.684343e-01
-1.291289e-01
-2.429537e-01
-1.291289e-01
-2.429537e-01
1.273558e-01
1.702661e-01
1.273558e-01
1.702661e-01
-3.557393e-02
-3.557393e-02
-9.356484e-02
-3.477072e-02
-9.356484e-02
-3.477072e-02
5.280742e-02
5.280742e-02
-6.682378e-02
-6.682378e-02
-6.462439e-02
-6.462439e-02
-9.091364e-02
-7.764004e-02
-9.091364e-02
-7.764004e-02
-1.769609e-01
-1.769609e-01
-3.318979e-01
-3.318979e-01
-1.711052e-01
-1.038878e-01
-1.711052e-01
-1.038878e-01
-4.315264e-01
-4.315264e-01
-3.239928e-01
-3.239928e-01
-1.351477e-01
-2.039693e-01
-1.351477e-01
-2.039693e-01
-1.203729e-01
-1.203729e-01
-5.445967e-02
-5.445967e-02
-1.496037e-01
-1.249415e-01
-1.496037e-01
-1.249415e-01
-5.525728e-02
1.153495e-04
-5.525728e-02
1.153495e-04
-2.597989e-02
-2.597989e-02
2.733541e-02
-1.244324e-02
2.733541e-02
-1.244324e-02
4.152709e-02
4.152709e-02
-6.384390e-02
-6.384390e-02
-1.105042e-01
-1.105042e-01
-1.208213e-01
-5.802396e-02
-1.208213e-01
-5.802396e-02
-5.001947e-02
-5.001947e-02
-3.460600e-02
-3.460600e-02
-3.824317e-02
-5.548668e-02
-3.824317e-02
-5.548668e-02
-7.016923e-02
-7.016923e-02
-5.525836e-02
-5.525836e-02
-7.524406e-02
-9.237903e-02
-7.524406e-02
-9.237903e-02
-7.430284e-02
-7.430284e-02
-1.049053e-01
-1.049053e-01
3.185282e-02
-1.928130e-03
3.185282e-02
-1.928130e-03
-1.514173e-02
-4.294784e-02
-1.069735e-01
-5.550924e-02
-1.514173e-02
-4.294784e-02
-1.069735e-01
-5.550924e-02
-6.423647e-02
-1.737573e-01
-6.423647e-02
-1.737573e-01
-2.879838e-01
-1.781104e-01
-2.879838e-01
-1.781104e-01
-8.497172e-02
-8.497172e-02
-8.703293e-02
-2.111610e-01
-8.703293e-02
-2.111610e-01
-5.937823e-02
-1.326523e-01
-5.937823e-02
-1.326523e-01
-9.282068e-02
-2.756174e-01
-9.282068e-02
-2.756174e-01
-1.026939e-01
-1.641790e-01
-1.026939e-01
-1.641790e-01
-6.173799e-02
-6.173799e-02
-1.632079e-01
-6.867507e-02
-1.632079e-01
-6.867507e-02
-2.481472e-01
-2.481472e-01
-1.984041e-01
-1.804250e-01
-1.984041e-01
-1.804250e-01
-8.558742e-02
-8.558742e-02
-2.071036e-01
-2.071036e-01
-5.935140e-02
-5.935140e-02
-2.262485e-01
-2.537961e-01
-2.262485e-01
-2.537961e-01
2.722202e-02
2.722202e-02
9.311922e-03
9.311922e-03
-2.187350e-01
-8.714188e-02
-2.187350e-01
-8.714188e-02
-2.970632e-01
-2.970632e-01
-3.169255e-01
-2.141512e-01
-3.169255e-01
-2.141512e-01
-6.226495e-02
-6.226495e-02
-4.224277e-01
-4.224277e-01
-3.718748e-01
-3.718748e-01
-3.162958e-01
-3.551691e-01
-3.162958e-01
-3.551691e-01
-1.201256e-02
-1.201256e-02
-1.556205e-02
-1.556205e-02
-1.126329e-01
-4.325838e-02
-1.126329e-01
-4.325838e-02
-1.801005e-01
-1.801005e-01
-6.962718e-02
3.796861e-03
-6.962718e-02
3.796861e-03
-1.453378e-02
-1.453378e-02
-1.945067e-01
-1.945067e-01
-1.545398e-01
-1.545398e-01
-1.523885e-02
-1.215495e-01
-1.523885e-02
-1.215495e-01
4.864097e-02
4.864097e-02
1.020950e-01
1.020950e-01
-1.835844e-02
-4.435298e-02
-1.835844e-02
-4.435298e-02
1.422599e-02
1.422599e-02
-3.396331e-02
-8.754489e-02
-3.396331e-02
-8.754489e-02
-3.686325e-02
-3.686325e-02
1.349812e-02
1.349812e-02
5.227928e-02
5.227928e-02
8.430762e-02
5.654428e-02
8.430762e-02
5.654428e-02
8.700378e-02
8.700378e-02
7.296829e-02
7.296829e-02
-2.505000e-02
6.287302e-02
-2.505000e-02
6.287302e-02
-9.807555e-02
-9.807555e-02
-7.277300e-02
5.224150e-02
-7.277300e-02
5.224150e-02
1.119162e-01
1.119162e-01
-5.387983e-02
-5.387983e-02
1.633244e-02
1.633244e-02
-6.427871e-02
-1.240254e-01
-6.427871e-02
-1.240254e-01
7.332830e-02
7.332830e-02
9.053505e-02
9.053505e-02
-3.198170e-02
2.091391e-01
-3.198170e-02
2.091391e-01
-9.928941e-02
-9.928941e-02
9.252334e-03
1.680344e-01
9.252334e-03
1.680344e-01
4.992076e-01
4.992076e-01
-1.089113e-01
-1.089113e-01
-7.103669e-02
-7.103669e-02
-1.325869e-01
-6.673535e-02
-1.325869e-01
-6.673535e-02
-9.060023e-02
-9.060023e-02
-7.237327e-02
-7.237327e-02
-1.727909e-01
-1.786361e-01
-1.727909e-01
-1.786361e-01
-1.176190e-01
-1.176190e-01
-1.400466e-01
-1.400466e-01
-1.273797e-01
-1.930069e-01
-1.273797e-01
-1.930069e-01
-1.110976e-01
-1.110976e-01
-1.043444e-01
-1.043444e-01
-1.031309e-01
-8.010782e-02
-1.031309e-01
-8.010782e-02
-2.500264e-02
-2.500264e-02
8.710567e-02
8.710567e-02
5.534495e-02
-3.178977e-03
5.534495e-02
-3.178977e-03
6.241700e-02
6.241700e-02
9.431091e-03
9.431091e-03
-1.811936e-02
4.903433e-01
-1.811936e-02
4.903433e-01
1.027226e-01
1.027226e-01
2.286212e-02
-1.309650e-01
2.286212e-02
-1.309650e-01
2.427879e-01
2.427879e-01
1.136893e-02
1.136893e-02
-8.458718e-02
-8.458718e-02
-2.273375e-02
-4.370542e-02
-2.273375e-02
-4.370542e-02
-2.003656e-01
-2.003656e-01
-1.390591e-01
-1.390591e-01
-7.721232e-02
-1.443494e-01
-7.721232e-02
-1.443494e-01
-1.167921e-01
-1.167921e-01
-9.411793e-02
-9.411793e-02
-4.205830e-03
-8.727152e-03
-4.205830e-03
-8.727152e-03
-5.129125e-02
-5.129125e-02
-4.689449e-02
-4.689449e-02
9.572974e-04
8.995241e-03
9.572974e-04
8.995241e-03
-2.395277e-02
-2.395277e-02
4.146530e-03
4.146530e-03
-8.728388e-02
-4.221414e-02
-8.728388e-02
-4.221414e-02
-2.449886e-02
-2.449886e-02
-8.276486e-02
-8.276486e-02
-9.548214e-02
-9.548214e-02
-1.987341e-02
-1.987341e-02
-3.354322e-02
-1.090834e-01
-3.354322e-02
-1.090834e-01
-4.706355e-02
-4.706355e-02
-2.486068e-02
-2.486068e-02
6.062106e-02
6.795465e-02
6.062106e-02
6.795465e-02
1.670161e-01
1.670161e-01
1.249005e-01
1.249005e-01
9.811186e-02
1.344073e-01
9.811186e-02
1.344073e-01
-4.445782e-03
-4.445782e-03
3.734423e-02
3.734423e-02
9.736512e-03
-1.132074e-01
9.736512e-03
-1.132074e-01
-4.369150e-02
-4.369150e-02
9.839920e-02
9.839920e-02
1.450592e-01
6.446091e-02
1.450592e-01
6.446091e-02
4.311254e-03
4.311254e-03
7.599550e-02
7.599550e-02
9.101083e-02
4.130839e-03
9.101083e-02
4.130839e-03
-8.804783e-02
-8.804783e-02
-4.311582e-02
-4.311582e-02
-3.523082e-01
7.522728e-02
-3.523082e-01
7.522728e-02
-1.081375e-01
4.769754e-01
-1.081375e-01
4.769754e-01
1.532663e-01
4.273235e-01
1.532663e-01
4.273235e-01
3.568612e-02
1.670515e-01
3.568612e-02
1.670515e-01
1.583690e-02
1.119881e-02
2.230559e-02
6.628003e-02
1.583690e-02
1.119881e-02
2.230559e-02
6.628003e-02
-9.431755e-03
-7.316013e-02
-9.431755e-03
-7.316013e-02
-2.755721e-02
-2.548398e-02
-2.755721e-02
-2.548398e-02
3.524368e-02
3.524368e-02
1.500896e-01
2.956471e-02
8.088862e-02
6.252182e-02
1.500896e-01
2.956471e-02
8.088862e-02
6.252182e-02
-1.050076e-01
-1.807819e-02
-1.050076e-01
-1.807819e-02
9.441550e-02
8.254601e-02
9.441550e-02
8.254601e-02
2.949977e-02
2.949977e-02
9.394678e-03
6.188495e-02
-5.042298e-02
-9.198525e-02
9.394678e-03
6.188495e-02
-5.042298e-02
-9.198525e-02
-5.174166e-02
-6.129919e-02
-5.174166e-02
-6.129919e-02
-1.983643e-02
-8.079989e-02
-1.983643e-02
-8.079989e-02
-6.194731e-02
-6.194731e-02
2.020081e-01
1.335389e-01
-8.483945e-02
2.020081e-01
1.335389e-01
-8.483945e-02
8.560056e-02
9.844720e-02
8.560056e-02
9.844720e-02
3.576555e-02
-7.222734e-03
3.576555e-02
-7.222734e-03
-1.530470e-01
-1.530470e-01
1.755143e-02
-5.598698e-02
-1.482117e-01
-2.003941e-01
1.755143e-02
-5.598698e-02
-1.482117e-01
-2.003941e-01
-8.229061e-02
-8.229061e-02
-6.604475e-02
-6.604475e-02
-6.642272e-02
-8.769413e-02
-4.131737e-02
-4.666442e-02
-6.642272e-02
-8.769413e-02
-4.131737e-02
-4.666442e-02
-2.007192e-01
-3.140462e-02
-2.007192e-01
-3.140462e-02
-1.851757e-02
1.127507e-01
-1.851757e-02
1.127507e-01
5.944643e-02
5.944643e-02
9.833307e-02
2.220920e-01
3.630348e-01
7.200573e-01
9.833307e-02
2.220920e-01
3.630348e-01
7.200573e-01
1.997454e-02
1.997454e-02
2.221969e-01
2.221969e-01
8.597788e-01
8.597788e-01
-1.013317e-01
-7.380696e-02
-1.013317e-01
-7.380696e-02
-3.832311e-02
-3.832311e-02
-2.225940e-02
-3.950306e-02
-2.225940e-02
-3.950306e-02
4.779771e-02
4.779771e-02
4.266685e-02
1.069334e-01
7.753944e-02
5.687420e-02
4.266685e-02
1.069334e-01
7.753944e-02
5.687420e-02
9.136165e-02
9.136165e-02
9.121739e-02
-2.552368e-02
9.121739e-02
-2.552368e-02
-4.674220e-02
-4.674220e-02
2.162057e-02
2.176184e-02
6.051838e-02
3.827009e-03
2.162057e-02
2.176184e-02
6.051838e-02
3.827009e-03
-3.315467e-02
-1.379273e-02
-3.315467e-02
-1.379273e-02
2.584819e-02
2.584819e-02
4.301104e-03
-6.929989e-02
4.301104e-03
-6.929989e-02
-7.640519e-03
-7.640519e-03
-3.939272e-01
-3.033241e-01
-1.097703e-01
-1.466379e-01
-3.939272e-01
-3.033241e-01
-1.097703e-01
-1.466379e-01
-1.122278e-01
-1.122278e-01
2.482035e-01
2.482035e-01
1.290211e-01
7.795644e-02
1.290211e-01
7.795644e-02
3.498925e-01
3.498925e-01
2.224317e-02
1.260587e-01
2.224317e-02
1.260587e-01
3.338269e-02
-9.778825e-02
-4.064019e-02
3.338269e-02
-9.778825e-02
-4.064019e-02
-1.688628e-01
-1.688628e-01
-6.101997e-02
-6.101997e-02
-1.427079e-01
-7.931811e-02
-3.930070e-02
5.656123e-02
-1.427079e-01
-7.931811e-02
-3.930070e-02
5.656123e-02
-2.012973e-01
-1.191045e-01
-2.012973e-01
-1.191045e-01
1.537447e-01
1.537447e-01
4.119432e-01
4.119432e-01
-3.603636e-01
-3.920146e-01
-8.232723e-02
-2.378473e-01
-3.603636e-01
-3.920146e-01
-8.232723e-02
-2.378473e-01
-2.492245e-01
-8.294144e-03
-2.492245e-01
-8.294144e-03
-2.518226e-01
-1.911186e-01
-2.518226e-01
-1.911186e-01
-1.864905e-01
-1.864905e-01
-8.744338e-02
-1.392826e-02
-3.648761e-03
7.629234e-02
-8.744338e-02
-1.392826e-02
-3.648761e-03
7.629234e-02
-1.532386e-01
-1.532386e-01
-2.781020e-02
-2.781020e-02
-1.031691e-01
-1.031691e-01
-1.856112e-01
-1.856112e-01
-4.355296e-02
-6.811897e-02
-4.355296e-02
-6.811897e-02
-7.446171e-01
-4.324229e-01
-2.914500e-01
-6.064323e-01
-7.446171e-01
-4.324229e-01
-2.914500e-01
-6.064323e-01
-2.539151e-01
-1.837562e-01
-2.539151e-01
-1.837562e-01
2.253765e-01
-9.784722e-01
2.253765e-01
-9.784722e-01
-1.772646e+00
-1.772646e+00
-1.534821e-01
-2.032993e-01
-1.534821e-01
-2.032993e-01
-1.278441e-01
-1.278441e-01
-7.747359e-02
-1.665142e-01
-7.747359e-02
-1.665142e-01
-2.092874e-01
-2.092874e-01
8.784711e-02
4.498167e-02
8.784711e-02
4.498167e-02
1.596297e-01
1.596297e-01
2.342247e-01
2.342247e-01
-1.445040e-01
-1.445040e-01
-5.462862e-01
-4.990912e-01
-5.462862e-01
-4.990912e-01
-8.325265e-01
-8.325265e-01
-2.568103e-02
1.753892e-01
-2.568103e-02
1.753892e-01
-1.233601e-01
-2.473179e-02
-1.233601e-01
-2.473179e-02
-1.159583e-02
1.148090e-02
2.220667e-02
-5.305789e-02
-1.159583e-02
1.148090e-02
2.220667e-02
-5.305789e-02
-2.513660e-02
1.245303e-02
-2.513660e-02
1.245303e-02
-2.634191e-02
-2.634191e-02
3.684041e-02
-9.622500e-02
3.684041e-02
-9.622500e-02
5.713432e-02
5.713432e-02
1.286260e-02
1.286260e-02
-7.745902e-02
-7.745902e-02
-2.017033e-02
-1.056489e-01
-2.017033e-02
-1.056489e-01
-8.785171e-03
-7.171512e-02
-8.785171e-03
-7.171512e-02
-2.336116e-01
-2.336116e-01
-1.206227e-01
-1.206227e-01
1.076043e-01
1.076043e-01
-6.454789e-02
-6.454789e-02
-1.154544e-01
-1.154544e-01
-8.512893e-02
-8.512893e-02
-3.579647e-02
-1.973392e-02
-3.579647e-02
-1.973392e-02
-2.020614e-01
-2.638913e-01
-2.020614e-01
-2.638913e-01
3.049807e-01
3.049807e-01
-1.196654e-01
-1.196654e-01
1.321101e-01
1.321101e-01
2.982682e-02
2.982682e-02
1.100053e-02
2.161523e-01
1.100053e-02
2.161523e-01
-8.083684e-02
-8.083684e-02
1.341217e-02
3.923081e-02
1.341217e-02
3.923081e-02
-1.077341e-02
-1.077341e-02
-1.202612e-02
-3.233749e-02
-1.202612e-02
-3.233749e-02
-8.567436e-02
5.631119e-02
-8.567436e-02
5.631119e-02
2.258439e-01
2.594928e-03
2.258439e-01
2.594928e-03
-1.829391e-01
2.677747e-02
-1.829391e-01
2.677747e-02
-5.974967e-02
-6.733858e-02
-5.974967e-02
-6.733858e-02
-1.260432e-02
1.463224e-01
-1.260432e-02
1.463224e-01
8.256084e-02
4.922724e-02
8.256084e-02
4.922724e-02
3.722635e-02
2.883800e-02
3.722635e-02
2.883800e-02
5.229342e-02
8.795815e-02
5.229342e-02
8.795815e-02
1.100885e-03
-1.085236e-02
1.100885e-03
-1.085236e-02
-8.315043e-02
-9.665364e-05
-8.315043e-02
-9.665364e-05
-5.446272e-03
-2.052841e-02
-5.446272e-03
-2.052841e-02
-8.288878e-02
-2.516927e-02
-8.288878e-02
-2.516927e-02
5.724623e-02
4.802773e-02
5.724623e-02
4.802773e-02
-6.351428e-02
-9.066460e-02
-6.351428e-02
-9.066460e-02
3.037268e-02
-4.972775e-02
3.037268e-02
-4.972775e-02
-7.651297e-02
-1.063478e-01
-7.651297e-02
-1.063478e-01
-2.639775e-02
-3.606536e-02
-2.639775e-02
-3.606536e-02
2.099260e-04
2.751007e-02
2.099260e-04
2.751007e-02
5.600268e-02
8.404092e-02
5.600268e-02
8.404092e-02
-5.312340e-02
1.810574e-03
-5.312340e-02
1.810574e-03
-2.609173e-02
3.100404e-02
-2.609173e-02
3.100404e-02
-6.654700e-03
2.371650e-03
-6.654700e-03
2.371650e-03
4.378492e-02
-3.754388e-02
4.378492e-02
-3.754388e-02
3.336566e-02
6.557728e-02
3.336566e-02
6.557728e-02
1.534171e-02
1.147543e-02
1.534171e-02
1.147543e-02
-8.989123e-02
4.293683e-02
-8.989123e-02
4.293683e-02
6.071188e-02
-9.125845e-02
6.071188e-02
-9.125845e-02
1.007316e-01
-2.264248e-02
1.007316e-01
-2.264248e-02
-3.292597e-02
-1.547903e-01
-3.292597e-02
-1.547903e-01
3.605776e-02
1.051509e-01
3.605776e-02
1.051509e-01
-3.135795e-02
1.273899e-01
-3.135795e-02
1.273899e-01
1.072133e-01
1.196102e-01
1.072133e-01
1.196102e-01
-8.599059e-03
3.488332e-02
-8.599059e-03
3.488332e-02
-4.031923e-03
-5.609407e-02
-4.031923e-03
-5.609407e-02
4.276685e-02
4.043858e-02
4.276685e-02
4.043858e-02
-2.398092e-03
-8.732958e-02
-2.398092e-03
-8.732958e-02
3.673853e-02
6.872278e-03
3.673853e-02
6.872278e-03
9.688654e-03
-3.205734e-02
9.688654e-03
-3.205734e-02
8.078600e-02
8.380135e-02
8.078600e-02
8.380135e-02
1.104859e-01
6.406345e-02
1.104859e-01
6.406345e-02
4.370303e-02
8.172567e-02
4.370303e-02
8.172567e-02
-2.270222e-02
-2.270222e-02
1.113657e-01
1.113657e-01
-3.094729e-02
6.933757e-02
-3.094729e-02
6.933757e-02
3.682388e-02
3.682388e-02
-1.087810e-02
-1.087810e-02
1.141597e-03
-4.189576e-02
1.141597e-03
-4.189576e-02
5.790980e-03
5.790980e-03
-6.937152e-02
-6.937152e-02
-8.681143e-02
-1.003107e-01
-8.681143e-02
-1.003107e-01
-7.794346e-02
-7.794346e-02
3.568227e-03
3.568227e-03
6.959369e-02
8.111008e-03
6.959369e-02
8.111008e-03
-5.139189e-02
-5.139189e-02
-9.378821e-02
-9.378821e-02
-4.408268e-02
8.744711e-03
-4.408268e-02
8.744711e-03
3.841281e-02
3.841281e-02
1.089333e-01
1.089333e-01
3.922561e-02
5.887400e-02
3.922561e-02
5.887400e-02
4.258272e-02
4.258272e-02
-3.162221e-02
-3.162221e-02
1.174870e-01
2.246550e-02
1.174870e-01
2.246550e-02
-1.351138e-02
-1.351138e-02
5.333925e-02
5.333925e-02
1.588476e-02
1.084975e-01
1.588476e-02
1.084975e-01
2.536145e-02
2.536145e-02
-9.713479e-02
-9.713479e-02
1.695435e-02
2.685420e-02
1.695435e-02
2.685420e-02
-1.172973e-01
-1.172973e-01
4.427876e-02
4.427876e-02
-3.583896e-02
-8.821824e-02
-3.583896e-02
-8.821824e-02
9.976046e-02
9.976046e-02
-1.608401e-04
-1.608401e-04
-1.506649e-02
1.072632e-02
-1.506649e-02
1.072632e-02
4.323632e-02
4.323632e-02
6.086885e-02
6.086885e-02
-7.771423e-02
-2.005485e-02
-7.771423e-02
-2.005485e-02
-2.019033e-02
-2.019033e-02
2.390485e-02
2.390485e-02
2.952611e-02
-4.325336e-02
2.952611e-02
-4.325336e-02
-5.821196e-03
-5.821196e-03
-9.090973e-02
-9.090973e-02
-1.915754e-01
-7.960967e-02
-1.915754e-01
-7.960967e-02
1.059415e-01
1.059415e-01
-2.628526e-02
-2.628526e-02
-1.043987e-03
-2.883750e-03
-1.043987e-03
-2.883750e-03
1.468747e-03
1.468747e-03
7.277700e-03
7.277700e-03
-3.597456e-02
3.248515e-02
-3.597456e-02
3.248515e-02
-6.632847e-02
-6.632847e-02
1.684143e-02
1.684143e-02
4.458937e-02
-3.613639e-02
4.458937e-02
-3.613639e-02
-1.164870e-02
-1.164870e-02
-1.184082e-02
-1.184082e-02
-5.985080e-02
-6.452334e-02
-5.985080e-02
-6.452334e-02
-3.480909e-02
-3.480909e-02
-5.167237e-02
-5.167237e-02
-1.530582e-02
-7.734731e-04
-1.530582e-02
-7.734731e-04
5.991891e-02
5.991891e-02
-2.014305e-03
-2.014305e-03
6.452796e-02
5.976632e-02
6.452796e-02
5.976632e-02
-1.571162e-02
-1.571162e-02
8.335284e-02
8.335284e-02
-4.016974e-02
-8.591444e-05
-4.016974e-02
-8.591444e-05
6.977352e-02
6.977352e-02
3.212645e-03
3.212645e-03
5.649849e-02
-1.581714e-02
5.649849e-02
-1.581714e-02
4.740210e-02
4.740210e-02
6.539968e-02
6.539968e-02
6.245979e-02
9.890443e-02
6.245979e-02
9.890443e-02
-5.881362e-02
-5.881362e-02
-5.506240e-02
-5.506240e-02
-1.843154e-02
-2.884803e-02
-1.843154e-02
-2.884803e-02
-9.076363e-03
-9.076363e-03
-4.267755e-02
-4.267755e-02
-7.462931e-02
1.718918e-02
-7.462931e-02
1.718918e-02
-8.851666e-02
-8.851666e-02
-6.505193e-02
-6.505193e-02
6.187205e-02
-6.615484e-02
6.187205e-02
-6.615484e-02
2.572104e-02
2.572104e-02
3.224677e-02
3.224677e-02
-1.512847e-03
5.057683e-02
-1.512847e-03
5.057683e-02
-7.306367e-02
-7.306367e-02
-1.519192e-01
-1.519192e-01
-9.433491e-02
-4.490640e-02
-9.433491e-02
-4.490640e-02
-5.427134e-02
-5.427134e-02
1.607034e-02
1.607034e-02
-2.385616e-02
-2.999593e-02
-2.385616e-02
-2.999593e-02
5.277496e-02
5.277496e-02
-7.702466e-02
-7.702466e-02
-8.501573e-02
5.417048e-03
-8.501573e-02
5.417048e-03
-9.241641e-02
-9.241641e-02
1.277764e-02
1.277764e-02
-4.264961e-02
-1.129863e-01
-4.264961e-02
-1.129863e-01
-3.535656e-02
-3.535656e-02
-4.030200e-02
-4.030200e-02
-3.608567e-02
-5.459371e-02
-3.608567e-02
-5.459371e-02
6.198921e-02
6.198921e-02
4.031170e-02
4.031170e-02
7.592957e-05
4.291230e-02
7.592957e-05
4.291230e-02
4.250191e-02
4.250191e-02
1.253326e-01
1.253326e-01
1.253279e-01
3.551802e-03
1.253279e-01
3.551802e-03
8.163868e-02
8.163868e-02
-2.392593e-02
-2.392593e-02
7.901255e-02
1.611435e-01
7.901255e-02
1.611435e-01
-2.072546e-02
-2.072546e-02
4.204751e-02
4.204751e-02
-1.153068e-01
-5.903782e-02
-1.153068e-01
-5.903782e-02
2.145962e-02
2.145962e-02
-3.035458e-03
-3.035458e-03
-1.272141e-01
-1.332065e-01
-1.272141e-01
-1.332065e-01
8.736799e-03
8.736799e-03
-4.170206e-02
-4.170206e-02
-3.611925e-02
-4.025155e-02
-3.611925e-02
-4.025155e-02
-1.030536e-02
-1.030536e-02
2.530861e-02
2.530861e-02
1.093331e-01
2.499862e-02
1.093331e-01
2.499862e-02
3.095116e-02
3.095116e-02
6.968902e-02
6.968902e-02
1.179082e-02
4.958969e-02
1.179082e-02
4.958969e-02
-5.244516e-03
-5.244516e-03
-4.122603e-02
-4.122603e-02
-3.475495e-02
-1.652913e-02
-3.475495e-02
-1.652913e-02
-3.401719e-02
-3.401719e-02
-6.392852e-02
-6.392852e-02
-6.258173e-02
-4.123073e-02
-6.258173e-02
-4.123073e-02
3.374634e-02
3.374634e-02
-7.250804e-02
-7.250804e-02
-8.271569e-02
6.697480e-02
-8.271569e-02
6.697480e-02
-5.619711e-02
-5.619711e-02
3.319838e-03
3.319838e-03
9.161815e-02
-5.774057e-02
9.161815e-02
-5.774057e-02
-1.881445e-02
-1.881445e-02
-7.755085e-02
-7.755085e-02
-8.569234e-02
5.867100e-02
-8.569234e-02
5.867100e-02
-3.818562e-02
-3.818562e-02
2.056553e-02
2.056553e-02
7.122034e-02
-3.842195e-03
7.122034e-02
-3.842195e-03
-2.526885e-02
-2.526885e-02
-1.569780e-02
-1.569780e-02
3.589313e-03
-6.481020e-02
3.589313e-03
-6.481020e-02
2.522273e-02
2.522273e-02
4.029379e-02
4.029379e-02
-1.907906e-03
7.116706e-02
-1.907906e-03
7.116706e-02
1.023200e-01
1.023200e-01
7.145402e-02
7.145402e-02
7.666288e-03
3.534790e-02
7.666288e-03
3.534790e-02
-9.984252e-02
-9.984252e-02
-1.430329e-01
-1.430329e-01
-6.272766e-02
-1.021955e-01
-6.272766e-02
-1.021955e-01
-1.101116e-01
-1.101116e-01
-1.094181e-01
-1.094181e-01
-3.842821e-02
-3.368365e-02
-3.842821e-02
-3.368365e-02
-8.788234e-03
-8.788234e-03
1.226787e-02
1.226787e-02
4.526160e-02
9.761731e-02
4.526160e-02
9.761731e-02
-4.392851e-02
-4.392851e-02
1.791039e-02
1.791039e-02
-7.397370e-02
-1.753668e-01
-7.397370e-02
-1.753668e-01
9.442770e-02
9.442770e-02
7.632844e-02
7.632844e-02
1.583066e-01
1.814907e-01
1.583066e-01
1.814907e-01
1.421964e-02
1.421964e-02
-1.029404e-02
-1.029404e-02
3.529241e-03
1.878815e-02
3.529241e-03
1.878815e-02
1.796246e-02
1.796246e-02
4.203467e-02
4.203467e-02
1.470536e-01
8.663555e-02
1.470536e-01
8.663555e-02
1.829233e-02
4.081932e-02
1.829233e-02
4.081932e-02
1.327379e-02
1.327379e-02
7.840054e-03
9.701028e-03
7.840054e-03
9.701028e-03
7.405295e-02
7.405295e-02
1.120429e-02
1.120429e-02
5.321333e-03
5.321333e-03
7.824742e-03
1.623116e-02
7.824742e-03
1.623116e-02
-2.158886e-03
-2.158886e-03
-3.306633e-03
-3.306633e-03
8.122576e-03
7.394144e-03
8.122576e-03
7.394144e-03
1.246519e-02
1.246519e-02
1.035324e-02
1.035324e-02
5.891490e-03
4.391560e-03
5.891490e-03
4.391560e-03
-1.440088e-02
-1.440088e-02
-1.887895e-02
-1.887895e-02
-1.104473e-02
-6.987508e-03
-1.104473e-02
-6.987508e-03
-1.511838e-02
-1.511838e-02
-9.245016e-03
-9.245016e-03
-5.684072e-03
-1.426986e-03
-5.684072e-03
-1.426986e-03
1.545468e-03
1.545468e-03
1.584150e-02
1.584150e-02
2.442182e-02
6.759027e-03
2.442182e-02
6.759027e-03
3.300059e-02
3.300059e-02
4.073210e-02
4.073210e-02
2.992461e-02
2.663098e-02
2.992461e-02
2.663098e-02
2.669832e-03
6.786595e-02
2.669832e-03
6.786595e-02
1.356160e-03
1.356160e-03
-5.383039e-03
4.091422e-03
-5.383039e-03
4.091422e-03
5.998492e-02
5.998492e-02
1.530809e-02
1.530809e-02
6.246532e-03
6.246532e-03
-8.820323e-03
-8.597329e-03
-8.820323e-03
-8.597329e-03
9.993980e-03
9.993980e-03
1.010279e-02
1.010279e-02
4.684647e-03
8.964383e-03
4.684647e-03
8.964383e-03
-4.314387e-03
-4.314387e-03
4.233785e-03
4.233785e-03
8.438481e-03
-4.468884e-03
8.438481e-03
-4.468884e-03
4.627005e-03
4.627005e-03
5.629241e-04
5.629241e-04
2.941802e-03
9.691162e-03
2.941802e-03
9.691162e-03
5.064952e-03
5.064952e-03
-7.058577e-03
-7.058577e-03
-3.711267e-03
5.804651e-04
-3.711267e-03
5.804651e-04
-5.144401e-03
-5.144401e-03
1.724248e-02
1.724248e-02
-1.708865e-03
-6.438480e-03
-1.708865e-03
-6.438480e-03
2.955257e-02
2.955257e-02
3.235670e-02
3.235670e-02
1.560079e-02
8.544495e-03
1.560079e-02
8.544495e-03
5.544771e-03
5.338763e-02
5.544771e-03
5.338763e-02
-2.133838e-03
-2.133838e-03
1.100966e-04
-1.420352e-03
1.100966e-04
-1.420352e-03
2.241802e-02
2.241802e-02
-1.724029e-02
-1.724029e-02
-8.350628e-03
-8.350628e-03
-2.056625e-03
-5.659964e-03
-2.056625e-03
-5.659964e-03
9.566060e-03
9.566060e-03
-4.631151e-03
-4.631151e-03
-8.627973e-03
1.321343e-03
-8.627973e-03
1.321343e-03
-9.823996e-03
-9.823996e-03
2.361144e-03
2.361144e-03
-2.390948e-03
-1.151915e-02
-2.390948e-03
-1.151915e-02
7.252569e-03
7.252569e-03
-2.904382e-03
-2.904382e-03
-2.602618e-03
7.559688e-03
-2.602618e-03
7.559688e-03
-6.658681e-03
-6.658681e-03
4.602375e-03
4.602375e-03
5.058227e-03
-8.219475e-03
5.058227e-03
-8.219475e-03
4.687523e-03
4.687523e-03
-7.900000e-03
-7.900000e-03
-9.094403e-03
6.752141e-03
-9.094403e-03
6.752141e-03
-7.246398e-03
-7.246398e-03
2.068864e-03
2.068864e-03
1.987529e-03
-8.871907e-03
1.987529e-03
-8.871907e-03
-5.330135e-03
7.446765e-03
-5.330135e-03
7.446765e-03
-8.502612e-03
-8.502612e-03
-2.342112e-03
2.611930e-03
-2.342112e-03
2.611930e-03
5.194738e-03
5.194738e-03
-8.345182e-03
-8.345182e-03
-2.015925e-03
-2.015925e-03
-9.755086e-04
-4.933098e-03
-9.755086e-04
-4.933098e-03
5.469693e-04
5.469693e-04
-2.737407e-04
-2.737407e-04
3.659649e-03
-4.049987e-04
3.659649e-03
-4.049987e-04
-1.109673e-02
-1.109673e-02
-1.018683e-02
-1.018683e-02
-1.740236e-02
-1.100348e-02
-1.740236e-02
-1.100348e-02
1.070350e-02
1.070350e-02
7.661116e-03
7.661116e-03
2.121108e-02
1.321361e-02
2.121108e-02
1.321361e-02
-1.529981e-02
-1.529981e-02
-8.738393e-03
-8.738393e-03
-1.111153e-02
-1.348255e-02
-1.111153e-02
-1.348255e-02
6.736662e-04
6.736662e-04
-1.807169e-02
-1.807169e-02
-1.492835e-02
6.411489e-03
-1.492835e-02
6.411489e-03
-1.743161e-02
-1.743161e-02
-5.083425e-03
-5.083425e-03
-6.235668e-03
-1.800184e-02
-6.235668e-03
-1.800184e-02
-1.703731e-02
1.491890e-02
-1.703731e-02
1.491890e-02
-7.874797e-03
-7.874797e-03
-2.063590e-02
-4.577919e-02
-2.063590e-02
-4.577919e-02
5.885958e-03
5.885958e-03
1.015500e-02
1.015500e-02
-1.464062e-03
-1.464062e-03
-1.868357e-02
-4.712510e-03
-1.868357e-02
-4.712510e-03
-1.083815e-02
-1.083815e-02
6.008650e-04
6.008650e-04
-9.303381e-04
-8.897041e-03
-9.303381e-04
-8.897041e-03
-6.346960e-03
-6.346960e-03
-1.128709e-02
-1.128709e-02
-1.106058e-03
-6.694571e-03
-1.106058e-03
-6.694571e-03
8.262096e-03
8.262096e-03
1.644177e-02
1.644177e-02
5.944466e-03
2.017298e-03
5.944466e-03
2.017298e-03
-6.308189e-03
-6.308189e-03
-7.556244e-03
-7.556244e-03
-1.324527e-02
-3.846891e-03
-1.324527e-02
-3.846891e-03
6.713311e-03
6.713311e-03
-1.232934e-02
-1.232934e-02
-2.003598e-02
-1.295989e-02
-2.003598e-02
-1.295989e-02
-1.051360e-02
-1.051360e-02
8.990858e-03
8.990858e-03
2.797534e-02
2.804248e-03
2.797534e-02
2.804248e-03
-4.219071e-02
-1.631309e-02
-4.219071e-02
-1.631309e-02
-1.511995e-02
-1.511995e-02
-1.254187e-02
-2.344299e-02
-1.254187e-02
-2.344299e-02
-3.683067e-02
-3.683067e-02
-2.085499e-02
-2.085499e-02
-2.825331e-02
-2.825331e-02
-1.732190e-02
-2.397837e-02
-1.732190e-02
-2.397837e-02
-8.130582e-03
-8.130582e-03
-8.313883e-03
-8.313883e-03
-7.095074e-03
-3.046616e-03
-7.095074e-03
-3.046616e-03
-7.932650e-03
-7.932650e-03
3.040151e-03
3.040151e-03
-1.681276e-03
-6.496457e-03
-1.681276e-03
-6.496457e-03
-5.505688e-07
-5.505688e-07
4.061442e-03
4.061442e-03
5.144139e-03
-1.922742e-03
5.144139e-03
-1.922742e-03
1.269609e-03
1.269609e-03
-7.480812e-03
-7.480812e-03
-4.442072e-03
1.429327e-03
-4.442072e-03
1.429327e-03
-1.164973e-02
-1.164973e-02
-1.441291e-02
-1.441291e-02
-3.320159e-03
4.130353e-03
-3.320159e-03
4.130353e-03
3.549836e-03
3.549836e-03
1.751399e-02
1.751399e-02
-8.576960e-03
-1.187777e-02
-8.576960e-03
-1.187777e-02
2.560824e-02
3.984899e-02
2.074317e-02
2.819733e-02
2.560824e-02
3.984899e-02
2.074317e-02
2.819733e-02
-2.966101e-04
-9.389406e-03
-2.966101e-04
-9.389406e-03
-1.722929e-02
-1.728925e-02
-1.722929e-02
-1.728925e-02
4.452718e-03
4.452718e-03
-3.501573e-02
-2.908295e-02
-3.501573e-02
-2.908295e-02
1.587734e-02
1.587734e-02
-1.225031e-02
-3.257834e-02
-1.225031e-02
-3.257834e-02
-4.948363e-02
-4.948363e-02
3.945942e-02
9.956328e-03
3.945942e-02
9.956328e-03
-1.578328e-02
-1.578328e-02
3.470158e-02
4.039554e-02
3.470158e-02
4.039554e-02
3.964370e-02
3.964370e-02
-7.596157e-02
-3.739989e-02
-7.596157e-02
-3.739989e-02
-3.092967e-03
-3.092967e-03
8.981798e-03
1.123618e-02
8.981798e-03
1.123618e-02
-1.727262e-02
-1.727262e-02
1.829209e-01
8.404826e-02
1.829209e-01
8.404826e-02
1.190543e-01
1.190543e-01
8.556390e-02
3.991206e-02
8.556390e-02
3.991206e-02
-3.015434e-03
-3.015434e-03
-7.939317e-02
-9.324053e-02
-7.939317e-02
-9.324053e-02
5.029741e-02
5.029741e-02
6.676377e-02
-3.661110e-04
6.676377e-02
-3.661110e-04
-2.847687e-02
-2.847687e-02
1.352343e-02
4.614733e-02
1.352343e-02
4.614733e-02
-9.350666e-02
-9.350666e-02
-2.308809e-01
-6.279335e-02
-2.308809e-01
-6.279335e-02
4.754373e-02
4.754373e-02
3.095995e-02
4.932496e-02
3.095995e-02
4.932496e-02
1.120727e-01
6.190167e-02
1.120727e-01
6.190167e-02
-6.041972e-02
6.611851e-03
-6.041972e-02
6.611851e-03
7.261389e-02
-3.611597e-02
7.261389e-02
-3.611597e-02
-8.233477e-02
-8.233477e-02
2.899848e-02
2.899848e-02
-6.861894e-02
-6.861894e-02
-3.423400e-03
1.027241e-02
-3.423400e-03
1.027241e-02
-1.085871e-01
-1.085871e-01
-6.401415e-02
-6.401415e-02
-7.057084e-03
-7.057084e-03
4.838247e-02
4.838247e-02
4.745486e-02
4.490141e-02
4.745486e-02
4.490141e-02
6.278335e-02
6.278335e-02
2.615858e-02
2.615858e-02
-3.050039e-02
-3.050039e-02
-8.262473e-02
-8.262473e-02
-1.277439e-01
-1.122556e-01
-1.277439e-01
-1.122556e-01
-1.175293e-01
-1.175293e-01
-8.769191e-02
-8.769191e-02
-4.202350e-03
-4.202350e-03
-3.493316e-02
-3.493316e-02
-1.430422e-01
-5.217352e-03
-1.430422e-01
-5.217352e-03
3.349573e-02
3.349573e-02
-2.817837e-02
-2.817837e-02
-7.797478e-02
-7.797478e-02
-1.573509e-01
-1.573509e-01
4.821499e-02
-1.591516e-02
4.821499e-02
-1.591516e-02
4.191161e-02
4.191161e-02
8.129322e-02
8.129322e-02
-2.742571e-02
-2.742571e-02
1.267892e-01
1.267892e-01
1.175183e-01
-1.115537e-01
1.175183e-01
-1.115537e-01
-6.572736e-02
-6.572736e-02
4.470725e-02
4.470725e-02
7.535968e-02
7.535968e-02
-2.161539e-02
-2.161539e-02
-1.585739e-02
4.300490e-02
-1.585739e-02
4.300490e-02
-6.577157e-02
-6.577157e-02
1.457862e-02
1.457862e-02
2.708908e-02
2.708908e-02
6.271112e-03
6.271112e-03
-2.198636e-02
-1.031835e-02
-2.198636e-02
-1.031835e-02
-7.473726e-02
-7.473726e-02
-3.004603e-02
-3.004603e-02
1.898189e-02
-4.714765e-02
1.898189e-02
-4.714765e-02
4.361474e-02
4.361474e-02
1.283723e-02
1.283723e-02
-1.106258e-03
5.050452e-02
-1.106258e-03
5.050452e-02
9.901647e-02
9.901647e-02
2.383325e-02
2.383325e-02
5.010700e-02
1.114389e-01
5.010700e-02
1.114389e-01
-3.011973e-02
-3.011973e-02
-1.641522e-02
-1.641522e-02
-1.034252e-01
-5.466756e-02
-1.034252e-01
-5.466756e-02
-1.643039e-02
-1.643039e-02
-2.179853e-02
-2.179853e-02
-2.332660e-02
-7.327384e-02
-2.332660e-02
-7.327384e-02
-2.531805e-03
-2.531805e-03
4.891555e-02
4.891555e-02
-3.192434e-02
-1.083191e-01
-3.192434e-02
-1.083191e-01
2.422976e-02
2.422976e-02
-2.628242e-02
-2.628242e-02
3.329125e-02
2.689868e-02
3.329125e-02
2.689868e-02
-7.152328e-02
-7.152328e-02
-5.333149e-02
-5.333149e-02
-3.042046e-02
-1.376317e-02
-3.042046e-02
-1.376317e-02
-7.886551e-02
-7.886551e-02
-1.016254e-01
-1.016254e-01
-7.736518e-03
4.606364e-02
-7.736518e-03
4.606364e-02
-4.459254e-02
-4.459254e-02
6.414781e-02
6.414781e-02
4.173163e-02
-3.817907e-02
4.173163e-02
-3.817907e-02
9.003108e-02
9.003108e-02
3.831803e-02
3.831803e-02
3.532419e-02
8.180541e-02
3.532419e-02
8.180541e-02
7.106575e-02
7.106575e-02
7.683323e-02
7.683323e-02
1.384585e-02
1.633849e-02
1.384585e-02
1.633849e-02
4.651487e-03
4.651487e-03
-2.560047e-02
-2.560047e-02
-4.183678e-02
1.256762e-03
-4.183678e-02
1.256762e-03
1.985702e-02
1.985702e-02
7.301138e-03
7.301138e-03
-8.125890e-03
-2.254162e-02
-8.125890e-03
-2.254162e-02
5.245194e-02
5.245194e-02
4.087391e-03
4.087391e-03
3.792580e-02
1.084028e-01
3.792580e-02
1.084028e-01
-3.991907e-03
-3.991907e-03
-7.518818e-02
-7.518818e-02
-9.669369e-02
8.508538e-03
-9.669369e-02
8.508538e-03
-8.902568e-02
-8.902568e-02
-2.429504e-02
-2.429504e-02
-3.538473e-02
-1.237024e-01
-3.538473e-02
-1.237024e-01
-2.985445e-02
4.780862e-04
-2.985445e-02
4.780862e-04
-3.417123e-03
1.881932e-03
-3.417123e-03
1.881932e-03
-4.928714e-03
-3.981221e-03
-4.928714e-03
-3.981221e-03
7.889825e-03
5.749822e-04
7.889825e-03
5.749822e-04
-3.075825e-04
-6.938000e-03
-3.075825e-04
-6.938000e-03
4.592801e-03
5.935729e-03
4.592801e-03
5.935729e-03
-2.135049e-02
-1.743887e-02
-2.135049e-02
-1.743887e-02
-5.171340e-02
-2.503373e-02
-5.171340e-02
-2.503373e-02
-5.526192e-03
-2.813237e-03
-5.526192e-03
-2.813237e-03
-3.597212e-02
-3.735663e-02
-3.597212e-02
-3.735663e-02
-1.730386e-02
-3.268460e-02
-1.730386e-02
-3.268460e-02
-4.111700e-02
-2.902001e-02
-4.111700e-02
-2.902001e-02
-2.063530e-02
-1.839621e-02
-2.063530e-02
-1.839621e-02
-1.947686e-02
-2.207126e-02
-1.947686e-02
-2.207126e-02
-2.394292e-02
-3.323561e-02
-2.394292e-02
-3.323561e-02
-4.026679e-02
-2.365068e-02
-4.026679e-02
-2.365068e-02
-1.539274e-02
-1.539274e-02
-3.374160e-03
-3.374160e-03
-4.979740e-03
-4.979740e-03
1.356573e-03
1.750555e-03
1.356573e-03
1.750555e-03
-6.328399e-03
-6.328399e-03
-7.643134e-03
-7.643134e-03
-1.197645e-02
-8.994573e-03
-1.197645e-02
-8.994573e-03
-3.278288e-03
-3.278288e-03
-6.036778e-03
-6.036778e-03
-3.950784e-03
-5.857150e-03
-3.950784e-03
-5.857150e-03
-1.325859e-02
-1.325859e-02
-2.021642e-02
-2.021642e-02
-2.517315e-03
-4.652021e-03
-2.517315e-03
-4.652021e-03
-2.786391e-02
-2.786391e-02
-2.348607e-02
-2.348607e-02
-1.375856e-02
-5.713766e-03
-1.375856e-02
-5.713766e-03
-2.433213e-02
-2.433213e-02
-1.441959e-02
-1.441959e-02
-6.532751e-03
-6.532751e-03
-2.775784e-03
-2.775784e-03
-4.662087e-03
-1.085043e-02
-4.662087e-03
-1.085043e-02
-3.921495e-04
-3.921495e-04
-2.094196e-03
-2.094196e-03
1.148678e-02
7.555829e-03
1.148678e-02
7.555829e-03
-9.071090e-03
-9.071090e-03
-1.065894e-02
-1.065894e-02
-1.112516e-02
1.493795e-03
-1.112516e-02
1.493795e-03
-1.055408e-02
-1.055408e-02
-4.853673e-03
-4.853673e-03
1.049177e-03
-1.040708e-02
1.049177e-03
-1.040708e-02
-2.349371e-03
-2.349371e-03
-5.560393e-03
-5.560393e-03
-1.359943e-02
-5.968926e-03
-1.359943e-02
-5.968926e-03
2.613911e-03
2.613911e-03
-4.052758e-03
-4.052758e-03
-3.038520e-03
-3.038520e-03
-9.908679e-04
-9.908679e-04
-3.644583e-03
2.373584e-03
-3.644583e-03
2.373584e-03
3.136821e-03
3.136821e-03
8.386749e-03
8.386749e-03
-8.933361e-03
-8.482822e-03
-8.933361e-03
-8.482822e-03
1.261273e-02
1.261273e-02
4.293212e-03
4.293212e-03
5.885834e-03
-1.135770e-03
5.885834e-03
-1.135770e-03
-4.654283e-03
-4.654283e-03
-1.078105e-03
-1.078105e-03
-6.984961e-03
9.778374e-04
-6.984961e-03
9.778374e-04
-7.575879e-03
-7.575879e-03
-1.165740e-02
-1.165740e-02
8.244929e-04
-4.522402e-03
8.244929e-04
-4.522402e-03
-7.179742e-03
-7.179742e-03
-2.539455e-03
-2.539455e-03
-4.346918e-03
-4.346918e-03
-1.479554e-03
-1.479554e-03
-3.338773e-03
-8.540664e-03
-3.338773e-03
-8.540664e-03
2.022685e-05
2.022685e-05
-5.973264e-03
-5.973264e-03
9.638714e-03
9.337673e-03
9.638714e-03
9.337673e-03
-9.013049e-03
-9.013049e-03
-4.582689e-03
-4.582689e-03
-6.036132e-03
9.694746e-04
-6.036132e-03
9.694746e-04
-2.239437e-03
-2.239437e-03
-1.711819e-03
-1.711819e-03
5.428815e-03
-6.713024e-03
5.428815e-03
-6.713024e-03
3.552719e-03
3.552719e-03
-6.649764e-04
-6.649764e-04
-6.056166e-03
6.605521e-03
-6.056166e-03
6.605521e-03
-4.983758e-03
-4.983758e-03
-8.384077e-04
-8.384077e-04
4.078891e-03
4.078891e-03
-6.189071e-03
-6.189071e-03
5.007944e-03
1.087290e-02
5.007944e-03
1.087290e-02
-7.939110e-03
-7.939110e-03
-4.116754e-03
-4.116754e-03
-1.870577e-02
-8.474039e-03
-1.870577e-02
-8.474039e-03
2.036608e-03
2.036608e-03
-1.122356e-03
-1.122356e-03
3.171473e-03
-1.125478e-03
3.171473e-03
-1.125478e-03
-5.431894e-03
-5.431894e-03
6.218448e-03
6.218448e-03
-7.273613e-03
-1.201409e-02
-7.273613e-03
-1.201409e-02
6.624579e-03
6.624579e-03
-5.055879e-04
-5.055879e-04
3.518280e-03
5.598519e-04
3.518280e-03
5.598519e-04
2.126804e-04
2.126804e-04
-1.299770e-03
-1.299770e-03
-1.456146e-03
-1.456146e-03
3.862829e-03
3.862829e-03
4.225995e-03
-1.092419e-03
4.225995e-03
-1.092419e-03
7.787576e-03
7.787576e-03
-6.693236e-03
-6.693236e-03
1.068162e-02
1.044503e-02
1.068162e-02
1.044503e-02
-5.457375e-03
-5.457375e-03
7.899012e-04
7.899012e-04
1.452221e-02
1.205798e-02
1.452221e-02
1.205798e-02
-1.173040e-02
-1.173040e-02
-1.497215e-02
-1.497215e-02
2.071421e-03
8.300314e-03
2.071421e-03
8.300314e-03
-4.789931e-03
-4.789931e-03
3.829272e-03
3.829272e-03
1.324054e-03
2.153812e-03
1.324054e-03
2.153812e-03
7.092349e-03
7.092349e-03
-1.302657e-03
-1.302657e-03
-2.363397e-03
-2.363397e-03
2.509700e-03
2.509700e-03
-7.786285e-03
-1.335772e-02
-7.786285e-03
-1.335772e-02
-5.436186e-03
-5.436186e-03
1.167825e-03
1.167825e-03
-1.569985e-02
-1.958676e-02
-1.569985e-02
-1.958676e-02
2.338799e-02
2.338799e-02
2.395818e-02
2.395818e-02
1.535715e-02
1.350661e-02
1.535715e-02
1.350661e-02
1.701788e-02
1.701788e-02
1.358577e-02
1.358577e-02
1.211239e-02
1.161268e-02
1.211239e-02
1.161268e-02
6.846942e-03
6.846942e-03
-3.312827e-03
-3.312827e-03
-4.100369e-03
6.446813e-03
-4.100369e-03
6.446813e-03
-1.519862e-02
-1.519862e-02
-1.526589e-02
-1.526589e-02
4.593546e-02
4.593546e-02
8.678066e-02
8.678066e-02
5.623669e-02
6.309017e-02
5.623669e-02
6.309017e-02
6.147368e-02
6.147368e-02
6.701973e-02
6.701973e-02
2.142677e-02
7.463381e-03
2.142677e-02
7.463381e-03
7.421994e-02
7.421994e-02
1.916550e-02
1.916550e-02
-1.494238e-02
2.327989e-02
-1.494238e-02
2.327989e-02
-6.321118e-03
-6.321118e-03
1.137130e-02
1.137130e-02
4.768107e-03
-1.510472e-02
4.768107e-03
-1.510472e-02
3.154431e-02
3.154431e-02
2.687233e-02
2.687233e-02
-4.169870e-02
-1.872489e-02
-4.169870e-02
-1.872489e-02
7.019285e-04
7.019285e-04
-3.590069e-02
-3.590069e-02
-4.341893e-02
-3.657624e-02
-4.341893e-02
-3.657624e-02
8.952061e-02
8.952061e-02
5.790373e-02
5.790373e-02
4.310193e-02
8.653872e-02
4.310193e-02
8.653872e-02
2.263856e-02
2.263856e-02
1.687075e-02
1.687075e-02
1.095737e-02
1.455332e-02
1.095737e-02
1.455332e-02
-4.980863e-03
-4.980863e-03
-1.958758e-03
-1.958758e-03
3.703639e-02
1.736644e-02
3.703639e-02
1.736644e-02
1.615684e-02
1.615684e-02
-1.610257e-02
-1.610257e-02
-2.484916e-02
3.558102e-02
-2.484916e-02
3.558102e-02
-4.130096e-02
-4.130096e-02
-4.000320e-02
-4.000320e-02
7.593681e-03
-6.388928e-03
7.593681e-03
-6.388928e-03
-5.311015e-02
-5.311015e-02
-5.041226e-02
-5.041226e-02
-3.962979e-02
-5.217825e-02
-3.962979e-02
-5.217825e-02
1.180578e-01
1.180578e-01
7.736783e-02
7.736783e-02
1.516624e-01
1.364937e-01
1.516624e-01
1.364937e-01
6.843252e-02
6.843252e-02
4.863215e-02
4.863215e-02
1.218833e-01
1.860052e-01
1.218833e-01
1.860052e-01
3.999798e-02
3.999798e-02
7.229175e-02
7.229175e-02
7.104381e-02
3.882463e-02
7.104381e-02
3.882463e-02
8.520038e-02
8.520038e-02
1.455125e-02
1.455125e-02
3.398115e-02
1.042987e-01
3.398115e-02
1.042987e-01
-4.132341e-03
-4.132341e-03
3.988686e-03
3.988686e-03
1.314144e-02
2.675442e-03
1.314144e-02
2.675442e-03
-2.831453e-02
-2.831453e-02
-2.717604e-02
-2.717604e-02
-1.598500e-02
-1.459592e-02
-1.598500e-02
-1.459592e-02
1.023723e-01
1.023723e-01
1.835190e-01
1.835190e-01
1.523169e-01
1.061179e-01
1.523169e-01
1.061179e-01
2.135743e-01
2.135743e-01
1.545573e-01
1.545573e-01
1.500333e-01
1.576337e-01
1.500333e-01
1.576337e-01
6.984735e-02
6.984735e-02
5.655275e-02
5.655275e-02
6.813348e-02
1.265820e-01
6.813348e-02
1.265820e-01
7.040143e-02
7.040143e-02
2.170452e-02
2.170452e-02
5.329573e-04
3.578137e-02
5.329573e-04
3.578137e-02
-6.014187e-03
-6.014187e-03
-2.478464e-02
-2.478464e-02
-5.202627e-02
-3.854258e-02
-5.202627e-02
-3.854258e-02
-5.405189e-02
-5.405189e-02
-3.722781e-02
-3.722781e-02
-6.597935e-02
-4.401820e-02
-6.597935e-02
-4.401820e-02
1.102954e-01
1.102954e-01
5.941033e-02
5.941033e-02
3.883208e-02
6.503256e-02
3.883208e-02
6.503256e-02
5.223153e-02
5.223153e-02
1.148620e-01
1.148620e-01
1.023544e-01
2.331385e-02
1.023544e-01
2.331385e-02
1.449405e-01
1.449405e-01
7.309348e-02
7.309348e-02
7.797314e-02
1.325039e-01
7.797314e-02
1.325039e-01
-3.057864e-03
-3.057864e-03
-1.772454e-02
-1.772454e-02
4.596362e-02
5.043541e-02
4.596362e-02
5.043541e-02
-2.212659e-02
-2.212659e-02
-2.151114e-02
-2.151114e-02
-6.110391e-03
2.197844e-02
-6.110391e-03
2.197844e-02
-2.736097e-02
-2.736097e-02
-7.100564e-02
-7.100564e-02
-7.207121e-02
-4.836406e-02
-7.207121e-02
-4.836406e-02
1.383667e-01
1.383667e-01
1.305790e-01
1.305790e-01
2.095923e-01
2.009195e-01
2.095923e-01
2.009195e-01
1.102183e-01
1.102183e-01
1.548824e-01
1.548824e-01
2.371000e-01
2.257908e-01
2.371000e-01
2.257908e-01
1.507206e-01
1.507206e-01
1.288532e-01
1.288532e-01
2.039920e-01
2.171409e-01
2.039920e-01
2.171409e-01
1.418651e-01
1.418651e-01
1.285360e-01
1.285360e-01
1.680885e-01
1.922350e-01
1.680885e-01
1.922350e-01
7.035556e-02
7.035556e-02
3.262954e-02
3.262954e-02
6.867598e-02
1.128394e-01
6.867598e-02
1.128394e-01
-2.139502e-02
-2.139502e-02
-6.895901e-02
-6.895901e-02
-4.760405e-02
1.609911e-02
-4.760405e-02
1.609911e-02
2.263467e-01
2.263467e-01
3.062987e-01
3.062987e-01
4.375961e-01
4.781491e-01
4.375961e-01
4.781491e-01
3.091084e-01
3.091084e-01
2.868952e-01
2.868952e-01
2.801833e-01
3.353152e-01
2.801833e-01
3.353152e-01
2.813197e-01
2.813197e-01
2.778485e-01
2.778485e-01
3.349052e-01
2.802711e-01
3.349052e-01
2.802711e-01
2.884448e-01
2.884448e-01
2.493022e-01
2.493022e-01
3.810910e-01
3.893004e-01
3.810910e-01
3.893004e-01
1.788589e-01
1.788589e-01
1.063077e-01
1.063077e-01
2.021002e-01
2.999719e-01
2.021002e-01
2.999719e-01
4.045599e-02
4.045599e-02
-2.274055e-02
-2.274055e-02
2.651762e-02
1.106555e-01
2.651762e-02
1.106555e-01
5.606761e-01
5.606761e-01
4.641510e-01
4.641510e-01
3.856897e-01
3.578438e-01
3.856897e-01
3.578438e-01
3.626993e-01
3.626993e-01
2.741554e-01
2.741554e-01
2.634931e-01
3.334250e-01
2.634931e-01
3.334250e-01
2.672598e-01
2.672598e-01
3.329852e-01
3.329852e-01
2.749892e-01
2.236253e-01
2.749892e-01
2.236253e-01
4.365929e-01
4.365929e-01
5.138024e-01
5.138024e-01
6.253417e-01
4.489674e-01
6.253417e-01
4.489674e-01
4.703346e-01
4.703346e-01
3.592168e-01
3.592168e-01
6.142489e-01
6.937391e-01
6.142489e-01
6.937391e-01
2.448723e-01
2.448723e-01
1.453680e-01
1.453680e-01
3.084886e-01
4.686039e-01
3.084886e-01
4.686039e-01
2.599943e-01
2.599943e-01
2.787942e-01
2.787942e-01
2.805819e-01
2.988042e-01
2.805819e-01
2.988042e-01
2.687751e-01
2.687751e-01
2.032443e-01
2.032443e-01
2.037879e-01
2.645152e-01
2.037879e-01
2.645152e-01
1.115322e-01
1.115322e-01
1.092435e-01
1.092435e-01
-1.529570e-01
2.612919e-02
-1.529570e-01
2.612919e-02
3.240362e-01
3.240362e-01
6.875980e-01
6.875980e-01
5.245747e-01
8.227397e-03
5.245747e-01
8.227397e-03
9.363556e-01
9.363556e-01
9.602315e-01
9.602315e-01
1.239506e+00
1.045322e+00
1.239506e+00
1.045322e+00
8.309512e-01
8.309512e-01
6.032428e-01
6.032428e-01
1.057812e+00
1.217084e+00
1.057812e+00
1.217084e+00
3.912051e-01
3.912051e-01
4.073456e-01
4.073456e-01
4.651969e-01
3.050748e-01
4.651969e-01
3.050748e-01
3.532980e-01
3.532980e-01
2.398938e-01
2.398938e-01
1.986654e-01
3.936160e-01
1.986654e-01
3.936160e-01
-6.124659e-03
-6.124659e-03
-3.773087e-01
-3.773087e-01
-5.906352e-01
-6.665389e-02
-5.906352e-01
-6.665389e-02
-5.184296e-01
-5.184296e-01
-2.911539e-02
-2.911539e-02
-1.032494e+00
-1.181035e+00
-1.032494e+00
-1.181035e+00
7.390472e-01
7.390472e-01
1.249722e+00
1.249722e+00
1.514438e+00
2.551966e-01
1.514438e+00
2.551966e-01
1.558319e+00
1.558319e+00
1.456639e+00
1.456639e+00
1.575769e+00
1.807145e+00
1.575769e+00
1.807145e+00
2.602475e-01
2.602475e-01
3.941990e-01
3.941990e-01
1.777915e-01
9.501266e-02
1.777915e-01
9.501266e-02
3.561864e-01
3.561864e-01
1.514223e-01
1.514223e-01
1.899857e-01
3.310385e-01
1.899857e-01
3.310385e-01
-1.408049e-01
-1.408049e-01
-8.430689e-01
-8.430689e-01
-1.283941e+00
-4.649358e-01
-1.283941e+00
-4.649358e-01
-1.728527e+00
-1.728527e+00
-1.474091e+00
-1.474091e+00
-9.762747e-01
-1.670946e+00
-9.762747e-01
-1.670946e+00
6.101955e-01
6.101955e-01
2.347959e+00
2.347959e+00
-5.698723e-01
1.845183e-01
-5.698723e-01
1.845183e-01
8.887447e-01
8.887447e-01
-9.938544e-01
-9.938544e-01
-9.517398e+00
-5.590956e+00
-9.517398e+00
-5.590956e+00
-3.151523e-02
-3.151523e-02
1.532105e-01
1.532105e-01
5.360524e-01
3.625758e-01
5.360524e-01
3.625758e-01
3.674368e-01
3.674368e-01
3.885797e-02
3.885797e-02
-7.919371e-01
4.301493e-01
-7.919371e-01
4.301493e-01
-1.316753e+00
-1.316753e+00
-2.383924e+00
-2.383924e+00
-4.177828e+00
-2.930281e+00
-4.177828e+00
-2.930281e+00
-2.005152e+00
-2.005152e+00
-2.280587e+00
-2.280587e+00
-8.395352e+00
-4.587827e+00
-8.395352e+00
-4.587827e+00
-6.278192e+00
-6.278192e+00
-1.206897e+01
-1.206897e+01
-1.999727e+01
-1.633918e+01
-1.999727e+01
-1.633918e+01
-1.547953e+01
-1.547953e+01
-1.610622e+01
-1.610622e+01
-7.145893e+00
-1.356468e+01
-7.145893e+00
-1.356468e+01
1.015014e+00
1.015014e+00
1.127492e+00
1.127492e+00
1.063556e+00
1.615179e+00
1.063556e+00
1.615179e+00
1.370703e-01
1.370703e-01
-2.380521e+00
-2.380521e+00
-4.102118e+00
-9.353038e-01
-4.102118e+00
-9.353038e-01
-4.835201e+00
-4.835201e+00
-6.807357e+00
-6.807357e+00
-9.485142e+00
-6.366084e+00
-9.485142e+00
-6.366084e+00
-1.010698e+01
-1.010698e+01
-1.544005e+01
-1.544005e+01
-2.070378e+01
-1.564978e+01
-2.070378e+01
-1.564978e+01
-1.884260e+01
-1.884260e+01
-1.425434e+01
-1.425434e+01
-5.710285e+00
-1.777617e+01
-5.710285e+00
-1.777617e+01
-1.218842e+00
-1.218842e+00
8.920516e+00
8.920516e+00
1.769513e+01
8.170742e+00
1.769513e+01
8.170742e+00
1.622334e+00
1.622334e+00
8.310158e-03
8.310158e-03
-1.962036e+00
6.427430e-01
-1.962036e+00
6.427430e-01
-2.843842e+00
-2.843842e+00
-5.121098e+00
-5.121098e+00
-5.091842e+00
-4.873377e+00
-5.091842e+00
-4.873377e+00
-7.430079e+00
-7.430079e+00
-1.218109e+01
-1.218109e+01
-1.283510e+01
-6.653481e+00
-1.283510e+01
-6.653481e+00
-1.906247e+01
-1.906247e+01
-2.196113e+01
-2.196113e+01
-2.678441e+01
-2.203013e+01
-2.678441e+01
-2.203013e+01
-1.299963e+01
-1.299963e+01
3.834632e+00
3.834632e+00
1.338158e+01
-1.246001e+01
1.338158e+01
-1.246001e+01
1.602553e+01
1.602553e+01
2.219672e+01
2.219672e+01
3.412632e+01
2.983266e+01
3.412632e+01
2.983266e+01
-1.663911e+00
-1.663911e+00
-4.852496e+00
-4.852496e+00
-6.704706e+00
-3.898567e+00
-6.704706e+00
-3.898567e+00
-6.038464e+00
-6.038464e+00
-3.570693e+00
-3.570693e+00
-4.250572e-02
-4.791515e+00
-4.250572e-02
-4.791515e+00
-4.126581e+00
-4.126581e+00
-1.195941e+01
-1.195941e+01
-1.074144e+01
-8.512062e-01
-1.074144e+01
-8.512062e-01
-2.565738e+01
-2.565738e+01
-3.346578e+01
-3.346578e+01
-2.128522e+01
-2.094526e+01
-2.128522e+01
-2.094526e+01
-1.792467e+01
-1.792467e+01
8.353677e+00
8.353677e+00
-6.463432e+00
-1.278742e+01
-6.463432e+00
-1.278742e+01
2.662289e+01
2.662289e+01
4.590242e+01
4.590242e+01
4.572418e+01
1.086177e+01
4.572418e+01
1.086177e+01
-4.521806e+00
-4.521806e+00
-8.348780e+00
-8.348780e+00
-1.168901e+01
-4.933687e+00
-1.168901e+01
-4.933687e+00
-1.444546e+00
-1.444546e+00
5.816445e+00
5.816445e+00
8.518751e+00
1.763962e+00
8.518751e+00
1.763962e+00
7.609836e+00
7.609836e+00
-1.795372e+00
-1.795372e+00
7.694918e-01
9.515067e+00
7.694918e-01
9.515067e+00
-4.683458e+00
-4.683458e+00
5.138309e+00
5.138309e+00
1.057804e+01
-9.428549e+00
1.057804e+01
-9.428549e+00
-1.129823e+01
-1.129823e+01
-1.516532e+01
-1.516532e+01
-3.231449e+01
-3.112098e+01
-3.231449e+01
-3.112098e+01
3.389264e+01
3.389264e+01
5.288390e+01
5.288390e+01
5.992147e+01
6.982700e+01
5.992147e+01
6.982700e+01
-3.743853e+00
-3.743853e+00
-1.753585e+01
-1.753585e+01
-1.988241e+01
-6.351302e-01
-1.988241e+01
-6.351302e-01
3.209438e+00
3.209438e+00
1.120718e+01
1.120718e+01
1.552185e+01
1.973838e+00
1.552185e+01
1.973838e+00
7.184509e+00
7.184509e+00
-5.136311e-01
-5.136311e-01
8.888658e+00
1.426091e+01
8.888658e+00
1.426091e+01
-2.406244e+01
-2.406244e+01
8.229324e+00
8.229324e+00
9.516925e+00
-1.209921e+01
9.516925e+00
-1.209921e+01
-3.432316e+01
-3.432316e+01
-4.299187e+01
-4.299187e+01
-3.908832e+01
-2.603796e+01
-3.908832e+01
-2.603796e+01
8.021481e+01
8.021481e+01
5.646152e+01
5.646152e+01
5.041517e+01
5.549336e+01
5.041517e+01
5.549336e+01
-5.328517e-03
-5.328517e-03
-1.208412e+01
-1.208412e+01
-2.268286e+00
-1.416611e+00
-2.268286e+00
-1.416611e+00
3.322624e-01
3.322624e-01
1.139901e+01
1.139901e+01
5.542943e+00
1.809351e+00
5.542943e+00
1.809351e+00
1.551561e+01
1.551561e+01
1.042475e+01
1.042475e+01
1.290219e+00
9.789728e+00
1.290219e+00
9.789728e+00
-1.299244e+00
-1.299244e+00
-2.672208e+00
-2.672208e+00
-2.494709e+01
-1.338103e+01
-2.494709e+01
-1.338103e+01
-1.947818e+01
-1.947818e+01
-2.409114e+01
-2.409114e+01
-1.081794e+01
-2.315330e+01
-1.081794e+01
-2.315330e+01
1.671987e+01
1.671987e+01
4.354272e+01
4.354272e+01
4.696539e+01
1.098473e+01
4.696539e+01
1.098473e+01
-1.292300e+00
-1.292300e+00
6.169364e-01
6.169364e-01
-8.111515e-02
5.904607e-02
-8.111515e-02
5.904607e-02
3.063474e+00
3.063474e+00
5.637431e+00
5.637431e+00
3.672894e+00
1.175128e+00
3.672894e+00
1.175128e+00
6.794285e+00
6.794285e+00
-6.393363e+00
-6.393363e+00
-1.001909e+01
1.604467e+00
-1.001909e+01
1.604467e+00
-2.650984e+01
-2.650984e+01
-3.916750e+01
-3.916750e+01
-3.090742e+01
-2.490984e+01
-3.090742e+01
-2.490984e+01
-3.283517e+01
-3.283517e+01
-8.712026e+00
-8.712026e+00
-1.886577e+00
-2.072281e+01
-1.886577e+00
-2.072281e+01
2.043520e+01
2.043520e+01
4.485777e+01
4.485777e+01
2.675393e+01
1.644750e+01
2.675393e+01
1.644750e+01
1.715395e+00
1.715395e+00
7.405120e-01
7.405120e-01
2.817678e+00
3.221345e+00
2.817678e+00
3.221345e+00
-3.887691e-01
-3.887691e-01
-1.219928e+00
-1.219928e+00
-2.062487e+00
7.420255e-01
-2.062487e+00
7.420255e-01
-4.570620e+00
-4.570620e+00
-1.189072e+01
-1.189072e+01
-8.737401e+00
-4.687202e+00
-8.737401e+00
-4.687202e+00
-1.971707e+01
-1.971707e+01
-2.083797e+01
-2.083797e+01
-1.044317e+01
-1.219380e+01
-1.044317e+01
-1.219380e+01
-1.347426e+01
-1.347426e+01
-2.336952e+00
-2.336952e+00
-8.349929e-01
-5.349230e+00
-8.349929e-01
-5.349230e+00
7.542414e+00
7.542414e+00
1.438178e+01
1.438178e+01
9.471573e+00
3.938899e+00
9.471573e+00
3.938899e+00
3.547584e+00
3.547584e+00
4.015103e+00
4.015103e+00
3.466703e+00
3.095049e+00
3.466703e+00
3.095049e+00
2.338737e+00
2.338737e+00
-9.428938e-01
-9.428938e-01
-6.247832e-01
2.194272e+00
-6.247832e-01
2.194272e+00
-3.630434e+00
-3.630434e+00
-5.656471e+00
-5.656471e+00
-6.323939e+00
-3.874091e+00
-6.323939e+00
-3.874091e+00
-6.699370e+00
-6.699370e+00
-4.674786e+00
-4.674786e+00
-3.708372e+00
-5.916919e+00
-3.708372e+00
-5.916919e+00
-2.984399e+00
-2.984399e+00
-4.987447e+00
-4.987447e+00
-1.160399e+01
-6.217628e+00
-1.160399e+01
-6.217628e+00
-1.894465e+00
-1.894465e+00
3.836103e+00
3.836103e+00
1.397219e+00
-7.192897e+00
1.397219e+00
-7.192897e+00
2.024940e+00
2.024940e+00
2.252958e+00
2.252958e+00
1.561803e+00
1.269672e+00
1.561803e+00
1.269672e+00
1.261448e+00
1.261448e+00
-5.183481e-01
-5.183481e-01
-6.292366e-01
7.054200e-01
-6.292366e-01
7.054200e-01
-2.838803e+00
-2.838803e+00
-4.593899e+00
-4.593899e+00
-3.161374e+00
-2.135301e+00
-3.161374e+00
-2.135301e+00
-3.069894e+00
-3.069894e+00
3.853203e-01
3.853203e-01
1.332226e+00
-2.065383e+00
1.332226e+00
-2.065383e+00
-1.884997e+00
-1.884997e+00
-5.752527e+00
-5.752527e+00
-3.519651e+00
5.973196e-02
-3.519651e+00
5.973196e-02
-3.876512e-02
-3.876512e-02
2.445753e-02
2.445753e-02
1.382758e-02
-1.022751e-02
1.382758e-02
-1.022751e-02
4.095493e-02
4.095493e-02
-2.174171e-03
-2.174171e-03
-1.107252e-02
2.424865e-02
-1.107252e-02
2.424865e-02
-3.909363e-02
-3.909363e-02
-3.706387e-02
-3.706387e-02
-2.127654e-02
-4.669008e-02
-2.127654e-02
-4.669008e-02
2.514718e-02
2.514718e-02
5.851263e-02
5.851263e-02
2.960776e-02
5.063232e-02
2.960776e-02
5.063232e-02
4.083454e-02
4.083454e-02
2.580500e-02
2.580500e-02
-1.604669e-02
-2.107661e-02
-1.604669e-02
-2.107661e-02
3.088064e-02
3.088064e-02
3.031937e-02
3.031937e-02
6.021779e-02
2.918332e-02
6.021779e-02
2.918332e-02
5.221122e-03
5.221122e-03
5.813735e-03
5.813735e-03
-2.291137e-02
2.334887e-03
-2.291137e-02
2.334887e-03
3.658236e-02
3.658236e-02
2.967094e-02
2.967094e-02
3.636746e-03
1.136931e-03
3.636746e-03
1.136931e-03
7.354285e-04
7.354285e-04
-1.992230e-02
-1.992230e-02
-5.314787e-02
-1.605712e-02
-5.314787e-02
-1.605712e-02
-9.353665e-03
-9.353665e-03
1.348722e-02
1.348722e-02
-1.855903e-02
-6.194286e-02
-1.855903e-02
-6.194286e-02
-6.186805e-02
-6.186805e-02
-2.336129e-01
-2.336129e-01
-2.787811e-01
-3.095672e-02
-2.787811e-01
-3.095672e-02
-4.639454e-01
-4.639454e-01
-4.454481e-01
-4.454481e-01
-1.076949e+00
-7.753815e-01
-1.076949e+00
-7.753815e-01
3.184687e-01
3.184687e-01
1.294635e+00
1.294635e+00
9.902441e-01
-5.896990e-01
9.902441e-01
-5.896990e-01
9.714956e-01
9.714956e-01
-2.690806e-01
-2.690806e-01
7.111290e-01
2.302844e+00
7.111290e-01
2.302844e+00
-1.138179e-01
-1.138179e-01
1.989255e-01
1.989255e-01
-4.720756e-01
-1.486171e+00
-4.720756e-01
-1.486171e+00
1.091773e-02
1.091773e-02
1.791307e+00
1.791307e+00
-2.471764e+00
-6.598603e-01
-2.471764e+00
-6.598603e-01
3.926711e+00
3.926711e+00
3.324922e+00
3.324922e+00
2.083946e+00
-5.884729e-01
2.083946e+00
-5.884729e-01
1.791395e+00
1.791395e+00
1.043553e+00
1.043553e+00
6.900727e-01
1.594610e+00
6.900727e-01
1.594610e+00
3.802817e-01
3.802817e-01
4.186702e-02
4.186702e-02
2.517866e-01
9.681422e-01
2.517866e-01
9.681422e-01
-6.826234e-01
-6.826234e-01
-1.476424e+00
-1.476424e+00
-3.758185e+00
-2.243326e+00
-3.758185e+00
-2.243326e+00
-1.276603e+00
-1.276603e+00
-7.054716e-01
-7.054716e-01
-1.312789e+00
-2.717403e+00
-1.312789e+00
-2.717403e+00
-4.326069e-01
-4.326069e-01
-4.073702e-01
-4.073702e-01
-7.905734e-01
-8.053758e-01
-7.905734e-01
-8.053758e-01
2.761606e-02
2.761606e-02
2.527435e-02
2.527435e-02
-7.484269e-04
1.108031e-02
-7.484269e-04
1.108031e-02
-3.764912e-03
-3.764912e-03
-1.902647e-02
-1.902647e-02
-2.570596e-02
-1.488810e-02
-2.570596e-02
-1.488810e-02
5.814659e-03
5.814659e-03
1.301399e-02
1.301399e-02
1.428923e-02
5.011954e-03
1.428923e-02
5.011954e-03
9.424957e-03
9.424957e-03
-2.263774e-02
-2.263774e-02
-4.507336e-04
3.939202e-03
-4.507336e-04
3.939202e-03
-4.240120e-02
-4.240120e-02
-2.458176e-02
-2.458176e-02
-1.374290e-02
-1.278755e-02
-1.374290e-02
-1.278755e-02
5.903826e-03
5.903826e-03
2.356561e-02
2.356561e-02
-1.106110e-02
-7.624454e-03
-1.106110e-02
-7.624454e-03
-3.720456e-02
-3.720456e-02
-5.876098e-02
-5.876098e-02
-7.080127e-02
-5.899116e-02
-7.080127e-02
-5.899116e-02
-3.226612e-02
-3.226612e-02
-3.141732e-02
-3.141732e-02
-7.119283e-02
-4.660762e-02
-7.119283e-02
-4.660762e-02
-4.949009e-02
-4.949009e-02
-1.058572e-01
-1.058572e-01
-1.651440e-01
-1.037056e-01
-1.651440e-01
-1.037056e-01
-1.663792e-01
-1.663792e-01
-1.721790e-01
-1.721790e-01
-3.445368e-01
-2.768542e-01
-3.445368e-01
-2.768542e-01
-1.232367e-01
-1.232367e-01
-2.733152e-01
-2.733152e-01
-1.736002e-01
-2.544494e-01
-1.736002e-01
-2.544494e-01
-8.968848e-01
-8.968848e-01
-1.656074e+00
-1.656074e+00
-1.861205e+00
-6.778944e-01
-1.861205e+00
-6.778944e-01
-1.573331e+00
-1.573331e+00
3.719335e-02
3.719335e-02
-1.855700e+00
-2.764551e+00
-1.855700e+00
-2.764551e+00
2.290416e+00
2.290416e+00
2.484162e+00
2.484162e+00
4.070922e+00
9.832809e-01
4.070922e+00
9.832809e-01
-7.495416e-01
-7.495416e-01
-7.518858e-01
-7.518858e-01
3.264475e+00
4.888879e+00
3.264475e+00
4.888879e+00
3.982784e+00
3.982784e+00
6.543328e-01
6.543328e-01
1.731550e+01
9.876318e+00
1.731550e+01
9.876318e+00
-7.734262e+00
-7.734262e+00
-7.855658e+00
-7.855658e+00
5.512123e+00
1.288991e+01
5.512123e+00
1.288991e+01
-2.479233e+00
-2.479233e+00
3.401385e+00
3.401385e+00
7.010351e+00
2.797521e+00
7.010351e+00
2.797521e+00
5.743931e+00
5.743931e+00
2.601157e+00
2.601157e+00
6.563183e+00
9.942285e+00
6.563183e+00
9.942285e+00
-3.275301e+00
-3.275301e+00
-6.710081e+00
-6.710081e+00
-9.405309e+00
-2.180268e+00
-9.405309e+00
-2.180268e+00
-4.969579e+00
-4.969579e+00
-2.349157e+00
-2.349157e+00
-3.844073e+00
-8.063558e+00
-3.844073e+00
-8.063558e+00
-1.530564e+00
-1.530564e+00
-1.641995e+00
-1.641995e+00
-3.236143e+00
-2.634016e+00
-3.236143e+00
-2.634016e+00
-2.437635e-02
-2.437635e-02
-2.860946e-02
-2.860946e-02
1.444975e-02
-2.317137e-02
1.444975e-02
-2.317137e-02
-1.630279e-02
-1.630279e-02
-1.769984e-02
-1.769984e-02
-8.296895e-03
-6.029920e-03
-8.296895e-03
-6.029920e-03
-6.448084e-03
-6.448084e-03
2.042075e-03
2.042075e-03
-1.400747e-02
1.727572e-02
-1.400747e-02
1.727572e-02
-1.153657e-03
-1.153657e-03
9.210856e-04
9.210856e-04
-3.690219e-02
-4.757021e-02
-3.690219e-02
-4.757021e-02
-4.401633e-02
-4.401633e-02
-5.720594e-02
-5.720594e-02
-1.001223e-01
-9.345870e-02
-1.001223e-01
-9.345870e-02
2.970029e-04
2.970029e-04
-5.461331e-03
-5.461331e-03
-4.057622e-02
-1.544199e-02
-4.057622e-02
-1.544199e-02
-5.712700e-02
-5.712700e-02
-6.306228e-02
-6.306228e-02
-7.954695e-02
-7.896810e-02
-7.954695e-02
-7.896810e-02
-5.839451e-02
-5.839451e-02
-1.116674e-01
-1.116674e-01
-1.484499e-01
-1.038828e-01
-1.484499e-01
-1.038828e-01
-1.568390e-01
-1.568390e-01
-1.913264e-01
-1.913264e-01
-1.965204e-01
-1.930605e-01
-1.965204e-01
-1.930605e-01
-3.214164e-01
-3.214164e-01
-4.363448e-01
-4.363448e-01
-4.665130e-01
-2.890796e-01
-4.665130e-01
-2.890796e-01
-2.885650e-01
-2.885650e-01
4.289420e-02
4.289420e-02
2.326440e-01
-3.257740e-01
2.326440e-01
-3.257740e-01
-1.438693e-01
-1.438693e-01
-1.880840e+00
-1.880840e+00
-2.661098e+00
1.513351e-01
-2.661098e+00
1.513351e-01
-4.871044e+00
-4.871044e+00
-5.730418e+00
-5.730418e+00
-1.119339e+01
-8.499318e+00
-1.119339e+01
-8.499318e+00
-1.501455e+00
-1.501455e+00
6.809534e+00
6.809534e+00
1.273873e+01
-3.413722e+00
1.273873e+01
-3.413722e+00
1.341239e+01
1.341239e+01
8.843277e+00
8.843277e+00
1.419563e+01
2.345012e+01
1.419563e+01
2.345012e+01
2.342768e+00
2.342768e+00
8.450085e+00
8.450085e+00
-1.161699e+01
-5.946890e+00
-1.161699e+01
-5.946890e+00
1.706330e+01
1.706330e+01
1.421164e+01
1.421164e+01
-1.002599e+00
-5.376114e+00
-1.002599e+00
-5.376114e+00
5.513482e+00
5.513482e+00
5.169478e+00
5.169478e+00
5.145626e+00
8.363908e-01
5.145626e+00
8.363908e-01
1.050067e+01
1.050067e+01
1.178135e+01
1.178135e+01
1.839172e+01
1.409862e+01
1.839172e+01
1.409862e+01
1.630747e+00
1.630747e+00
-1.056140e+01
-1.056140e+01
-7.447276e+00
7.567381e+00
-7.447276e+00
7.567381e+00
-1.091781e+01
-1.091781e+01
-5.924912e+00
-5.924912e+00
-8.253084e+00
-1.123711e+01
-8.253084e+00
-1.123711e+01
-4.037021e+00
-4.037021e+00
-4.559346e+00
-4.559346e+00
-4.143575e+00
-5.118587e+00
-4.143575e+00
-5.118587e+00
1.283866e-02
1.283866e-02
5.266590e-02
5.266590e-02
2.321360e-02
-1.097375e-03
2.321360e-02
-1.097375e-03
2.582283e-03
2.582283e-03
-1.871776e-02
-1.871776e-02
-4.529944e-02
5.206671e-04
-4.529944e-02
5.206671e-04
-3.744889e-03
-3.744889e-03
-4.974994e-02
-4.974994e-02
-6.093141e-02
-5.998239e-02
-6.093141e-02
-5.998239e-02
-6.809091e-02
-6.809091e-02
-4.318324e-02
-4.318324e-02
-6.274671e-02
-5.755133e-02
-6.274671e-02
-5.755133e-02
-6.372235e-02
-6.372235e-02
-7.168734e-02
-7.168734e-02
-3.296235e-02
-3.904826e-02
-3.296235e-02
-3.904826e-02
-5.622426e-02
-5.622426e-02
-8.941857e-02
-8.941857e-02
-9.618777e-02
-7.698599e-02
-9.618777e-02
-7.698599e-02
-1.006990e-01
-1.006990e-01
-1.001274e-01
-1.001274e-01
-9.364933e-02
-8.957711e-02
-9.364933e-02
-8.957711e-02
-1.383615e-01
-1.383615e-01
-1.680368e-01
-1.680368e-01
-1.331340e-01
-1.102786e-01
-1.331340e-01
-1.102786e-01
-2.251321e-01
-2.251321e-01
-2.278460e-01
-2.278460e-01
-2.240460e-01
-1.990894e-01
-2.240460e-01
-1.990894e-01
-2.216477e-01
-2.216477e-01
-4.485458e-01
-4.485458e-01
-3.263523e-01
-1.403651e-01
-3.263523e-01
-1.403651e-01
-4.040152e-01
-4.040152e-01
2.671875e-01
2.671875e-01
2.659205e-01
-3.525950e-01
2.659205e-01
-3.525950e-01
-2.410335e-01
-2.410335e-01
-4.901480e+00
-4.901480e+00
-7.885268e+00
-1.385558e+00
-7.885268e+00
-1.385558e+00
-1.236335e+01
-1.236335e+01
-1.297630e+01
-1.297630e+01
-6.096011e+00
-1.305337e+01
-6.096011e+00
-1.305337e+01
8.304091e-01
8.304091e-01
2.258400e+01
2.258400e+01
2.918298e+01
1.095770e+01
2.918298e+01
1.095770e+01
3.535192e+01
3.535192e+01
2.167725e+01
2.167725e+01
3.199750e+01
4.357703e+01
3.199750e+01
4.357703e+01
-5.838477e+00
-5.838477e+00
-1.724944e+01
-1.724944e+01
-1.323631e+01
4.530221e+00
-1.323631e+01
4.530221e+00
-1.754181e+01
-1.754181e+01
-1.647382e+01
-1.647382e+01
-2.152233e+01
-2.255807e+01
-2.152233e+01
-2.255807e+01
-8.606171e+00
-8.606171e+00
8.400927e+00
8.400927e+00
1.943669e+01
-9.684269e+00
1.943669e+01
-9.684269e+00
2.039983e+01
2.039983e+01
1.909777e+01
1.909777e+01
1.358780e+01
2.882136e+01
1.358780e+01
2.882136e+01
1.181816e+01
1.181816e+01
1.113476e+00
1.113476e+00
1.044242e+01
1.212147e+01
1.044242e+01
1.212147e+01
-7.309556e+00
-7.309556e+00
-8.691395e+00
-8.691395e+00
-5.963601e+00
-5.812538e-01
-5.963601e+00
-5.812538e-01
-4.344294e+00
-4.344294e+00
-1.557259e+00
-1.557259e+00
1.010509e+00
-1.961168e+00
1.010509e+00
-1.961168e+00
-5.486394e-02
-5.486394e-02
-4.064756e-02
-4.064756e-02
-7.724816e-02
-5.851878e-02
-7.724816e-02
-5.851878e-02
-1.930822e-02
-1.930822e-02
-6.994340e-02
-6.994340e-02
-6.954780e-02
-5.758239e-02
-6.954780e-02
-5.758239e-02
-6.290772e-02
-6.290772e-02
-3.336662e-02
-3.336662e-02
1.123526e-02
-3.558742e-02
1.123526e-02
-3.558742e-02
-3.902613e-02
-3.902613e-02
-4.293385e-02
-4.293385e-02
-1.384878e-02
4.439203e-03
-1.384878e-02
4.439203e-03
-3.648886e-02
-3.648886e-02
-2.660029e-02
-2.660029e-02
8.845786e-04
-4.444393e-03
8.845786e-04
-4.444393e-03
-7.693783e-02
-7.693783e-02
-1.046211e-01
-1.046211e-01
-1.136906e-01
-7.362441e-02
-1.136906e-01
-7.362441e-02
-7.053531e-02
-7.053531e-02
-6.756493e-02
-6.756493e-02
-4.287236e-02
-6.469921e-02
-4.287236e-02
-6.469921e-02
-7.464017e-02
-7.464017e-02
-7.186485e-02
-7.186485e-02
3.040341e-03
-2.592189e-02
3.040341e-03
-2.592189e-02
-9.588061e-02
-9.588061e-02
-1.176001e-01
-1.176001e-01
1.476144e-01
5.349577e-02
1.476144e-01
5.349577e-02
-4.539734e-02
-4.539734e-02
-5.243935e-02
-5.243935e-02
4.526117e-01
1.928451e-01
4.526117e-01
1.928451e-01
4.923857e-02
4.923857e-02
-9.495856e-02
-9.495856e-02
-2.114036e+00
6.249848e-01
-2.114036e+00
6.249848e-01
-4.009596e+00
-4.009596e+00
-1.049021e+01
-1.049021e+01
-1.125918e+01
-9.122784e+00
-1.125918e+01
-9.122784e+00
-8.482413e+00
-8.482413e+00
5.531994e+00
5.531994e+00
1.494199e+01
4.646079e-02
1.494199e+01
4.646079e-02
1.829002e+01
1.829002e+01
2.858977e+01
2.858977e+01
3.180737e+01
2.245039e+01
3.180737e+01
2.245039e+01
4.722249e+01
4.722249e+01
4.493527e+01
4.493527e+01
5.578880e+01
5.358572e+01
5.578880e+01
5.358572e+01
2.927544e+01
2.927544e+01
9.106226e+00
9.106226e+00
3.187675e+01
4.747441e+01
3.187675e+01
4.747441e+01
-9.902272e+00
-9.902272e+00
1.281156e+00
1.281156e+00
3.511810e+01
1.551717e+01
3.511810e+01
1.551717e+01
1.673643e+01
1.673643e+01
3.902161e+01
3.902161e+01
5.273813e+01
4.837006e+01
5.273813e+01
4.837006e+01
3.743523e+01
3.743523e+01
1.444747e+01
1.444747e+01
2.416137e+01
4.246026e+01
2.416137e+01
4.246026e+01
1.447886e+01
1.447886e+01
1.489542e+01
1.489542e+01
1.511672e+01
2.091884e+01
1.511672e+01
2.091884e+01
4.790739e+00
4.790739e+00
-1.509912e+00
-1.509912e+00
2.250022e+00
7.347863e+00
2.250022e+00
7.347863e+00
9.159587e-01
9.159587e-01
2.302957e+00
2.302957e+00
2.861737e+00
2.527145e+00
2.861737e+00
2.527145e+00
-5.104904e-02
-5.104904e-02
-6.674906e-02
-6.674906e-02
-5.627597e-02
-5.627597e-02
-3.318442e-02
-3.318442e-02
-2.372366e-02
-2.372366e-02
1.766852e-02
1.766852e-02
5.472888e-03
5.472888e-03
-6.714141e-02
-6.714141e-02
-4.834475e-02
-4.834475e-02
-2.340679e-02
-2.340679e-02
-7.001729e-02
-7.001729e-02
-8.963314e-02
-8.963314e-02
-6.342221e-02
-6.342221e-02
-2.365870e-02
-2.365870e-02
5.713289e-02
5.713289e-02
1.357618e-01
1.357618e-01
3.043606e-01
3.043606e-01
6.225479e-01
6.225479e-01
7.933740e-01
7.933740e-01
1.106074e+00
1.106074e+00
-1.386040e-01
-1.386040e-01
-6.697755e+00
-6.697755e+00
-1.413367e+01
-1.413367e+01
-8.652343e+00
-8.652343e+00
7.976028e+00
7.976028e+00
1.976625e+01
1.976625e+01
2.482434e+01
2.482434e+01
3.534487e+01
3.534487e+01
5.836697e+01
5.836697e+01
6.239901e+01
6.239901e+01
4.634836e+01
4.634836e+01
2.471922e+01
2.471922e+01
9.155079e+00
9.155079e+00
2.843877e+01
2.843877e+01
5.281870e+01
5.281870e+01
6.172052e+01
6.172052e+01
4.966683e+01
4.966683e+01
2.933422e+01
2.933422e+01
2.083326e+01
2.083326e+01
1.341524e+01
1.341524e+01
6.429242e+00
6.429242e+00
3.300168e+00
3.300168e+00
-3.969340e-01
-2.041572e-01
7.155395e-02
1.096536e-01
5.380568e-02
4.279262e-02
-6.282223e-01
-3.194719e-01
1.089268e-01
1.325176e-01
4.725327e-02
5.804637e-02
-9.532959e-01
-5.333571e-01
6.500844e-02
7.150043e-02
-9.556058e-03
8.132219e-02
-1.197257e+00
-7.771646e-01
-1.040862e-01
-7.406179e-02
-9.412321e-02
1.087769e-01
-1.296309e+00
-9.250840e-01
-2.421955e-01
-1.452752e-01
-1.310756e-01
9.786677e-02
-1.013059e+00
-8.058373e-01
-2.861823e-01
-9.752726e-02
-9.706193e-02
2.718164e-02
-6.880337e-01
-5.379173e-01
-1.600755e-01
1.690285e-02
1.109150e-03
3.606249e-02
-4.394743e-01
-2.306943e-01
3.315746e-02
7.647365e-02
9.201000e-02
1.193020e-01
-1.139600e-01
6.321879e-03
1.002994e-01
7.710090e-02
9.559516e-02
1.109837e-01
6.955739e-02
8.027960e-02
7.668620e-02
5.810452e-02
5.504473e-02
5.625101e-02
8.322136e-02
7.845315e-02
5.937608e-02
4.090193e-02
4.029480e-02
4.385296e-02
-3.601433e-01
-1.636961e-01
6.097028e-02
7.269826e-03
-4.466650e-02
-1.468325e-02
-6.892122e-01
-3.769253e-01
4.110760e-02
-2.194117e-02
-1.300511e-01
-6.936634e-02
-1.252826e+00
-8.306820e-01
-1.615229e-01
-1.793235e-01
-3.163955e-01
-1.886516e-01
-1.568889e+00
-1.245750e+00
-5.383582e-01
-4.119651e-01
-4.758963e-01
-2.819672e-01
-1.621111e+00
-1.398593e+00
-7.169898e-01
-4.752272e-01
-5.004688e-01
-3.083863e-01
-1.335775e+00
-1.100617e+00
-5.086151e-01
-3.362536e-01
-3.805935e-01
-2.404519e-01
-6.722977e-01
-5.053097e-01
-1.651310e-01
-1.585444e-01
-2.062678e-01
-8.738720e-02
-1.085154e-01
-4.611226e-02
4.627777e-02
-1.474027e-02
-3.485291e-02
3.603932e-02
5.811830e-02
1.102823e-01
1.205129e-01
6.248029e-02
5.715044e-02
6.791977e-02
9.433044e-02
1.154891e-01
9.224568e-02
3.898782e-02
3.865714e-02
4.718215e-02
1.202522e-01
1.044712e-01
5.060694e-02
2.135323e-03
1.115650e-02
3.056602e-02
7.861640e-02
-9.414732e-04
-8.817356e-02
-1.823420e-01
-2.166451e-01
-1.644541e-01
2.137489e-02
-8.355615e-02
-9.203928e-02
-2.496230e-01
-4.382773e-01
-3.728999e-01
-6.860746e-03
-3.717185e-01
-2.489344e-01
-2.978626e-01
-7.996501e-01
-7.648674e-01
9.172252e-02
-7.020779e-01
-5.509218e-01
-2.860195e-01
-9.681864e-01
-9.702989e-01
3.252216e-01
-6.248871e-01
-5.917920e-01
-2.838275e-01
-9.511713e-01
-9.432756e-01
3.978178e-01
-2.586138e-01
-3.841407e-01
-3.091860e-01
-7.658257e-01
-7.665153e-01
8.582203e-02
-1.089056e-01
-2.249633e-01
-3.303407e-01
-4.793765e-01
-4.443650e-01
-3.454870e-02
-5.428823e-02
-9.153499e-02
-2.026294e-01
-2.191168e-01
-1.420170e-01
8.763249e-02
6.914009e-02
2.536876e-02
-5.091901e-02
-4.903363e-02
3.860603e-03
9.520525e-02
8.098765e-02
-4.663943e-04
-7.090713e-02
-2.898746e-02
1.613650e-02
8.089647e-02
3.858688e-02
-6.939089e-02
-1.284885e-01
-6.567921e-02
-9.440436e-03
4.130918e-01
2.725082e-02
-2.664280e-01
-2.191946e-01
-1.759214e-01
-8.771935e-02
1.048915e+00
3.411262e-01
-1.193311e-01
-1.073628e-01
-3.312467e-01
-3.197677e-01
1.822890e+00
5.120871e-01
1.531895e-01
4.829554e-01
-4.947307e-01
-8.502775e-01
2.077816e+00
3.572056e-01
2.669995e-01
1.133345e+00
-3.991759e-01
-1.167638e+00
2.328162e+00
5.259050e-01
1.892992e-01
1.050983e+00
-3.058011e-01
-1.058617e+00
2.008130e+00
5.143050e-01
-8.026678e-02
4.531904e-01
-3.572771e-01
-8.019489e-01
8.174568e-01
9.907009e-02
-3.221082e-01
-1.050060e-01
-3.159341e-01
-4.467559e-01
-2.311553e-01
-2.590784e-01
-3.246785e-01
-2.803642e-01
-1.317255e-01
-6.507827e-02
-2.437100e-01
-2.107730e-01
-2.059172e-01
-1.679826e-01
-6.525249e-03
8.891638e-02
3.010666e-02
-6.058247e-02
-1.757156e-01
-1.544282e-01
-2.975859e-02
4.917953e-02
4.933054e-03
-9.387739e-02
-2.284835e-01
-2.139435e-01
-7.646389e-02
1.067996e-02
-5.149127e-01
-2.999701e-01
-3.962229e-01
-4.550063e-01
-8.633569e-02
2.992290e-02
-7.303362e-02
-2.726322e-02
-2.840037e-01
-3.788245e-01
-1.719316e-01
-1.727288e-01
1.957053e+00
1.169311e+00
4.337531e-01
3.841158e-01
-2.442075e-01
-7.707084e-01
5.522589e+00
3.044292e+00
1.138182e+00
1.423569e+00
-1.057884e-01
-1.348346e+00
4.661847e+00
2.708488e+00
1.033659e+00
1.336721e+00
1.521186e-02
-1.330829e+00
-2.762193e-01
3.443283e-01
4.784817e-01
3.115571e-01
-1.138524e-01
-8.587317e-01
-7.924996e-01
-3.188689e-01
-2.792531e-01
-3.683186e-01
-2.207924e-01
-4.182155e-01
3.821036e-01
-1.224493e-01
-5.892473e-01
-3.244688e-01
-7.892656e-02
-6.040792e-02
-5.540890e-02
-2.371201e-01
-3.358122e-01
-1.301781e-01
8.052902e-02
1.686211e-01
-1.894763e-02
-1.031915e-01
-1.774267e-01
-8.139499e-02
8.250544e-02
1.603829e-01
4.591301e-02
-7.221698e-02
-1.764980e-01
-8.879696e-02
4.886662e-02
1.126782e-01
-1.375424e+00
-5.330899e-01
-4.863236e-01
-7.411934e-01
-1.109801e-01
-2.146465e-02
-1.450944e+00
-4.695125e-01
-4.867122e-01
-8.657695e-01
-2.505689e-01
-2.549428e-01
1.806961e+00
1.699017e+00
4.513128e-01
-3.632569e-01
-4.750190e-01
-9.119714e-01
9.013512e+00
5.684352e+00
1.613151e+00
7.582774e-01
-4.919284e-01
-1.629301e+00
7.263724e+00
4.987494e+00
1.696919e+00
8.090000e-01
-3.904545e-01
-1.716336e+00
-2.114571e+00
5.382151e-01
1.080263e+00
-3.266585e-01
-3.806768e-01
-1.138511e+00
-2.391707e+00
-5.809872e-01
-1.940298e-01
-8.533149e-01
-3.548248e-01
-6.208123e-01
9.349770e-01
2.621187e-02
-7.716056e-01
-3.875140e-01
-1.709200e-01
-2.274700e-01
3.216706e-01
-1.286566e-01
-3.497788e-01
-7.408877e-02
5.733557e-02
1.422749e-01
-2.680155e-02
-7.394151e-02
-1.121602e-01
-1.561908e-02
1.442836e-01
2.165664e-01
8.646974e-02
-9.994733e-03
-7.664846e-02
2.994727e-02
1.372844e-01
1.678366e-01
SCALARS MISES_STRESS float 1
LOOKUP_TABLE default
1.538013e+01
1.144995e+01
2.032681e+01
1.909924e+01
1.538013e+01
1.144995e+01
2.032681e+01
1.909924e+01
5.864539e+00
2.290723e+01
5.864539e+00
2.290723e+01
3.434770e+01
2.258502e+01
3.434770e+01
2.258502e+01
1.137745e+01
1.137745e+01
2.472814e+00
2.129981e+00
1.981351e+00
2.272260e+00
2.472814e+00
2.129981e+00
1.981351e+00
2.272260e+00
1.288478e+00
1.144098e+00
1.288478e+00
1.144098e+00
1.188438e+00
1.396516e+00
1.188438e+00
1.396516e+00
2.221851e+00
2.221851e+00
3.327375e+00
2.590292e+00
2.972560e+00
3.327375e+00
2.590292e+00
2.972560e+00
1.888715e+00
1.624763e+00
1.888715e+00
1.624763e+00
1.389751e+00
1.208103e+00
1.389751e+00
1.208103e+00
1.004958e+00
1.004958e+00
4.083571e-01
1.011963e+00
5.208432e-01
4.284035e-01
4.083571e-01
1.011963e+00
5.208432e-01
4.284035e-01
2.236528e+00
1.108267e+00
2.236528e+00
1.108267e+00
9.860239e-01
6.729560e-01
9.860239e-01
6.729560e-01
4.588775e-01
4.588775e-01
1.030521e+00
5.394813e-01
8.704199e-01
1.996202e+00
1.030521e+00
5.394813e-01
8.704199e-01
1.996202e+00
3.214340e+00
3.214340e+00
4.251405e+00
4.251405e+00
6.249650e-01
4.560383e-01
4.478215e-01
4.349549e-01
6.249650e-01
4.560383e-01
4.478215e-01
4.349549e-01
4.529460e-01
4.529460e-01
4.134027e-01
4.134027e-01
5.122850e-01
4.172933e-01
7.512711e-01
8.940390e-01
5.122850e-01
4.172933e-01
7.512711e-01
8.940390e-01
3.510340e-01
6.479108e-01
3.510340e-01
6.479108e-01
4.898396e-01
5.068252e-01
4.898396e-01
5.068252e-01
6.660292e-01
6.660292e-01
5.211496e-01
6.854290e-01
9.975901e-01
6.714539e-01
5.211496e-01
6.854290e-01
9.975901e-01
6.714539e-01
6.770734e-01
9.468291e-01
6.770734e-01
9.468291e-01
1.161995e+00
1.008983e+00
1.161995e+00
1.008983e+00
5.994497e-01
5.994497e-01
5.918318e+00
1.127224e+01
1.516676e+01
1.094685e+01
5.918318e+00
1.127224e+01
1.516676e+01
1.094685e+01
2.241605e+01
1.763174e+01
2.241605e+01
1.763174e+01
8.492474e+00
8.691363e+00
8.492474e+00
8.691363e+00
6.303643e+00
6.303643e+00
1.699436e+00
1.105745e+00
3.946170e+00
1.699436e+00
1.105745e+00
3.946170e+00
1.070295e+00
9.632447e-01
1.070295e+00
9.632447e-01
1.420342e+00
1.420342e+00
2.175755e+00
2.175755e+00
2.678903e+00
2.055868e+00
2.678903e+00
2.055868e+00
6.086230e+00
7.074485e+00
8.977356e+00
8.656009e+00
6.086230e+00
7.074485e+00
8.977356e+00
8.656009e+00
4.741970e+00
4.741970e+00
1.967906e+00
2.119702e+00
1.333891e+00
1.637745e+00
1.967906e+00
2.119702e+00
1.333891e+00
1.637745e+00
1.789279e+00
1.789279e+00
3.048709e+00
3.048709e+00
1.703519e+00
1.703519e+00
3.679927e+00
3.679927e+00
1.752260e+00
1.752260e+00
1.342366e+00
1.342366e+00
5.828962e-01
9.995003e-01
5.828962e-01
9.995003e-01
2.727853e+00
2.727853e+00
4.071815e+00
3.792180e+00
4.071815e+00
3.792180e+00
3.442062e+00
3.442062e+00
2.297405e+00
9.617062e-01
2.297405e+00
9.617062e-01
1.732180e+00
1.017800e+00
1.732180e+00
1.017800e+00
1.161505e+00
8.388812e-01
1.161505e+00
8.388812e-01
1.741079e+00
1.741079e+00
9.431246e-01
9.431246e-01
5.154397e-01
3.987263e-01
5.154397e-01
3.987263e-01
7.301486e-01
7.301486e-01
5.838209e-01
4.909206e-01
5.838209e-01
4.909206e-01
2.954770e-01
2.725907e-01
7.461195e-01
6.391299e-01
2.954770e-01
2.725907e-01
7.461195e-01
6.391299e-01
4.103708e-01
5.823715e-01
4.103708e-01
5.823715e-01
9.577315e-01
1.073486e+00
9.577315e-01
1.073486e+00
3.357928e-01
2.940542e-01
4.474207e-01
3.590807e-01
3.357928e-01
2.940542e-01
4.474207e-01
3.590807e-01
3.354392e-01
6.172824e-01
3.354392e-01
6.172824e-01
5.209790e-01
5.274348e-01
5.209790e-01
5.274348e-01
4.624464e-01
4.624464e-01
6.409191e-01
5.837862e-01
6.409191e-01
5.837862e-01
8.408981e-01
8.408981e-01
8.101095e-01
8.101095e-01
7.450317e-01
7.628777e-01
6.743886e-01
1.006699e+00
7.450317e-01
7.628777e-01
6.743886e-01
1.006699e+00
6.403971e-01
6.403971e-01
6.704396e-01
6.704396e-01
7.488514e-01
9.274691e-01
5.867530e-01
6.594273e-01
7.488514e-01
9.274691e-01
5.867530e-01
6.594273e-01
5.868715e-01
5.868715e-01
4.025502e-01
4.770409e-01
5.848501e-01
4.701591e-01
4.025502e-01
4.770409e-01
5.848501e-01
4.701591e-01
9.217662e-01
9.217662e-01
5.330581e-01
7.340320e-01
5.330581e-01
7.340320e-01
1.683739e+00
1.478741e+00
1.683739e+00
1.478741e+00
1.138406e+00
1.138406e+00
4.855608e-01
4.855608e-01
6.314024e-01
6.314024e-01
5.977467e-01
4.807549e-01
5.977467e-01
4.807549e-01
5.530947e-01
7.677173e-01
5.530947e-01
7.677173e-01
8.215809e-01
8.215809e-01
4.771097e-01
4.067886e-01
7.030038e-01
6.615325e-01
4.771097e-01
4.067886e-01
7.030038e-01
6.615325e-01
5.054295e-01
5.054295e-01
5.099630e-01
5.099630e-01
2.993994e+00
3.413452e+00
7.967892e+00
5.113254e+00
2.993994e+00
3.413452e+00
7.967892e+00
5.113254e+00
3.567568e-01
3.567568e-01
5.203713e-01
5.203713e-01
6.240630e-01
6.240630e-01
5.185331e+00
4.681701e+00
5.185331e+00
4.681701e+00
1.344357e+01
1.344357e+01
1.072114e+01
1.072114e+01
3.769293e+00
3.091017e+00
3.769293e+00
3.091017e+00
8.426195e-01
8.426195e-01
9.601321e-01
9.601321e-01
1.230485e+00
9.579141e-01
1.230485e+00
9.579141e-01
3.736225e-01
5.774026e-01
3.736225e-01
5.774026e-01
7.215807e+00
4.143498e+00
6.675988e+00
1.269709e+01
7.215807e+00
4.143498e+00
6.675988e+00
1.269709e+01
9.446293e-01
9.446293e-01
9.999367e-01
9.999367e-01
9.636777e+00
1.806786e+01
9.636777e+00
1.806786e+01
2.067591e+01
3.409424e+01
2.067591e+01
3.409424e+01
7.946341e-01
7.946341e-01
5.886037e-01
5.886037e-01
7.333340e-01
6.686331e-01
7.333340e-01
6.686331e-01
7.581739e-01
7.581739e-01
4.705812e-01
6.093899e-01
4.705812e-01
6.093899e-01
4.802062e-01
4.802062e-01
6.839906e-01
6.839906e-01
5.558880e-01
5.558880e-01
5.253532e-01
5.084673e-01
5.253532e-01
5.084673e-01
4.776304e-01
4.776304e-01
3.412106e-01
3.412106e-01
3.253475e-01
5.365695e-01
3.253475e-01
5.365695e-01
2.274049e-01
2.274049e-01
1.365069e-01
1.365069e-01
1.441264e-01
1.028995e-01
1.441264e-01
1.028995e-01
2.324719e-01
2.324719e-01
2.975761e-01
2.975761e-01
4.969521e-01
3.147483e-01
4.969521e-01
3.147483e-01
3.738000e-01
2.663855e-01
3.738000e-01
2.663855e-01
3.660146e-01
3.660146e-01
3.157710e-01
2.471742e-01
3.157710e-01
2.471742e-01
3.325673e-01
3.325673e-01
4.158693e-01
4.158693e-01
4.637878e-01
4.637878e-01
3.663231e-01
3.205651e-01
3.663231e-01
3.205651e-01
4.199176e-01
4.199176e-01
3.929795e-01
3.929795e-01
2.346097e-01
2.241118e-01
2.346097e-01
2.241118e-01
3.251177e-01
3.251177e-01
1.562876e-01
1.562876e-01
5.531449e-01
4.715761e-01
5.531449e-01
4.715761e-01
2.805614e-01
2.805614e-01
3.818721e-01
3.818721e-01
4.993393e-01
5.233378e-01
4.993393e-01
5.233378e-01
2.949042e-01
2.930671e-01
2.949042e-01
2.930671e-01
2.164246e-01
2.164246e-01
2.052293e-01
2.392149e-01
2.052293e-01
2.392149e-01
1.930116e-01
1.930116e-01
2.307407e-01
2.307407e-01
1.566223e-01
1.566223e-01
3.547383e-01
2.917498e-01
3.547383e-01
2.917498e-01
1.248408e-01
1.248408e-01
1.516983e-01
1.516983e-01
2.282276e-01
2.586808e-01
2.282276e-01
2.586808e-01
3.682253e-01
3.682253e-01
6.707729e-01
6.707729e-01
3.720588e-01
7.573901e-02
3.720588e-01
7.573901e-02
6.662126e-01
6.662126e-01
5.217620e-01
5.217620e-01
1.308159e-01
3.383370e-01
1.308159e-01
3.383370e-01
1.946812e-01
2.580035e-01
1.946812e-01
2.580035e-01
1.759400e-01
1.759400e-01
3.416397e-01
3.065357e-01
3.416397e-01
3.065357e-01
3.147504e-01
3.147504e-01
2.151196e-01
2.151196e-01
4.216638e-01
4.216638e-01
2.060958e-01
2.445906e-01
2.060958e-01
2.445906e-01
4.440458e-01
4.440458e-01
2.689191e-01
2.689191e-01
1.457833e-01
2.213112e-01
1.457833e-01
2.213112e-01
1.868580e-01
1.868580e-01
1.268962e-01
1.268962e-01
3.800200e-01
1.755994e-01
3.800200e-01
1.755994e-01
2.365980e-01
2.365980e-01
3.794979e-01
3.794979e-01
4.604118e-01
4.433784e-01
4.604118e-01
4.433784e-01
5.020899e-01
4.192888e-01
5.020899e-01
4.192888e-01
5.899624e-01
5.899624e-01
7.750833e-01
6.604589e-01
7.750833e-01
6.604589e-01
5.104745e-01
5.104745e-01
3.900544e-01
3.900544e-01
2.358770e-01
2.358770e-01
3.358676e-01
6.241488e-01
3.358676e-01
6.241488e-01
1.220475e-01
1.220475e-01
7.881120e-02
7.881120e-02
2.848979e-01
5.946720e-02
2.848979e-01
5.946720e-02
1.291920e-01
1.291920e-01
2.729237e-01
2.729237e-01
2.775882e-01
2.999577e-01
2.775882e-01
2.999577e-01
3.593720e-01
3.593720e-01
3.437951e-01
3.437951e-01
3.145197e-01
3.147396e-01
3.145197e-01
3.147396e-01
6.982503e-01
4.870003e-01
6.982503e-01
4.870003e-01
8.728986e-01
8.728986e-01
7.417127e-01
5.299032e-01
7.417127e-01
5.299032e-01
3.450438e-01
3.450438e-01
8.234883e-01
8.234883e-01
3.693339e-01
3.693339e-01
4.650820e-01
8.165526e-01
4.650820e-01
8.165526e-01
1.329528e-01
1.329528e-01
4.732159e-01
4.732159e-01
2.723382e-01
1.483933e-01
2.723382e-01
1.483933e-01
5.179681e-01
5.179681e-01
4.051412e-01
4.051412e-01
2.914294e-01
4.038821e-01
2.914294e-01
4.038821e-01
2.302020e-01
2.302020e-01
1.878734e-01
1.878734e-01
8.774930e-02
1.644109e-01
8.774930e-02
1.644109e-01
2.805096e-01
2.028886e-01
2.805096e-01
2.028886e-01
4.654452e-01
4.654452e-01
3.830158e-01
1.755638e-01
3.830158e-01
1.755638e-01
1.770446e-01
1.770446e-01
6.690757e-01
6.690757e-01
6.167060e-01
6.167060e-01
8.144591e-01
6.423246e-01
8.144591e-01
6.423246e-01
3.853038e-01
3.853038e-01
1.439091e-01
1.439091e-01
1.924631e-01
5.805856e-01
1.924631e-01
5.805856e-01
1.548264e-01
1.548264e-01
1.721636e-01
1.721636e-01
1.496694e-01
8.084401e-02
1.496694e-01
8.084401e-02
1.064049e-01
1.064049e-01
2.155852e-01
2.155852e-01
2.255005e-01
1.024387e-01
2.255005e-01
1.024387e-01
3.818657e-01
1.648716e-01
3.818657e-01
1.648716e-01
6.321620e-01
6.321620e-01
8.436110e-01
7.736400e-01
8.436110e-01
7.736400e-01
4.653689e-01
4.653689e-01
7.028309e-01
7.028309e-01
6.302313e-01
6.302313e-01
1.853443e-01
5.517099e-01
1.853443e-01
5.517099e-01
3.705245e-01
3.705245e-01
1.679184e-01
1.679184e-01
6.467910e-01
2.731761e-01
6.467910e-01
2.731761e-01
4.308212e-01
4.308212e-01
3.557460e-01
3.557460e-01
5.921532e-01
8.391822e-01
5.921532e-01
8.391822e-01
1.515898e-01
1.515898e-01
2.506895e-01
2.506895e-01
4.445899e-02
2.088543e-01
4.445899e-02
2.088543e-01
7.175025e-01
5.941383e-01
7.175025e-01
5.941383e-01
6.636005e-01
6.636005e-01
2.828815e-01
3.021902e-01
2.828815e-01
3.021902e-01
3.270015e-01
3.270015e-01
2.481859e-01
2.481859e-01
3.652838e-01
3.652838e-01
5.229717e-01
3.166880e-01
5.229717e-01
3.166880e-01
6.353232e-01
6.353232e-01
8.307037e-01
8.307037e-01
6.611979e-01
6.354338e-01
6.611979e-01
6.354338e-01
9.009227e-01
9.009227e-01
5.387826e-01
5.387826e-01
2.897694e-01
5.777204e-01
2.897694e-01
5.777204e-01
1.470480e-01
1.470480e-01
1.567953e-01
1.567953e-01
1.753239e-01
1.118976e-01
1.753239e-01
1.118976e-01
4.751965e-01
3.333352e-01
4.751965e-01
3.333352e-01
5.585642e-01
5.585642e-01
1.334704e+00
1.348495e+00
1.334704e+00
1.348495e+00
7.206655e-01
7.206655e-01
6.439082e-01
6.439082e-01
5.769437e-01
5.769437e-01
4.075146e-01
8.772580e-01
4.075146e-01
8.772580e-01
4.322984e-01
4.322984e-01
3.525347e-01
3.525347e-01
2.770507e-01
6.707159e-02
2.770507e-01
6.707159e-02
8.979181e-02
8.979181e-02
7.252651e-02
7.252651e-02
3.899687e-01
4.304356e-01
3.899687e-01
4.304356e-01
2.314938e-01
2.314938e-01
3.048822e-01
3.048822e-01
4.071429e-01
3.745774e-01
4.071429e-01
3.745774e-01
1.662611e+00
8.492957e-01
1.662611e+00
8.492957e-01
1.707041e+00
1.707041e+00
1.579237e+00
1.532294e+00
1.579237e+00
1.532294e+00
8.847953e-01
8.847953e-01
1.013888e+00
1.013888e+00
3.470454e-01
3.470454e-01
2.600735e-01
9.899479e-01
2.600735e-01
9.899479e-01
3.280451e-01
3.280451e-01
6.270077e-01
6.270077e-01
7.292482e-01
4.041352e-01
7.292482e-01
4.041352e-01
7.123385e-01
7.123385e-01
6.183901e-01
6.183901e-01
8.666152e-01
9.515922e-01
8.666152e-01
9.515922e-01
4.411820e-01
4.411820e-01
3.643241e-01
3.643241e-01
4.251260e-01
5.733459e-01
4.251260e-01
5.733459e-01
1.290997e+00
9.514622e-01
1.290997e+00
9.514622e-01
1.133021e+00
1.133021e+00
4.587002e-01
8.665916e-01
4.587002e-01
8.665916e-01
8.282682e-01
8.282682e-01
6.415887e-01
6.415887e-01
1.320203e-01
1.320203e-01
3.027774e-01
1.088289e-01
3.027774e-01
1.088289e-01
6.666792e-01
6.666792e-01
1.157164e+00
1.157164e+00
1.461841e+00
8.927394e-01
1.461841e+00
8.927394e-01
1.431761e+00
1.431761e+00
1.287950e+00
1.287950e+00
1.423564e+00
1.715228e+00
1.423564e+00
1.715228e+00
8.064962e-01
8.064962e-01
5.417596e-01
5.417596e-01
5.806723e-01
8.248118e-01
5.806723e-01
8.248118e-01
3.535167e-01
4.922684e-01
3.535167e-01
4.922684e-01
8.853948e-02
8.853948e-02
2.331170e-01
1.314553e-01
2.331170e-01
1.314553e-01
1.517917e-01
1.517917e-01
2.841462e-01
2.841462e-01
4.124709e-01
4.124709e-01
3.867080e-01
2.726902e-01
3.867080e-01
2.726902e-01
7.357384e-01
7.357384e-01
1.162238e+00
1.162238e+00
5.354827e-01
4.508439e-01
5.354827e-01
4.508439e-01
1.356780e+00
1.356780e+00
1.077044e+00
1.077044e+00
5.311399e-01
6.019554e-01
5.311399e-01
6.019554e-01
6.525227e-01
6.525227e-01
5.211531e-01
5.211531e-01
3.731878e-01
3.943463e-01
3.731878e-01
3.943463e-01
2.167575e-01
4.542350e-02
2.167575e-01
4.542350e-02
1.091931e-01
1.091931e-01
8.634305e-02
2.562576e-01
8.634305e-02
2.562576e-01
1.775339e-01
1.775339e-01
1.553331e-01
1.553331e-01
3.265861e-01
3.265861e-01
3.224976e-01
3.093554e-01
3.224976e-01
3.093554e-01
3.360668e-01
3.360668e-01
1.433142e-01
1.433142e-01
9.118533e-02
3.272737e-01
9.118533e-02
3.272737e-01
1.634365e-01
1.634365e-01
2.476517e-01
2.476517e-01
2.367385e-01
1.940447e-01
2.367385e-01
1.940447e-01
2.198383e-01
2.198383e-01
2.140784e-01
2.140784e-01
2.624801e-01
2.102032e-01
2.624801e-01
2.102032e-01
2.065154e-01
2.947017e-01
5.353771e-01
3.152877e-01
2.065154e-01
2.947017e-01
5.353771e-01
3.152877e-01
2.582347e-01
4.493407e-01
2.582347e-01
4.493407e-01
7.376319e-01
7.224658e-01
7.376319e-01
7.224658e-01
3.936696e-01
3.936696e-01
3.066472e-01
4.924865e-01
3.066472e-01
4.924865e-01
2.520883e-01
3.888689e-01
2.520883e-01
3.888689e-01
3.463268e-01
6.614053e-01
3.463268e-01
6.614053e-01
2.341464e-01
4.082855e-01
2.341464e-01
4.082855e-01
3.774491e-01
3.774491e-01
6.668539e-01
3.947294e-01
6.668539e-01
3.947294e-01
7.839633e-01
7.839633e-01
7.889582e-01
6.008778e-01
7.889582e-01
6.008778e-01
3.610493e-01
3.610493e-01
7.857556e-01
7.857556e-01
4.839395e-01
4.839395e-01
7.970833e-01
9.967748e-01
7.970833e-01
9.967748e-01
3.387866e-01
3.387866e-01
2.663221e-01
2.663221e-01
6.947079e-01
3.126154e-01
6.947079e-01
3.126154e-01
9.938800e-01
9.938800e-01
1.006978e+00
6.832787e-01
1.006978e+00
6.832787e-01
2.396288e-01
2.396288e-01
1.284508e+00
1.284508e+00
1.052555e+00
1.052555e+00
9.082716e-01
1.138193e+00
9.082716e-01
1.138193e+00
1.864863e-01
1.864863e-01
1.068659e-01
1.068659e-01
4.173626e-01
1.751620e-01
4.173626e-01
1.751620e-01
6.954390e-01
6.954390e-01
3.162535e-01
1.600050e-01
3.162535e-01
1.600050e-01
6.912321e-02
6.912321e-02
7.215985e-01
7.215985e-01
5.177331e-01
5.177331e-01
8.906039e-02
3.584837e-01
8.906039e-02
3.584837e-01
1.969029e-01
1.969029e-01
4.359835e-01
4.359835e-01
1.496201e-01
1.674870e-01
1.496201e-01
1.674870e-01
1.774741e-01
1.774741e-01
1.326906e-01
1.967041e-01
1.326906e-01
1.967041e-01
1.482033e-01
1.482033e-01
1.601374e-01
1.601374e-01
2.754105e-01
2.754105e-01
2.301809e-01
1.664061e-01
2.301809e-01
1.664061e-01
4.276612e-01
4.276612e-01
2.359544e-01
2.359544e-01
1.436803e-01
2.631484e-01
1.436803e-01
2.631484e-01
2.062334e-01
2.062334e-01
2.505531e-01
2.223984e-01
2.505531e-01
2.223984e-01
3.551637e-01
3.551637e-01
1.213577e-01
1.213577e-01
7.141511e-02
7.141511e-02
1.782972e-01
3.099423e-01
1.782972e-01
3.099423e-01
1.648835e-01
1.648835e-01
1.897913e-01
1.897913e-01
6.738424e-01
6.649754e-01
6.738424e-01
6.649754e-01
4.905554e-01
4.905554e-01
3.377014e-01
7.557799e-01
3.377014e-01
7.557799e-01
1.271708e+00
1.271708e+00
4.353091e-01
4.353091e-01
2.414422e-01
2.414422e-01
3.249655e-01
3.496235e-01
3.249655e-01
3.496235e-01
3.060603e-01
3.060603e-01
4.551387e-01
4.551387e-01
4.503507e-01
3.654886e-01
4.503507e-01
3.654886e-01
5.053232e-01
5.053232e-01
4.531075e-01
4.531075e-01
3.835692e-01
5.140802e-01
3.835692e-01
5.140802e-01
4.199743e-01
4.199743e-01
3.607700e-01
3.607700e-01
3.737596e-01
3.284608e-01
3.737596e-01
3.284608e-01
1.227309e-01
1.227309e-01
2.300537e-01
2.300537e-01
1.398772e-01
1.481406e-01
1.398772e-01
1.481406e-01
1.314975e-01
1.314975e-01
5.917502e-02
5.917502e-02
9.927794e-01
2.057907e+00
9.927794e-01
2.057907e+00
3.927283e-01
3.927283e-01
1.210302e+00
8.151365e-01
1.210302e+00
8.151365e-01
1.952379e+00
1.952379e+00
2.872178e-01
2.872178e-01
4.036154e-01
4.036154e-01
4.148543e-01
3.477515e-01
4.148543e-01
3.477515e-01
4.873637e-01
4.873637e-01
4.134700e-01
4.134700e-01
6.563368e-01
7.084001e-01
6.563368e-01
7.084001e-01
4.192085e-01
4.192085e-01
3.502602e-01
3.502602e-01
3.345698e-01
2.371497e-01
3.345698e-01
2.371497e-01
2.572089e-01
2.572089e-01
2.533779e-01
2.533779e-01
2.212044e-01
3.763572e-01
2.212044e-01
3.763572e-01
1.648890e-01
1.648890e-01
5.753894e-02
5.753894e-02
2.671124e-01
1.767585e-01
2.671124e-01
1.767585e-01
1.061664e-01
1.061664e-01
2.557203e-01
2.557203e-01
2.997171e-01
2.997171e-01
1.641565e-01
1.641565e-01
1.485115e-01
3.148789e-01
1.485115e-01
3.148789e-01
1.716881e-01
1.716881e-01
2.073863e-01
2.073863e-01
1.949187e-01
3.638200e-01
1.949187e-01
3.638200e-01
8.690787e-01
8.690787e-01
5.614466e-01
5.614466e-01
4.740579e-01
8.307572e-01
4.740579e-01
8.307572e-01
2.491690e-01
2.491690e-01
1.559883e-01
1.559883e-01
7.686711e-01
1.071630e+00
7.686711e-01
1.071630e+00
1.094883e+00
1.094883e+00
9.491488e-01
9.491488e-01
7.150966e-01
5.674878e-01
7.150966e-01
5.674878e-01
3.849954e-01
3.849954e-01
5.758405e-01
5.758405e-01
5.705272e-01
1.413057e+00
5.705272e-01
1.413057e+00
1.096760e+00
1.096760e+00
1.391977e+00
1.391977e+00
1.418872e+00
1.494617e+00
1.418872e+00
1.494617e+00
4.549606e-01
1.453002e+00
4.549606e-01
1.453002e+00
4.131672e-01
1.178256e+00
4.131672e-01
1.178256e+00
4.552575e-01
7.991253e-01
4.552575e-01
7.991253e-01
2.128796e-01
2.065319e-01
1.721047e-01
3.239954e-01
2.128796e-01
2.065319e-01
1.721047e-01
3.239954e-01
3.236804e-01
2.854521e-01
3.236804e-01
2.854521e-01
1.350178e-01
1.545618e-01
1.350178e-01
1.545618e-01
2.713441e-01
2.713441e-01
3.193163e-01
1.770970e-01
1.508919e-01
1.737100e-01
3.193163e-01
1.770970e-01
1.508919e-01
1.737100e-01
2.091795e-01
8.552872e-02
2.091795e-01
8.552872e-02
1.683993e-01
1.505633e-01
1.683993e-01
1.505633e-01
1.557647e-01
1.557647e-01
5.687620e-01
4.172149e-01
3.634560e-01
4.046488e-01
5.687620e-01
4.172149e-01
3.634560e-01
4.046488e-01
2.620822e-01
3.849444e-01
2.620822e-01
3.849444e-01
4.582948e-01
3.617624e-01
4.582948e-01
3.617624e-01
2.610263e-01
2.610263e-01
4.584378e-01
3.424850e-01
3.072517e-01
4.584378e-01
3.424850e-01
3.072517e-01
3.078959e-01
2.948104e-01
3.078959e-01
2.948104e-01
3.578470e-01
3.260171e-01
3.578470e-01
3.260171e-01
5.670029e-01
5.670029e-01
1.559592e+00
8.874805e-01
8.282362e-01
1.371801e+00
1.559592e+00
8.874805e-01
8.282362e-01
1.371801e+00
5.410800e-01
5.410800e-01
1.044772e+00
1.044772e+00
1.964079e-01
4.035029e-01
4.904496e-01
2.988317e-01
1.964079e-01
4.035029e-01
4.904496e-01
2.988317e-01
1.362869e+00
8.238572e-01
1.362869e+00
8.238572e-01
1.024852e+00
4.729178e-01
1.024852e+00
4.729178e-01
3.470065e-01
3.470065e-01
8.041861e-01
9.198680e-01
1.820165e+00
1.796775e+00
8.041861e-01
9.198680e-01
1.820165e+00
1.796775e+00
1.123160e+00
1.123160e+00
2.341605e+00
2.341605e+00
1.982408e+00
1.982408e+00
2.600202e-01
1.658147e-01
2.600202e-01
1.658147e-01
1.863829e-01
1.863829e-01
1.354861e-01
9.327686e-02
1.354861e-01
9.327686e-02
2.780658e-01
2.780658e-01
1.185013e-01
2.021007e-01
2.333085e-01
2.499772e-01
1.185013e-01
2.021007e-01
2.333085e-01
2.499772e-01
2.548241e-01
2.548241e-01
1.959063e-01
2.662887e-01
1.959063e-01
2.662887e-01
2.700433e-01
2.700433e-01
4.290142e-02
1.493492e-01
1.856991e-01
1.927749e-01
4.290142e-02
1.493492e-01
1.856991e-01
1.927749e-01
9.220092e-02
1.023595e-01
9.220092e-02
1.023595e-01
6.170519e-02
6.170519e-02
1.105342e-01
1.541216e-01
1.105342e-01
1.541216e-01
1.626148e-01
1.626148e-01
1.462145e+00
1.635312e+00
1.433590e+00
1.046738e+00
1.462145e+00
1.635312e+00
1.433590e+00
1.046738e+00
2.849396e+00
2.849396e+00
2.132637e+00
2.132637e+00
2.054813e+00
1.134225e+00
2.054813e+00
1.134225e+00
1.354524e+00
1.354524e+00
9.006992e-01
1.771070e+00
9.006992e-01
1.771070e+00
3.887584e-01
2.730307e-01
3.750753e-01
3.887584e-01
2.730307e-01
3.750753e-01
3.832053e-01
3.832053e-01
4.344887e-01
4.344887e-01
3.283961e-01
3.122072e-01
3.208035e-01
6.880158e-01
3.283961e-01
3.122072e-01
3.208035e-01
6.880158e-01
4.786005e-01
3.303218e-01
4.786005e-01
3.303218e-01
5.495272e-01
5.495272e-01
1.331605e+00
1.331605e+00
8.000689e-01
9.952348e-01
5.414650e-01
5.987331e-01
8.000689e-01
9.952348e-01
5.414650e-01
5.987331e-01
5.566037e-01
4.009087e-01
5.566037e-01
4.009087e-01
8.263703e-01
8.634696e-01
8.263703e-01
8.634696e-01
6.750418e-01
6.750418e-01
6.787547e-01
7.197768e-01
1.017602e+00
8.377997e-01
6.787547e-01
7.197768e-01
1.017602e+00
8.377997e-01
9.169970e-01
9.169970e-01
9.566069e-01
9.566069e-01
4.585881e-01
4.585881e-01
5.629507e-01
5.629507e-01
6.525583e-01
4.105524e-01
6.525583e-01
4.105524e-01
3.163053e+00
1.954133e+00
4.090617e+00
5.235940e+00
3.163053e+00
1.954133e+00
4.090617e+00
5.235940e+00
1.095021e+00
2.698714e+00
1.095021e+00
2.698714e+00
2.117817e+00
3.505061e+00
2.117817e+00
3.505061e+00
4.973828e+00
4.973828e+00
3.870391e-01
4.891587e-01
3.870391e-01
4.891587e-01
6.511679e-01
6.511679e-01
7.020320e-01
6.144377e-01
7.020320e-01
6.144377e-01
4.621158e-01
4.621158e-01
4.445009e-01
7.411476e-01
4.445009e-01
7.411476e-01
4.158550e-01
4.158550e-01
7.650551e-01
7.650551e-01
4.968069e-01
4.968069e-01
4.993741e+00
2.457603e+00
4.993741e+00
2.457603e+00
3.969304e+00
3.969304e+00
2.795729e-01
6.159425e-01
2.795729e-01
6.159425e-01
4.087744e-01
1.869418e-01
4.087744e-01
1.869418e-01
1.371078e-01
2.307708e-01
3.134334e-01
2.756350e-01
1.371078e-01
2.307708e-01
3.134334e-01
2.756350e-01
3.002072e-01
2.550805e-01
3.002072e-01
2.550805e-01
1.944244e-01
1.944244e-01
1.302654e-01
2.130168e-01
1.302654e-01
2.130168e-01
2.321456e-01
2.321456e-01
2.224622e-01
2.224622e-01
3.097425e-01
3.097425e-01
4.629265e-01
3.796463e-01
4.629265e-01
3.796463e-01
2.249046e-01
2.704638e-01
2.249046e-01
2.704638e-01
2.002611e+00
2.002611e+00
1.010717e+00
1.010717e+00
4.913934e-01
4.913934e-01
6.482466e-01
6.482466e-01
3.178755e-01
3.178755e-01
1.805569e-01
1.805569e-01
1.463994e-01
1.598766e-01
1.463994e-01
1.598766e-01
1.414368e+00
9.464574e-01
1.414368e+00
9.464574e-01
9.548810e-01
9.548810e-01
6.512530e-01
6.512530e-01
6.226596e-01
6.226596e-01
9.647433e-01
9.647433e-01
1.988661e-01
5.579381e-01
1.988661e-01
5.579381e-01
1.750584e-01
1.750584e-01
8.148509e-02
1.284966e-01
8.148509e-02
1.284966e-01
1.806987e-01
1.806987e-01
1.782965e-01
9.306100e-02
1.782965e-01
9.306100e-02
2.523881e-01
1.656018e-01
2.523881e-01
1.656018e-01
4.684817e-01
1.860540e-01
4.684817e-01
1.860540e-01
3.832580e-01
7.285385e-02
3.832580e-01
7.285385e-02
1.626735e-01
1.365804e-01
1.626735e-01
1.365804e-01
7.683174e-02
3.111757e-01
7.683174e-02
3.111757e-01
2.305723e-01
1.687934e-01
2.305723e-01
1.687934e-01
1.553062e-01
7.544902e-02
1.553062e-01
7.544902e-02
1.073389e-01
1.597128e-01
1.073389e-01
1.597128e-01
8.667491e-02
6.114256e-02
8.667491e-02
6.114256e-02
1.944954e-01
5.062047e-02
1.944954e-01
5.062047e-02
1.109957e-01
8.023604e-02
1.109957e-01
8.023604e-02
1.607418e-01
6.724153e-02
1.607418e-01
6.724153e-02
1.571485e-01
8.978784e-02
1.571485e-01
8.978784e-02
1.390901e-01
1.703911e-01
1.390901e-01
1.703911e-01
1.597085e-01
1.022186e-01
1.597085e-01
1.022186e-01
3.163298e-01
2.019940e-01
3.163298e-01
2.019940e-01
1.289373e-01
1.561417e-01
1.289373e-01
1.561417e-01
1.440671e-01
6.986283e-02
1.440671e-01
6.986283e-02
1.283637e-01
1.583825e-01
1.283637e-01
1.583825e-01
1.827481e-01
6.668410e-02
1.827481e-01
6.668410e-02
1.493168e-01
5.898226e-02
1.493168e-01
5.898226e-02
1.726487e-01
1.134747e-01
1.726487e-01
1.134747e-01
1.477959e-01
1.199675e-01
1.477959e-01
1.199675e-01
1.208459e-01
1.705202e-01
1.208459e-01
1.705202e-01
7.740848e-02
1.932035e-01
7.740848e-02
1.932035e-01
2.237950e-01
1.452391e-01
2.237950e-01
1.452391e-01
1.487331e-01
2.425981e-01
1.487331e-01
2.425981e-01
1.846836e-01
8.661140e-02
1.846836e-01
8.661140e-02
1.225450e-01
3.109822e-01
1.225450e-01
3.109822e-01
1.374988e-01
2.247464e-01
1.374988e-01
2.247464e-01
1.716957e-01
2.974007e-01
1.716957e-01
2.974007e-01
2.423150e-01
2.331815e-01
2.423150e-01
2.331815e-01
7.813683e-02
9.367320e-02
7.813683e-02
9.367320e-02
1.465483e-01
1.052364e-01
1.465483e-01
1.052364e-01
1.154967e-01
8.579484e-02
1.154967e-01
8.579484e-02
4.730550e-02
1.883374e-01
4.730550e-02
1.883374e-01
1.785624e-01
1.709438e-02
1.785624e-01
1.709438e-02
1.143815e-01
1.318185e-01
1.143815e-01
1.318185e-01
2.610134e-01
2.354048e-01
2.610134e-01
2.354048e-01
3.578677e-01
2.953211e-01
3.578677e-01
2.953211e-01
2.103245e-01
1.880371e-01
2.103245e-01
1.880371e-01
1.231519e-01
1.231519e-01
2.475412e-01
2.475412e-01
1.678807e-01
1.229179e-01
1.678807e-01
1.229179e-01
1.201888e-01
1.201888e-01
1.213854e-01
1.213854e-01
1.539393e-01
9.073497e-02
1.539393e-01
9.073497e-02
7.241092e-02
7.241092e-02
1.509919e-01
1.509919e-01
1.869935e-01
1.946305e-01
1.869935e-01
1.946305e-01
1.631401e-01
1.631401e-01
3.743503e-02
3.743503e-02
1.253807e-01
1.038260e-01
1.253807e-01
1.038260e-01
1.304407e-01
1.304407e-01
1.696563e-01
1.696563e-01
1.202034e-01
1.053844e-01
1.202034e-01
1.053844e-01
7.601965e-02
7.601965e-02
1.974751e-01
1.974751e-01
1.172753e-01
1.240945e-01
1.172753e-01
1.240945e-01
1.049484e-01
1.049484e-01
5.996875e-02
5.996875e-02
2.557649e-01
2.031941e-01
2.557649e-01
2.031941e-01
4.543702e-02
4.543702e-02
1.321588e-01
1.321588e-01
2.226437e-01
2.325193e-01
2.226437e-01
2.325193e-01
1.157722e-01
1.157722e-01
2.093728e-01
2.093728e-01
1.614563e-01
1.341994e-01
1.614563e-01
1.341994e-01
2.695227e-01
2.695227e-01
1.378446e-01
1.378446e-01
1.604708e-01
2.613954e-01
1.604708e-01
2.613954e-01
2.277924e-01
2.277924e-01
4.637240e-02
4.637240e-02
7.818877e-02
7.301290e-02
7.818877e-02
7.301290e-02
2.077716e-01
2.077716e-01
2.277948e-01
2.277948e-01
1.791703e-01
1.225462e-01
1.791703e-01
1.225462e-01
1.108618e-01
1.108618e-01
9.230970e-02
9.230970e-02
1.418588e-01
1.674410e-01
1.418588e-01
1.674410e-01
5.855140e-02
5.855140e-02
1.636629e-01
1.636629e-01
3.515055e-01
1.666867e-01
3.515055e-01
1.666867e-01
1.962740e-01
1.962740e-01
1.016023e-01
1.016023e-01
8.185479e-02
1.040038e-01
8.185479e-02
1.040038e-01
1.173185e-01
1.173185e-01
7.260726e-02
7.260726e-02
1.068670e-01
2.047266e-01
1.068670e-01
2.047266e-01
1.599133e-01
1.599133e-01
1.015158e-01
1.015158e-01
1.101257e-01
1.856881e-01
1.101257e-01
1.856881e-01
1.476282e-01
1.476282e-01
4.470958e-02
4.470958e-02
1.173369e-01
1.357142e-01
1.173369e-01
1.357142e-01
3.084487e-01
3.084487e-01
2.083722e-01
2.083722e-01
1.110921e-01
1.355876e-01
1.110921e-01
1.355876e-01
2.719008e-01
2.719008e-01
1.870159e-01
1.870159e-01
2.116149e-01
2.536249e-01
2.116149e-01
2.536249e-01
2.270462e-01
2.270462e-01
2.051189e-01
2.051189e-01
1.792437e-01
1.323201e-01
1.792437e-01
1.323201e-01
1.697890e-01
1.697890e-01
1.545141e-01
1.545141e-01
1.253757e-01
1.329309e-01
1.253757e-01
1.329309e-01
1.408306e-01
1.408306e-01
2.370486e-01
2.370486e-01
1.907533e-01
1.759631e-01
1.907533e-01
1.759631e-01
2.538762e-01
2.538762e-01
1.611053e-01
1.611053e-01
5.675237e-02
1.646152e-01
5.675237e-02
1.646152e-01
7.839173e-02
7.839173e-02
1.159113e-01
1.159113e-01
1.959347e-01
4.919058e-02
1.959347e-01
4.919058e-02
1.864274e-01
1.864274e-01
1.339970e-01
1.339970e-01
2.490700e-01
1.249387e-01
2.490700e-01
1.249387e-01
1.237577e-01
1.237577e-01
8.724114e-02
8.724114e-02
3.774006e-02
2.139416e-01
3.774006e-02
2.139416e-01
1.445328e-01
1.445328e-01
2.674285e-01
2.674285e-01
2.304378e-01
1.233190e-01
2.304378e-01
1.233190e-01
1.878706e-01
1.878706e-01
2.058670e-01
2.058670e-01
1.802429e-01
1.430535e-01
1.802429e-01
1.430535e-01
1.438112e-01
1.438112e-01
1.453430e-01
1.453430e-01
1.811655e-01
1.528120e-01
1.811655e-01
1.528120e-01
1.738691e-01
1.738691e-01
1.457504e-01
1.457504e-01
1.177518e-01
2.098404e-01
1.177518e-01
2.098404e-01
1.855921e-01
1.855921e-01
8.223969e-02
8.223969e-02
1.452294e-01
1.675732e-01
1.452294e-01
1.675732e-01
1.266957e-01
1.266957e-01
7.489614e-02
7.489614e-02
4.977587e-02
1.035966e-01
4.977587e-02
1.035966e-01
1.217579e-01
1.217579e-01
2.277965e-01
2.277965e-01
2.379144e-01
6.098607e-02
2.379144e-01
6.098607e-02
1.519715e-01
1.519715e-01
2.311917e-01
2.311917e-01
2.694818e-01
3.058722e-01
2.694818e-01
3.058722e-01
1.822083e-01
1.822083e-01
1.049107e-01
1.049107e-01
2.838760e-01
1.559211e-01
2.838760e-01
1.559211e-01
1.706324e-01
1.706324e-01
2.241213e-01
2.241213e-01
3.344167e-01
3.047454e-01
3.344167e-01
3.047454e-01
2.300892e-01
2.300892e-01
9.485611e-02
9.485611e-02
1.439043e-01
8.450115e-02
1.439043e-01
8.450115e-02
6.896097e-02
6.896097e-02
1.382912e-01
1.382912e-01
2.703660e-01
1.011370e-01
2.703660e-01
1.011370e-01
9.393733e-02
9.393733e-02
3.273614e-01
3.273614e-01
6.934679e-02
1.692772e-01
6.934679e-02
1.692772e-01
2.126360e-01
2.126360e-01
1.011538e-01
1.011538e-01
6.079501e-02
2.900243e-02
6.079501e-02
2.900243e-02
8.023271e-02
8.023271e-02
1.572552e-01
1.572552e-01
1.188088e-01
9.061459e-02
1.188088e-01
9.061459e-02
6.513795e-02
6.513795e-02
1.360459e-01
1.360459e-01
1.457102e-01
1.225205e-01
1.457102e-01
1.225205e-01
9.751253e-02
9.751253e-02
2.275269e-02
2.275269e-02
1.717148e-01
1.454402e-01
1.717148e-01
1.454402e-01
6.137127e-02
6.137127e-02
1.357874e-01
1.357874e-01
1.624994e-01
1.230945e-01
1.624994e-01
1.230945e-01
7.377002e-02
7.377002e-02
1.624780e-01
1.624780e-01
1.739434e-01
9.567731e-02
1.739434e-01
9.567731e-02
1.197506e-01
1.197506e-01
3.438600e-02
3.438600e-02
2.710320e-02
1.586321e-01
2.710320e-02
1.586321e-01
8.133488e-02
8.133488e-02
2.430471e-01
2.430471e-01
2.978227e-01
2.026635e-01
2.978227e-01
2.026635e-01
2.669964e-01
2.669964e-01
1.792917e-01
1.792917e-01
1.655209e-01
1.816732e-01
1.655209e-01
1.816732e-01
2.160276e-01
2.160276e-01
3.049389e-01
3.049389e-01
3.472455e-01
3.573149e-01
3.472455e-01
3.573149e-01
2.633348e-01
2.633348e-01
2.201449e-01
2.201449e-01
1.549616e-01
1.864417e-01
1.549616e-01
1.864417e-01
5.157209e-02
5.157209e-02
1.108674e-01
1.108674e-01
2.579227e-01
2.002638e-01
2.579227e-01
2.002638e-01
1.551463e-01
1.551463e-01
1.661058e-01
1.661058e-01
1.610375e-01
4.424019e-01
1.610375e-01
4.424019e-01
2.465872e-01
2.465872e-01
1.505996e-01
1.505996e-01
2.818766e-01
3.794706e-01
2.818766e-01
3.794706e-01
8.798313e-02
8.798313e-02
1.175145e-01
1.175145e-01
1.138537e-01
1.846440e-01
1.138537e-01
1.846440e-01
4.722654e-02
4.722654e-02
1.770035e-01
1.770035e-01
3.410483e-01
1.819856e-01
3.410483e-01
1.819856e-01
2.045103e-01
1.282346e-01
2.045103e-01
1.282346e-01
7.971963e-02
7.971963e-02
1.584580e-01
7.587173e-02
1.584580e-01
7.587173e-02
2.317976e-01
2.317976e-01
8.685739e-02
8.685739e-02
9.597854e-02
9.597854e-02
1.409599e-01
1.924794e-01
1.409599e-01
1.924794e-01
1.743712e-01
1.743712e-01
1.045393e-01
1.045393e-01
1.868341e-01
1.244262e-01
1.868341e-01
1.244262e-01
2.253182e-01
2.253182e-01
2.853003e-01
2.853003e-01
3.179999e-02
8.935190e-02
3.179999e-02
8.935190e-02
1.873030e-01
1.873030e-01
2.402709e-01
2.402709e-01
1.710678e-01
1.418140e-01
1.710678e-01
1.418140e-01
1.760468e-01
1.760468e-01
1.237661e-01
1.237661e-01
1.183323e-01
1.492872e-01
1.183323e-01
1.492872e-01
1.341202e-01
1.341202e-01
3.364893e-01
3.364893e-01
4.347709e-01
1.112510e-01
4.347709e-01
1.112510e-01
5.106871e-01
5.106871e-01
5.558540e-01
5.558540e-01
5.357873e-01
4.759606e-01
5.357873e-01
4.759606e-01
1.316059e-01
2.242110e-01
1.316059e-01
2.242110e-01
1.399038e-01
1.399038e-01
1.727700e-01
8.386786e-02
1.727700e-01
8.386786e-02
2.632529e-01
2.632529e-01
1.674189e-01
1.674189e-01
9.530107e-02
9.530107e-02
1.905426e-01
1.702742e-01
1.905426e-01
1.702742e-01
1.701357e-01
1.701357e-01
2.334884e-01
2.334884e-01
1.360161e-01
1.208946e-01
1.360161e-01
1.208946e-01
1.698249e-01
1.698249e-01
1.448945e-01
1.448945e-01
1.972484e-01
1.851797e-01
1.972484e-01
1.851797e-01
1.950448e-01
1.950448e-01
7.854101e-02
7.854101e-02
5.196832e-02
1.989319e-01
5.196832e-02
1.989319e-01
9.780486e-02
9.780486e-02
1.172074e-01
1.172074e-01
8.757562e-02
4.138151e-02
8.757562e-02
4.138151e-02
1.375410e-01
1.375410e-01
2.620376e-01
2.620376e-01
1.389861e-01
1.523764e-01
1.389861e-01
1.523764e-01
3.182385e-01
3.182385e-01
3.631539e-01
3.631539e-01
1.295304e-01
8.252032e-02
1.295304e-01
8.252032e-02
2.136994e-01
5.338659e-01
2.136994e-01
5.338659e-01
2.251784e-01
2.251784e-01
1.355710e-01
4.119484e-01
1.355710e-01
4.119484e-01
8.361746e-01
8.361746e-01
2.987454e-01
2.987454e-01
1.739216e-01
1.739216e-01
7.433091e-02
1.112783e-01
7.433091e-02
1.112783e-01
1.271168e-01
1.271168e-01
1.597991e-01
1.597991e-01
1.955720e-01
5.496832e-02
1.955720e-01
5.496832e-02
2.472302e-01
2.472302e-01
1.228273e-01
1.228273e-01
6.249093e-02
2.656405e-01
6.249093e-02
2.656405e-01
1.335200e-01
1.335200e-01
1.105114e-01
1.105114e-01
2.429371e-01
2.570639e-01
2.429371e-01
2.570639e-01
1.179676e-01
1.179676e-01
4.441548e-02
4.441548e-02
2.793263e-01
1.519593e-01
2.793263e-01
1.519593e-01
6.154645e-02
6.154645e-02
1.782956e-01
1.782956e-01
3.590865e-01
1.086457e-01
3.590865e-01
1.086457e-01
2.215608e-01
2.215608e-01
1.864247e-01
1.864247e-01
4.433013e-01
4.871830e-01
4.433013e-01
4.871830e-01
3.781122e-01
8.665854e-01
3.781122e-01
8.665854e-01
1.313007e-01
1.313007e-01
1.423296e-01
2.936433e-01
1.423296e-01
2.936433e-01
6.983610e-01
6.983610e-01
2.169572e-01
2.169572e-01
2.792349e-01
2.792349e-01
4.200803e-01
3.735565e-01
4.200803e-01
3.735565e-01
2.301098e-01
2.301098e-01
3.115562e-02
3.115562e-02
1.702782e-01
2.827048e-01
1.702782e-01
2.827048e-01
2.167591e-01
2.167591e-01
1.711293e-01
1.711293e-01
2.697715e-01
1.812691e-01
2.697715e-01
1.812691e-01
2.223242e-01
2.223242e-01
1.975391e-01
1.975391e-01
2.817716e-01
1.583713e-01
2.817716e-01
1.583713e-01
1.909009e-01
1.909009e-01
1.748651e-01
1.748651e-01
2.069036e-01
1.627602e-01
2.069036e-01
1.627602e-01
1.782777e-01
1.782777e-01
3.019217e-01
3.019217e-01
1.316096e-01
5.325003e-02
1.316096e-01
5.325003e-02
4.984345e-01
4.984345e-01
4.890951e-01
4.890951e-01
2.483867e-01
2.233074e-01
2.483867e-01
2.233074e-01
2.867416e-01
6.323374e-01
2.867416e-01
6.323374e-01
2.203191e-01
2.203191e-01
1.952454e-01
4.136490e-01
1.952454e-01
4.136490e-01
6.180119e-01
6.180119e-01
3.262525e-01
3.262525e-01
1.432548e-01
1.432548e-01
2.740803e-01
1.443427e-01
2.740803e-01
1.443427e-01
1.524815e-01
1.524815e-01
1.164753e-01
1.164753e-01
1.169450e-01
1.830739e-01
1.169450e-01
1.830739e-01
7.267206e-02
7.267206e-02
1.792570e-01
1.792570e-01
1.494938e-01
1.310455e-01
1.494938e-01
1.310455e-01
1.308056e-01
1.308056e-01
2.386817e-01
2.386817e-01
8.049007e-02
1.856748e-01
8.049007e-02
1.856748e-01
9.368021e-02
9.368021e-02
1.503705e-01
1.503705e-01
1.805839e-01
1.075162e-01
1.805839e-01
1.075162e-01
8.649320e-02
8.649320e-02
1.319817e-01
1.319817e-01
2.255491e-01
1.780134e-01
2.255491e-01
1.780134e-01
8.423713e-02
8.423713e-02
1.357362e-01
1.357362e-01
2.838537e-01
1.361936e-01
2.838537e-01
1.361936e-01
3.474407e-01
4.838246e-01
3.474407e-01
4.838246e-01
1.229600e-01
1.229600e-01
8.233029e-02
1.173915e-01
8.233029e-02
1.173915e-01
1.870389e-01
1.870389e-01
2.967322e-01
2.967322e-01
3.540351e-01
3.540351e-01
1.862858e-01
2.878426e-01
1.862858e-01
2.878426e-01
2.871000e-01
2.871000e-01
1.912604e-01
1.912604e-01
2.599276e-01
2.756053e-01
2.599276e-01
2.756053e-01
1.317532e-01
1.317532e-01
1.423997e-01
1.423997e-01
1.169657e-01
1.138008e-01
1.169657e-01
1.138008e-01
7.866110e-02
7.866110e-02
7.573973e-02
7.573973e-02
5.972951e-02
1.628103e-01
5.972951e-02
1.628103e-01
4.949406e-02
4.949406e-02
1.409650e-01
1.409650e-01
2.059421e-01
1.804595e-01
2.059421e-01
1.804595e-01
1.718435e-01
1.718435e-01
1.688675e-01
1.688675e-01
5.069731e-02
1.499377e-01
5.069731e-02
1.499377e-01
1.462990e-01
1.462990e-01
2.173952e-01
2.173952e-01
1.307056e-01
8.030893e-02
1.307056e-01
8.030893e-02
8.831265e-02
1.274458e-01
1.273691e-01
1.934754e-01
8.831265e-02
1.274458e-01
1.273691e-01
1.934754e-01
2.158846e-02
1.053001e-01
2.158846e-02
1.053001e-01
4.979431e-02
6.828608e-02
4.979431e-02
6.828608e-02
7.074033e-02
7.074033e-02
1.275507e-01
1.413761e-01
1.275507e-01
1.413761e-01
6.928274e-02
6.928274e-02
7.596040e-02
7.468842e-02
7.596040e-02
7.468842e-02
1.213451e-01
1.213451e-01
2.248765e-01
1.342413e-01
2.248765e-01
1.342413e-01
9.653895e-02
9.653895e-02
2.423040e-01
3.183689e-01
2.423040e-01
3.183689e-01
2.059001e-01
2.059001e-01
2.056967e-01
1.813834e-01
2.056967e-01
1.813834e-01
1.789363e-01
1.789363e-01
1.061651e-01
8.175684e-02
1.061651e-01
8.175684e-02
9.879118e-02
9.879118e-02
4.257865e-01
2.041394e-01
4.257865e-01
2.041394e-01
2.277886e-01
2.277886e-01
2.838980e-01
4.429065e-01
2.838980e-01
4.429065e-01
2.193503e-01
2.193503e-01
2.779797e-01
2.795221e-01
2.779797e-01
2.795221e-01
2.177938e-01
2.177938e-01
4.715467e-01
2.253679e-01
4.715467e-01
2.253679e-01
1.189711e-01
1.189711e-01
1.891292e-01
1.033385e-01
1.891292e-01
1.033385e-01
3.578399e-01
3.578399e-01
1.009518e+00
5.254443e-01
1.009518e+00
5.254443e-01
1.681993e-01
1.681993e-01
1.522828e-01
1.462596e-01
1.522828e-01
1.462596e-01
2.082433e-01
1.235387e-01
2.082433e-01
1.235387e-01
1.354222e-01
2.749402e-02
1.354222e-01
2.749402e-02
1.723953e-01
1.444130e-01
1.723953e-01
1.444130e-01
1.967345e-01
1.967345e-01
6.740004e-02
6.740004e-02
1.733481e-01
1.733481e-01
1.738863e-01
1.084763e-01
1.738863e-01
1.084763e-01
2.804883e-01
2.804883e-01
3.023573e-01
3.023573e-01
1.211465e-01
1.211465e-01
1.848432e-01
1.848432e-01
1.395077e-01
1.094886e-01
1.395077e-01
1.094886e-01
2.417532e-01
2.417532e-01
1.763042e-01
1.763042e-01
1.426111e-01
1.426111e-01
2.912786e-01
2.912786e-01
3.199869e-01
2.403389e-01
3.199869e-01
2.403389e-01
2.719801e-01
2.719801e-01
1.965981e-01
1.965981e-01
2.530355e-01
2.530355e-01
2.132115e-01
2.132115e-01
2.707151e-01
1.010935e-01
2.707151e-01
1.010935e-01
1.368994e-01
1.368994e-01
1.842203e-01
1.842203e-01
2.093355e-01
2.093355e-01
3.115651e-01
3.115651e-01
2.375945e-01
4.432085e-01
2.375945e-01
4.432085e-01
2.181999e-01
2.181999e-01
1.768890e-01
1.768890e-01
1.655519e-01
1.655519e-01
2.797479e-01
2.797479e-01
2.945714e-01
6.917884e-01
2.945714e-01
6.917884e-01
1.557608e-01
1.557608e-01
1.914093e-01
1.914093e-01
2.745677e-01
2.745677e-01
1.823182e-01
1.823182e-01
1.572523e-01
3.101106e-01
1.572523e-01
3.101106e-01
5.128901e-01
5.128901e-01
1.966679e-01
1.966679e-01
1.500188e-01
1.500188e-01
1.041283e-01
1.041283e-01
7.827206e-02
5.960671e-02
7.827206e-02
5.960671e-02
1.944215e-01
1.944215e-01
7.732422e-02
7.732422e-02
1.455656e-01
1.618639e-01
1.455656e-01
1.618639e-01
1.037994e-01
1.037994e-01
1.152697e-01
1.152697e-01
1.198749e-01
9.782636e-02
1.198749e-01
9.782636e-02
1.825477e-01
1.825477e-01
6.243846e-02
6.243846e-02
1.653012e-01
1.967248e-01
1.653012e-01
1.967248e-01
2.042762e-01
2.042762e-01
1.484369e-01
1.484369e-01
2.094108e-01
1.444158e-01
2.094108e-01
1.444158e-01
7.957101e-02
7.957101e-02
1.259542e-01
1.259542e-01
6.799936e-02
1.919241e-01
6.799936e-02
1.919241e-01
4.890483e-02
4.890483e-02
1.241686e-01
1.241686e-01
2.415293e-01
2.220714e-01
2.415293e-01
2.220714e-01
1.302996e-01
1.302996e-01
9.582208e-02
9.582208e-02
1.201103e-01
1.548603e-01
1.201103e-01
1.548603e-01
1.764246e-01
1.764246e-01
1.005484e-01
1.005484e-01
1.342469e-01
1.789200e-01
1.342469e-01
1.789200e-01
2.513349e-01
2.513349e-01
2.616971e-01
2.616971e-01
3.282447e-02
1.812870e-01
3.282447e-02
1.812870e-01
2.098907e-01
2.098907e-01
2.487985e-01
2.487985e-01
1.438899e-01
2.167147e-01
1.438899e-01
2.167147e-01
2.393971e-01
2.393971e-01
1.814504e-01
1.814504e-01
1.889115e-01
2.049754e-01
1.889115e-01
2.049754e-01
1.987459e-01
1.987459e-01
2.124142e-01
2.124142e-01
6.689933e-02
1.855180e-01
6.689933e-02
1.855180e-01
1.351882e-01
1.351882e-01
1.349290e-01
1.349290e-01
9.332289e-02
4.771111e-02
9.332289e-02
4.771111e-02
6.038757e-02
6.038757e-02
1.792959e-01
1.792959e-01
1.683660e-01
1.192975e-01
1.683660e-01
1.192975e-01
1.545525e-01
1.545525e-01
8.134839e-02
8.134839e-02
2.131862e-01
2.619564e-01
2.131862e-01
2.619564e-01
7.713958e-02
7.713958e-02
1.367475e-01
1.367475e-01
1.865160e-01
4.978144e-02
1.865160e-01
4.978144e-02
2.797876e-01
2.797876e-01
1.770272e-01
1.770272e-01
2.748184e-01
3.828072e-01
2.748184e-01
3.828072e-01
1.722384e-01
1.983957e-01
1.722384e-01
1.983957e-01
2.713772e-01
2.581088e-01
2.713772e-01
2.581088e-01
1.258388e-01
9.895062e-02
1.258388e-01
9.895062e-02
3.113912e-01
2.917850e-01
3.113912e-01
2.917850e-01
3.127377e-01
3.434297e-01
3.127377e-01
3.434297e-01
1.429750e-01
1.551732e-01
1.429750e-01
1.551732e-01
2.364424e-01
1.854012e-01
2.364424e-01
1.854012e-01
2.224211e-01
7.219736e-02
2.224211e-01
7.219736e-02
1.394148e-01
1.390631e-01
1.394148e-01
1.390631e-01
1.457418e-01
1.336588e-01
1.457418e-01
1.336588e-01
1.040907e-01
1.130884e-01
1.040907e-01
1.130884e-01
3.230237e-01
2.055608e-01
3.230237e-01
2.055608e-01
1.055981e-01
5.955846e-02
1.055981e-01
5.955846e-02
1.047646e-01
7.131513e-02
1.047646e-01
7.131513e-02
1.768196e-01
2.393667e-01
1.768196e-01
2.393667e-01
1.290687e-01
1.040970e-01
1.290687e-01
1.040970e-01
8.778933e-02
8.778933e-02
6.878809e-02
6.878809e-02
2.393425e-01
2.393425e-01
2.277626e-01
1.673129e-01
2.277626e-01
1.673129e-01
1.472610e-01
1.472610e-01
1.118982e-01
1.118982e-01
1.438316e-01
1.554858e-01
1.438316e-01
1.554858e-01
2.467595e-01
2.467595e-01
9.613255e-02
9.613255e-02
9.604598e-02
7.681832e-02
9.604598e-02
7.681832e-02
9.692621e-02
9.692621e-02
1.131745e-01
1.131745e-01
1.281762e-01
7.484793e-02
1.281762e-01
7.484793e-02
1.931162e-01
1.931162e-01
1.521425e-01
1.521425e-01
1.137829e-01
1.101340e-01
1.137829e-01
1.101340e-01
1.973064e-01
1.973064e-01
1.412924e-01
1.412924e-01
8.818579e-02
8.818579e-02
8.518533e-02
8.518533e-02
1.787029e-01
2.230383e-01
1.787029e-01
2.230383e-01
1.136461e-01
1.136461e-01
1.387335e-01
1.387335e-01
2.626755e-01
1.841413e-01
2.626755e-01
1.841413e-01
1.613758e-01
1.613758e-01
9.463424e-02
9.463424e-02
1.299726e-01
1.320165e-01
1.299726e-01
1.320165e-01
7.992068e-02
7.992068e-02
8.308897e-02
8.308897e-02
1.537159e-01
1.404847e-01
1.537159e-01
1.404847e-01
1.635631e-01
1.635631e-01
1.519078e-01
1.519078e-01
1.200135e-01
9.605547e-02
1.200135e-01
9.605547e-02
2.485110e-01
2.485110e-01
2.484865e-01
2.484865e-01
1.120660e-01
1.120660e-01
4.575141e-02
4.575141e-02
1.388593e-01
9.554334e-02
1.388593e-01
9.554334e-02
1.872751e-01
1.872751e-01
3.320597e-01
3.320597e-01
1.274264e-01
1.442577e-01
1.274264e-01
1.442577e-01
3.186647e-01
3.186647e-01
1.437769e-01
1.437769e-01
1.605855e-01
1.763766e-01
1.605855e-01
1.763766e-01
8.220225e-02
8.220225e-02
8.370004e-02
8.370004e-02
1.364282e-01
7.933684e-02
1.364282e-01
7.933684e-02
1.616932e-01
1.616932e-01
1.553504e-01
1.553504e-01
4.859863e-02
2.224944e-01
4.859863e-02
2.224944e-01
1.899351e-01
1.899351e-01
2.152952e-01
2.152952e-01
1.710826e-01
1.710826e-01
7.211245e-02
7.211245e-02
9.045562e-02
1.566150e-01
9.045562e-02
1.566150e-01
1.046655e-01
1.046655e-01
1.942028e-01
1.942028e-01
2.369667e-01
1.834694e-01
2.369667e-01
1.834694e-01
2.311906e-01
2.311906e-01
1.501533e-01
1.501533e-01
8.866317e-02
5.784307e-02
8.866317e-02
5.784307e-02
7.405259e-02
7.405259e-02
8.524379e-02
8.524379e-02
1.626591e-01
1.437004e-01
1.626591e-01
1.437004e-01
1.000312e-01
1.000312e-01
5.191997e-02
5.191997e-02
1.085319e-01
2.719136e-01
1.085319e-01
2.719136e-01
2.643558e-01
2.643558e-01
7.099459e-02
7.099459e-02
1.103851e-01
1.103851e-01
1.237541e-01
1.237541e-01
1.753137e-01
1.627797e-01
1.753137e-01
1.627797e-01
1.036684e-01
1.036684e-01
7.316937e-02
7.316937e-02
2.519255e-01
2.170562e-01
2.519255e-01
2.170562e-01
1.391067e-01
1.391067e-01
6.285491e-02
6.285491e-02
7.690974e-02
9.295474e-02
7.690974e-02
9.295474e-02
1.001906e-01
1.001906e-01
1.491491e-01
1.491491e-01
2.279846e-01
2.679615e-01
2.279846e-01
2.679615e-01
1.447526e-01
1.447526e-01
8.184793e-02
8.184793e-02
1.422934e-01
1.721025e-01
1.422934e-01
1.721025e-01
1.828578e-01
1.828578e-01
1.445408e-01
1.445408e-01
1.986968e-01
1.986968e-01
2.081966e-01
2.081966e-01
1.369533e-01
1.291311e-01
1.369533e-01
1.291311e-01
1.534207e-01
1.534207e-01
1.123451e-01
1.123451e-01
1.414261e-01
2.298167e-01
1.414261e-01
2.298167e-01
7.833861e-02
7.833861e-02
1.189434e-01
1.189434e-01
1.977191e-01
1.838356e-01
1.977191e-01
1.838356e-01
1.498471e-01
1.498471e-01
1.885273e-01
1.885273e-01
7.060596e-02
1.250099e-01
7.060596e-02
1.250099e-01
1.114294e-01
1.114294e-01
2.055873e-01
2.055873e-01
1.371344e-01
7.985778e-02
1.371344e-01
7.985778e-02
1.761146e-01
1.761146e-01
5.506057e-02
5.506057e-02
2.335152e-01
2.335152e-01
3.732509e-01
3.732509e-01
4.829174e-01
4.529821e-01
4.829174e-01
4.529821e-01
1.718235e-01
1.718235e-01
7.832162e-02
7.832162e-02
2.794052e-01
1.927666e-01
2.794052e-01
1.927666e-01
2.217546e-01
2.217546e-01
2.523631e-01
2.523631e-01
1.843108e-01
1.266321e-01
1.843108e-01
1.266321e-01
2.057780e-01
2.057780e-01
1.484229e-01
1.484229e-01
1.891648e-01
2.462505e-01
1.891648e-01
2.462505e-01
1.286164e-01
1.286164e-01
7.175294e-02
7.175294e-02
6.808858e-02
2.273058e-01
6.808858e-02
2.273058e-01
1.647098e-01
1.647098e-01
1.780681e-01
1.780681e-01
1.264426e-01
1.264426e-01
2.468931e-01
2.468931e-01
2.941996e-01
1.323143e-01
2.941996e-01
1.323143e-01
3.861183e-01
3.861183e-01
4.663723e-01
4.663723e-01
5.746645e-01
4.986875e-01
5.746645e-01
4.986875e-01
6.681654e-01
6.681654e-01
9.323066e-01
9.323066e-01
5.040528e-01
5.552594e-01
5.040528e-01
5.552594e-01
9.467451e-01
9.467451e-01
8.506584e-01
8.506584e-01
5.152917e-01
4.545305e-01
5.152917e-01
4.545305e-01
8.290392e-01
8.290392e-01
7.541420e-01
7.541420e-01
5.543426e-01
5.901968e-01
5.543426e-01
5.901968e-01
6.021817e-01
6.021817e-01
2.988439e-01
2.988439e-01
8.154455e-02
3.744801e-01
8.154455e-02
3.744801e-01
2.447332e-01
2.447332e-01
4.649885e-01
4.649885e-01
6.242890e-01
6.185249e-01
6.242890e-01
6.185249e-01
5.689082e-01
5.689082e-01
5.016098e-01
5.016098e-01
5.250190e-01
7.178936e-01
5.250190e-01
7.178936e-01
2.542643e-01
2.542643e-01
1.515928e-01
1.515928e-01
1.745876e-01
2.381276e-01
1.745876e-01
2.381276e-01
9.642603e-02
9.642603e-02
1.078440e-01
1.078440e-01
1.536043e-01
1.936029e-01
1.536043e-01
1.936029e-01
1.668767e-01
1.668767e-01
1.509409e-01
1.509409e-01
1.367577e-01
1.023606e-01
1.367577e-01
1.023606e-01
1.568339e-01
1.568339e-01
2.215411e-01
2.215411e-01
1.855035e-01
1.727531e-01
1.855035e-01
1.727531e-01
8.979989e-01
8.979989e-01
8.177943e-01
8.177943e-01
9.720056e-01
8.605510e-01
9.720056e-01
8.605510e-01
7.712142e-01
7.712142e-01
7.021711e-01
7.021711e-01
7.984547e-01
8.664823e-01
7.984547e-01
8.664823e-01
7.429363e-01
7.429363e-01
7.462624e-01
7.462624e-01
9.890753e-01
1.027997e+00
9.890753e-01
1.027997e+00
6.352270e-01
6.352270e-01
4.519360e-01
4.519360e-01
5.219597e-01
7.283720e-01
5.219597e-01
7.283720e-01
1.844849e-01
1.844849e-01
1.863013e-01
1.863013e-01
2.475277e-01
2.693607e-01
2.475277e-01
2.693607e-01
1.952857e-01
1.952857e-01
2.072725e-01
2.072725e-01
1.806216e-01
2.837793e-01
1.806216e-01
2.837793e-01
6.584342e-01
6.584342e-01
8.500567e-01
8.500567e-01
4.375289e-01
3.330018e-01
4.375289e-01
3.330018e-01
8.592880e-01
8.592880e-01
7.099355e-01
7.099355e-01
4.277310e-01
5.127454e-01
4.277310e-01
5.127454e-01
7.419994e-01
7.419994e-01
6.375729e-01
6.375729e-01
3.992024e-01
3.679482e-01
3.992024e-01
3.679482e-01
3.772464e-01
3.772464e-01
3.268419e-01
3.268419e-01
3.739595e-01
4.020336e-01
3.739595e-01
4.020336e-01
2.557012e-01
2.557012e-01
1.487202e-01
1.487202e-01
3.614483e-01
3.521224e-01
3.614483e-01
3.521224e-01
2.625122e-01
2.625122e-01
1.620756e-01
1.620756e-01
4.881954e-01
5.011155e-01
4.881954e-01
5.011155e-01
5.545709e-01
5.545709e-01
5.184047e-01
5.184047e-01
5.102504e-01
4.002273e-01
5.102504e-01
4.002273e-01
4.487232e-01
4.487232e-01
4.145742e-01
4.145742e-01
4.730385e-01
5.520168e-01
4.730385e-01
5.520168e-01
5.932976e-01
5.932976e-01
8.291988e-01
8.291988e-01
5.852242e-01
4.868739e-01
5.852242e-01
4.868739e-01
8.391141e-01
8.391141e-01
8.341007e-01
8.341007e-01
6.500034e-01
6.284409e-01
6.500034e-01
6.284409e-01
7.798429e-01
7.798429e-01
6.010733e-01
6.010733e-01
4.446803e-01
6.280620e-01
4.446803e-01
6.280620e-01
5.836322e-01
5.836322e-01
5.559645e-01
5.559645e-01
2.669754e-01
3.316663e-01
2.669754e-01
3.316663e-01
4.618045e-01
4.618045e-01
5.040639e-01
5.040639e-01
9.399363e-01
7.446946e-01
9.399363e-01
7.446946e-01
6.227503e-01
6.227503e-01
7.505986e-01
7.505986e-01
1.073610e+00
9.179962e-01
1.073610e+00
9.179962e-01
8.279630e-01
8.279630e-01
7.969210e-01
7.969210e-01
1.391468e+00
1.323879e+00
1.391468e+00
1.323879e+00
6.642519e-01
6.642519e-01
5.723762e-01
5.723762e-01
1.154045e+00
1.319210e+00
1.154045e+00
1.319210e+00
4.591171e-01
4.591171e-01
3.273025e-01
3.273025e-01
4.476876e-01
8.420977e-01
4.476876e-01
8.420977e-01
2.434057e-01
2.434057e-01
1.530959e-01
1.530959e-01
1.494245e-01
3.814838e-01
1.494245e-01
3.814838e-01
8.253726e-01
8.253726e-01
9.728627e-01
9.728627e-01
9.202452e-01
9.880290e-01
9.202452e-01
9.880290e-01
9.906037e-01
9.906037e-01
1.218652e+00
1.218652e+00
9.910435e-01
8.730588e-01
9.910435e-01
8.730588e-01
1.502966e+00
1.502966e+00
1.667367e+00
1.667367e+00
1.262524e+00
1.100374e+00
1.262524e+00
1.100374e+00
1.685031e+00
1.685031e+00
1.482330e+00
1.482330e+00
1.463561e+00
1.440233e+00
1.463561e+00
1.440233e+00
9.699705e-01
9.699705e-01
6.079772e-01
6.079772e-01
8.233663e-01
1.127743e+00
8.233663e-01
1.127743e+00
6.330662e-01
6.330662e-01
3.242457e-01
3.242457e-01
2.615344e-01
6.205419e-01
2.615344e-01
6.205419e-01
1.219294e+00
1.219294e+00
1.073366e+00
1.073366e+00
1.093259e+00
9.872272e-01
1.093259e+00
9.872272e-01
8.480964e-01
8.480964e-01
6.332653e-01
6.332653e-01
1.135520e+00
1.112883e+00
1.135520e+00
1.112883e+00
5.810833e-01
5.810833e-01
7.913290e-01
7.913290e-01
7.120120e-01
1.006960e+00
7.120120e-01
1.006960e+00
1.140635e+00
1.140635e+00
1.447662e+00
1.447662e+00
1.691557e+00
1.004296e+00
1.691557e+00
1.004296e+00
1.480813e+00
1.480813e+00
1.173081e+00
1.173081e+00
1.789803e+00
2.061785e+00
1.789803e+00
2.061785e+00
7.061603e-01
7.061603e-01
3.107009e-01
3.107009e-01
6.111404e-01
1.146663e+00
6.111404e-01
1.146663e+00
8.974612e-01
8.974612e-01
1.054269e+00
1.054269e+00
1.047687e+00
1.139908e+00
1.047687e+00
1.139908e+00
1.185289e+00
1.185289e+00
1.256663e+00
1.256663e+00
1.236263e+00
1.036272e+00
1.236263e+00
1.036272e+00
1.064446e+00
1.064446e+00
6.674477e-01
6.674477e-01
8.675005e-01
9.807016e-01
8.675005e-01
9.807016e-01
5.867455e-01
5.867455e-01
1.632338e+00
1.632338e+00
9.770172e-01
1.366102e+00
9.770172e-01
1.366102e+00
2.618487e+00
2.618487e+00
2.667044e+00
2.667044e+00
3.505875e+00
2.582978e+00
3.505875e+00
2.582978e+00
1.890149e+00
1.890149e+00
1.144973e+00
1.144973e+00
1.884894e+00
2.711033e+00
1.884894e+00
2.711033e+00
1.349264e+00
1.349264e+00
1.212321e+00
1.212321e+00
1.325216e+00
1.178026e+00
1.325216e+00
1.178026e+00
1.020325e+00
1.020325e+00
1.247895e+00
1.247895e+00
1.224680e+00
1.268719e+00
1.224680e+00
1.268719e+00
1.546088e+00
1.546088e+00
1.374101e+00
1.374101e+00
1.944811e+00
2.003439e+00
1.944811e+00
2.003439e+00
2.901323e+00
2.901323e+00
2.938833e+00
2.938833e+00
6.340185e+00
3.341708e+00
6.340185e+00
3.341708e+00
1.419386e+00
1.419386e+00
3.563711e+00
3.563711e+00
3.599956e+00
4.349660e+00
3.599956e+00
4.349660e+00
3.475934e+00
3.475934e+00
2.540931e+00
2.540931e+00
5.175378e+00
6.251809e+00
5.175378e+00
6.251809e+00
1.265970e+00
1.265970e+00
1.604265e+00
1.604265e+00
2.178166e+00
1.294599e+00
2.178166e+00
1.294599e+00
2.016457e+00
2.016457e+00
2.083225e+00
2.083225e+00
4.372956e+00
3.307338e+00
4.372956e+00
3.307338e+00
2.400229e+00
2.400229e+00
2.909087e+00
2.909087e+00
3.342811e+00
3.942690e+00
3.342811e+00
3.942690e+00
3.210907e+00
3.210907e+00
8.490015e+00
8.490015e+00
9.273053e+00
3.554852e+00
9.273053e+00
3.554852e+00
1.003968e+01
1.003968e+01
4.204054e+00
4.204054e+00
6.886886e+00
1.513081e+01
6.886886e+00
1.513081e+01
1.469646e+01
1.469646e+01
1.633138e+01
1.633138e+01
2.978709e+01
2.171723e+01
2.978709e+01
2.171723e+01
2.082647e+00
2.082647e+00
2.925322e+00
2.925322e+00
3.920136e+00
3.683023e+00
3.920136e+00
3.683023e+00
4.334576e+00
4.334576e+00
5.782448e+00
5.782448e+00
5.251082e+00
4.822581e+00
5.251082e+00
4.822581e+00
5.348502e+00
5.348502e+00
5.401137e+00
5.401137e+00
9.156750e+00
6.399591e+00
9.156750e+00
6.399591e+00
8.415361e+00
8.415361e+00
1.004028e+01
1.004028e+01
1.790306e+01
1.481107e+01
1.790306e+01
1.481107e+01
1.768127e+01
1.768127e+01
2.763834e+01
2.763834e+01
4.249317e+01
3.029376e+01
4.249317e+01
3.029376e+01
2.867699e+01
2.867699e+01
2.849840e+01
2.849840e+01
3.678782e+01
4.277207e+01
3.678782e+01
4.277207e+01
5.505670e+00
5.505670e+00
4.986961e+00
4.986961e+00
5.296184e+00
6.915382e+00
5.296184e+00
6.915382e+00
4.141833e+00
4.141833e+00
5.393849e+00
5.393849e+00
8.984297e+00
3.217211e+00
8.984297e+00
3.217211e+00
1.014230e+01
1.014230e+01
1.399091e+01
1.399091e+01
1.776415e+01
1.308854e+01
1.776415e+01
1.308854e+01
2.043204e+01
2.043204e+01
3.195629e+01
3.195629e+01
4.099311e+01
2.955443e+01
4.099311e+01
2.955443e+01
3.806154e+01
3.806154e+01
3.765225e+01
3.765225e+01
5.067041e+01
4.764917e+01
5.067041e+01
4.764917e+01
4.366931e+01
4.366931e+01
4.901630e+01
4.901630e+01
6.360490e+01
6.050749e+01
6.360490e+01
6.050749e+01
6.468314e+00
6.468314e+00
3.972352e+00
3.972352e+00
4.011694e+00
4.051282e+00
4.011694e+00
4.051282e+00
6.686597e+00
6.686597e+00
1.192242e+01
1.192242e+01
1.121619e+01
1.100858e+01
1.121619e+01
1.100858e+01
1.392197e+01
1.392197e+01
2.531781e+01
2.531781e+01
3.766357e+01
1.832974e+01
3.766357e+01
1.832974e+01
3.917231e+01
3.917231e+01
4.384943e+01
4.384943e+01
6.119391e+01
4.746644e+01
6.119391e+01
4.746644e+01
5.097782e+01
5.097782e+01
6.986134e+01
6.986134e+01
1.087241e+02
8.277400e+01
1.087241e+02
8.277400e+01
9.193519e+01
9.193519e+01
8.712440e+01
8.712440e+01
1.248227e+02
1.424137e+02
1.248227e+02
1.424137e+02
4.353532e+00
4.353532e+00
8.942816e+00
8.942816e+00
1.246585e+01
8.197366e+00
1.246585e+01
8.197366e+00
1.303322e+01
1.303322e+01
7.909430e+00
7.909430e+00
8.051410e+00
1.067114e+01
8.051410e+00
1.067114e+01
2.597426e+01
2.597426e+01
4.454488e+01
4.454488e+01
4.706893e+01
3.385841e+01
4.706893e+01
3.385841e+01
5.394369e+01
5.394369e+01
8.994492e+01
8.994492e+01
1.111329e+02
4.933583e+01
1.111329e+02
4.933583e+01
1.400532e+02
1.400532e+02
1.622932e+02
1.622932e+02
1.786444e+02
1.723802e+02
1.786444e+02
1.723802e+02
1.768676e+02
1.768676e+02
1.602429e+02
1.602429e+02
1.701330e+02
1.769106e+02
1.701330e+02
1.769106e+02
1.027974e+01
1.027974e+01
1.539470e+01
1.539470e+01
2.072512e+01
1.477057e+01
2.072512e+01
1.477057e+01
8.166069e+00
8.166069e+00
1.767762e+01
1.767762e+01
2.127850e+01
1.342245e+01
2.127850e+01
1.342245e+01
4.839704e+01
4.839704e+01
5.319357e+01
5.319357e+01
9.485396e+01
6.352199e+01
9.485396e+01
6.352199e+01
3.544124e+01
3.544124e+01
1.255584e+02
1.255584e+02
6.276903e+01
7.656458e+01
6.276903e+01
7.656458e+01
1.825642e+02
1.825642e+02
1.947744e+02
1.947744e+02
1.303753e+02
1.087830e+02
1.303753e+02
1.087830e+02
1.928261e+02
1.928261e+02
1.855778e+02
1.855778e+02
1.445132e+02
1.745464e+02
1.445132e+02
1.745464e+02
1.825472e+01
1.825472e+01
3.115947e+01
3.115947e+01
3.696293e+01
1.508772e+01
3.696293e+01
1.508772e+01
1.770364e+01
1.770364e+01
2.206276e+01
2.206276e+01
3.496841e+01
1.814688e+01
3.496841e+01
1.814688e+01
5.817411e+01
5.817411e+01
1.215002e+02
1.215002e+02
8.988745e+01
3.859886e+01
8.988745e+01
3.859886e+01
1.637439e+02
1.637439e+02
1.259182e+02
1.259182e+02
7.092735e+01
1.209724e+02
7.092735e+01
1.209724e+02
7.785075e+01
7.785075e+01
8.463428e+01
8.463428e+01
1.218412e+02
9.576605e+01
1.218412e+02
9.576605e+01
1.531892e+02
1.531892e+02
1.256635e+02
1.256635e+02
1.480392e+02
1.483452e+02
1.480392e+02
1.483452e+02
8.859900e+00
8.859900e+00
2.511125e+01
2.511125e+01
8.218787e+00
5.148527e+00
8.218787e+00
5.148527e+00
1.133615e+01
1.133615e+01
3.474527e+01
3.474527e+01
2.593055e+01
1.026366e+01
2.593055e+01
1.026366e+01
4.273169e+01
4.273169e+01
5.041900e+01
5.041900e+01
5.302258e+01
4.599569e+01
5.302258e+01
4.599569e+01
5.806207e+01
5.806207e+01
1.191967e+02
1.191967e+02
1.184807e+02
3.898791e+01
1.184807e+02
3.898791e+01
1.668177e+02
1.668177e+02
1.741999e+02
1.741999e+02
1.594130e+02
1.635785e+02
1.594130e+02
1.635785e+02
1.872136e+02
1.872136e+02
1.729777e+02
1.729777e+02
1.405427e+02
1.705810e+02
1.405427e+02
1.705810e+02
3.766251e+00
3.766251e+00
7.773391e+00
7.773391e+00
5.115285e+00
3.593094e+00
5.115285e+00
3.593094e+00
8.877750e+00
8.877750e+00
2.220801e+01
2.220801e+01
1.221760e+01
5.410874e+00
1.221760e+01
5.410874e+00
3.469044e+01
3.469044e+01
4.607086e+01
4.607086e+01
2.606686e+01
1.606453e+01
2.606686e+01
1.606453e+01
6.070541e+01
6.070541e+01
9.495017e+01
9.495017e+01
6.844217e+01
5.251878e+01
6.844217e+01
5.251878e+01
1.271536e+02
1.271536e+02
1.423796e+02
1.423796e+02
1.001736e+02
8.450956e+01
1.001736e+02
8.450956e+01
1.712524e+02
1.712524e+02
1.341629e+02
1.341629e+02
1.101558e+02
1.325524e+02
1.101558e+02
1.325524e+02
4.451461e+00
4.451461e+00
3.742133e+00
3.742133e+00
6.187850e+00
6.820313e+00
6.187850e+00
6.820313e+00
5.644927e+00
5.644927e+00
8.245633e+00
8.245633e+00
7.913168e+00
5.257188e+00
7.913168e+00
5.257188e+00
1.068955e+01
1.068955e+01
2.133574e+01
2.133574e+01
1.824583e+01
9.504539e+00
1.824583e+01
9.504539e+00
3.776623e+01
3.776623e+01
4.460456e+01
4.460456e+01
2.527910e+01
2.418728e+01
2.527910e+01
2.418728e+01
5.502321e+01
5.502321e+01
7.524683e+01
7.524683e+01
6.216037e+01
3.524216e+01
6.216037e+01
3.524216e+01
9.749239e+01
9.749239e+01
8.776844e+01
8.776844e+01
7.491408e+01
8.139546e+01
7.491408e+01
8.139546e+01
7.642513e+00
7.642513e+00
8.327301e+00
8.327301e+00
6.939552e+00
6.435170e+00
6.939552e+00
6.435170e+00
6.620473e+00
6.620473e+00
6.015878e+00
6.015878e+00
4.490744e+00
5.714722e+00
4.490744e+00
5.714722e+00
7.220457e+00
7.220457e+00
1.344851e+01
1.344851e+01
1.452623e+01
7.511349e+00
1.452623e+01
7.511349e+00
1.508175e+01
1.508175e+01
1.543610e+01
1.543610e+01
1.135951e+01
1.540167e+01
1.135951e+01
1.540167e+01
3.102978e+01
3.102978e+01
5.739714e+01
5.739714e+01
5.111385e+01
2.515231e+01
5.111385e+01
2.515231e+01
6.079376e+01
6.079376e+01
4.980839e+01
4.980839e+01
4.438609e+01
5.929292e+01
4.438609e+01
5.929292e+01
3.843568e+00
3.843568e+00
4.195585e+00
4.195585e+00
2.802589e+00
2.278076e+00
2.802589e+00
2.278076e+00
3.355484e+00
3.355484e+00
3.446417e+00
3.446417e+00
3.699099e+00
2.508347e+00
3.699099e+00
2.508347e+00
5.503780e+00
5.503780e+00
1.097987e+01
1.097987e+01
7.982642e+00
3.875663e+00
7.982642e+00
3.875663e+00
1.224032e+01
1.224032e+01
8.804433e+00
8.804433e+00
9.239350e+00
1.069526e+01
9.239350e+00
1.069526e+01
1.115813e+01
1.115813e+01
1.881187e+01
1.881187e+01
9.474885e+00
5.100776e+00
9.474885e+00
5.100776e+00
1.804691e-01
1.804691e-01
7.525411e-02
7.525411e-02
2.762458e-01
2.293100e-01
2.762458e-01
2.293100e-01
2.245203e-01
2.245203e-01
3.079965e-01
3.079965e-01
4.566396e-01
3.898497e-01
4.566396e-01
3.898497e-01
2.099544e-01
2.099544e-01
1.842135e-01
1.842135e-01
1.527275e-01
3.406799e-01
1.527275e-01
3.406799e-01
8.310250e-02
8.310250e-02
2.670294e-01
2.670294e-01
2.825580e-01
2.237082e-01
2.825580e-01
2.237082e-01
1.235152e-01
1.235152e-01
2.023767e-01
2.023767e-01
2.755849e-01
1.487749e-01
2.755849e-01
1.487749e-01
1.993680e-01
1.993680e-01
1.556781e-01
1.556781e-01
3.118252e-01
3.381660e-01
3.118252e-01
3.381660e-01
5.958760e-02
5.958760e-02
3.151726e-01
3.151726e-01
3.238160e-01
1.059374e-01
3.238160e-01
1.059374e-01
4.722259e-01
4.722259e-01
2.675265e-01
2.675265e-01
2.060201e-01
2.551972e-01
2.060201e-01
2.551972e-01
1.209628e-01
1.209628e-01
1.402591e-01
1.402591e-01
2.397700e-01
2.020741e-01
2.397700e-01
2.020741e-01
1.207223e-01
1.207223e-01
1.189899e-01
1.189899e-01
4.417912e-01
2.945606e-01
4.417912e-01
2.945606e-01
2.029061e-01
2.029061e-01
4.879873e-01
4.879873e-01
6.143008e-01
3.973689e-01
6.143008e-01
3.973689e-01
8.447394e-01
8.447394e-01
1.048175e+00
1.048175e+00
2.042478e+00
1.440129e+00
2.042478e+00
1.440129e+00
2.135441e+00
2.135441e+00
3.567390e+00
3.567390e+00
4.238377e+00
2.150521e+00
4.238377e+00
2.150521e+00
2.371720e+00
2.371720e+00
1.328869e+00
1.328869e+00
2.357322e+00
6.170733e+00
2.357322e+00
6.170733e+00
9.827888e-01
9.827888e-01
1.013198e+00
1.013198e+00
1.874967e+00
3.169631e+00
1.874967e+00
3.169631e+00
1.591125e+00
1.591125e+00
3.855398e+00
3.855398e+00
9.227484e+00
2.671031e+00
9.227484e+00
2.671031e+00
8.202221e+00
8.202221e+00
6.923078e+00
6.923078e+00
1.159171e+01
1.087528e+01
1.159171e+01
1.087528e+01
4.112600e+00
4.112600e+00
2.666480e+00
2.666480e+00
9.229246e+00
1.059388e+01
9.229246e+00
1.059388e+01
1.866858e+00
1.866858e+00
1.056947e+00
1.056947e+00
4.228805e+00
7.576011e+00
4.228805e+00
7.576011e+00
1.433013e+00
1.433013e+00
2.986509e+00
2.986509e+00
7.548942e+00
4.819374e+00
7.548942e+00
4.819374e+00
2.785050e+00
2.785050e+00
1.801072e+00
1.801072e+00
3.293314e+00
5.884073e+00
3.293314e+00
5.884073e+00
1.050580e+00
1.050580e+00
8.436586e-01
8.436586e-01
1.526006e+00
1.843473e+00
1.526006e+00
1.843473e+00
6.671724e-01
6.671724e-01
6.532871e-01
6.532871e-01
7.350588e-01
7.958194e-01
7.350588e-01
7.958194e-01
3.885825e-01
3.885825e-01
4.257769e-01
4.257769e-01
3.856027e-01
3.631616e-01
3.856027e-01
3.631616e-01
5.323559e-01
5.323559e-01
3.802372e-01
3.802372e-01
4.551327e-01
5.502902e-01
4.551327e-01
5.502902e-01
2.369700e-01
2.369700e-01
3.145272e-01
3.145272e-01
3.908205e-01
3.544589e-01
3.908205e-01
3.544589e-01
2.368963e-01
2.368963e-01
2.335342e-01
2.335342e-01
1.507758e-01
3.001596e-01
1.507758e-01
3.001596e-01
3.716414e-01
3.716414e-01
2.748906e-01
2.748906e-01
2.744467e-01
2.554859e-01
2.744467e-01
2.554859e-01
2.217409e-01
2.217409e-01
3.918033e-01
3.918033e-01
3.556621e-01
3.007367e-01
3.556621e-01
3.007367e-01
2.890629e-01
2.890629e-01
3.279923e-01
3.279923e-01
4.471283e-01
3.443318e-01
4.471283e-01
3.443318e-01
4.011831e-01
4.011831e-01
4.707562e-01
4.707562e-01
6.796009e-01
5.362464e-01
6.796009e-01
5.362464e-01
6.211768e-01
6.211768e-01
8.105606e-01
8.105606e-01
1.093425e+00
8.403724e-01
1.093425e+00
8.403724e-01
1.085132e+00
1.085132e+00
1.211795e+00
1.211795e+00
1.877557e+00
1.515797e+00
1.877557e+00
1.515797e+00
1.870602e+00
1.870602e+00
3.111593e+00
3.111593e+00
3.659123e+00
1.925165e+00
3.659123e+00
1.925165e+00
3.255265e+00
3.255265e+00
4.075190e+00
4.075190e+00
3.589352e+00
5.227209e+00
3.589352e+00
5.227209e+00
7.502997e+00
7.502997e+00
6.102483e+00
6.102483e+00
8.456653e+00
3.817490e+00
8.456653e+00
3.817490e+00
4.251452e+00
4.251452e+00
8.430525e+00
8.430525e+00
1.517055e+01
1.072610e+01
1.517055e+01
1.072610e+01
1.242291e+01
1.242291e+01
1.488177e+01
1.488177e+01
3.820534e+01
2.427967e+01
3.820534e+01
2.427967e+01
2.536284e+01
2.536284e+01
2.547836e+01
2.547836e+01
1.224552e+01
3.281750e+01
1.224552e+01
3.281750e+01
1.705822e+01
1.705822e+01
1.712845e+01
1.712845e+01
1.933232e+01
9.128446e+00
1.933232e+01
9.128446e+00
1.920184e+01
1.920184e+01
1.119674e+01
1.119674e+01
1.761131e+01
2.709087e+01
1.761131e+01
2.709087e+01
8.834027e+00
8.834027e+00
1.404604e+01
1.404604e+01
2.016956e+01
9.602233e+00
2.016956e+01
9.602233e+00
1.114518e+01
1.114518e+01
6.255770e+00
6.255770e+00
1.119302e+01
1.864034e+01
1.119302e+01
1.864034e+01
3.626298e+00
3.626298e+00
3.247312e+00
3.247312e+00
6.482120e+00
6.734219e+00
6.482120e+00
6.734219e+00
6.356613e-01
6.356613e-01
6.033114e-01
6.033114e-01
5.290806e-01
4.154748e-01
5.290806e-01
4.154748e-01
4.503725e-01
4.503725e-01
3.925186e-01
3.925186e-01
4.432840e-01
5.228786e-01
4.432840e-01
5.228786e-01
3.605909e-01
3.605909e-01
3.795636e-01
3.795636e-01
2.974253e-01
2.923172e-01
2.974253e-01
2.923172e-01
4.004307e-01
4.004307e-01
4.059359e-01
4.059359e-01
1.616792e-01
2.919101e-01
1.616792e-01
2.919101e-01
2.796199e-01
2.796199e-01
2.448612e-01
2.448612e-01
3.947093e-01
3.100775e-01
3.947093e-01
3.100775e-01
2.662466e-01
2.662466e-01
3.257856e-01
3.257856e-01
3.295751e-01
2.710832e-01
3.295751e-01
2.710832e-01
2.935929e-01
2.935929e-01
2.723583e-01
2.723583e-01
2.636991e-01
3.129376e-01
2.636991e-01
3.129376e-01
3.542049e-01
3.542049e-01
5.065350e-01
5.065350e-01
4.310170e-01
3.118758e-01
4.310170e-01
3.118758e-01
5.350798e-01
5.350798e-01
6.594372e-01
6.594372e-01
5.687115e-01
5.797398e-01
5.687115e-01
5.797398e-01
8.039358e-01
8.039358e-01
1.071669e+00
1.071669e+00
1.074428e+00
7.199995e-01
1.074428e+00
7.199995e-01
1.494984e+00
1.494984e+00
1.997849e+00
1.997849e+00
2.034187e+00
1.662744e+00
2.034187e+00
1.662744e+00
1.258119e+00
1.258119e+00
4.796110e+00
4.796110e+00
9.493526e+00
1.269627e+00
9.493526e+00
1.269627e+00
1.184952e+01
1.184952e+01
1.347398e+01
1.347398e+01
2.705061e+01
2.294248e+01
2.705061e+01
2.294248e+01
5.868927e+00
5.868927e+00
1.442111e+01
1.442111e+01
2.856104e+01
9.506851e+00
2.856104e+01
9.506851e+00
2.542270e+01
2.542270e+01
1.819923e+01
1.819923e+01
2.824497e+01
4.914464e+01
2.824497e+01
4.914464e+01
1.342734e+01
1.342734e+01
2.338905e+01
2.338905e+01
2.906350e+01
1.788653e+01
2.906350e+01
1.788653e+01
4.118191e+01
4.118191e+01
3.339874e+01
3.339874e+01
2.106974e+01
2.226873e+01
2.106974e+01
2.226873e+01
2.616400e+01
2.616400e+01
2.338257e+01
2.338257e+01
2.955374e+01
2.215374e+01
2.955374e+01
2.215374e+01
2.963150e+01
2.963150e+01
2.598316e+01
2.598316e+01
4.289922e+01
4.162510e+01
4.289922e+01
4.162510e+01
6.838619e+00
6.838619e+00
2.100602e+01
2.100602e+01
1.330526e+01
2.252616e+01
1.330526e+01
2.252616e+01
2.486048e+01
2.486048e+01
1.699928e+01
1.699928e+01
2.052383e+01
2.350701e+01
2.052383e+01
2.350701e+01
1.071414e+01
1.071414e+01
9.568695e+00
9.568695e+00
9.294227e+00
1.294488e+01
9.294227e+00
1.294488e+01
3.430858e-01
3.430858e-01
5.629548e-01
5.629548e-01
3.285962e-01
2.520880e-01
3.285962e-01
2.520880e-01
4.241838e-01
4.241838e-01
3.511836e-01
3.511836e-01
1.364707e-01
1.883829e-01
1.364707e-01
1.883829e-01
2.883720e-01
2.883720e-01
2.081993e-01
2.081993e-01
1.743789e-01
2.049203e-01
1.743789e-01
2.049203e-01
1.943771e-01
1.943771e-01
3.479484e-01
3.479484e-01
4.390343e-01
2.223105e-01
4.390343e-01
2.223105e-01
5.017633e-01
5.017633e-01
4.277544e-01
4.277544e-01
5.609977e-01
5.600819e-01
5.609977e-01
5.600819e-01
2.953303e-01
2.953303e-01
3.229462e-01
3.229462e-01
2.667408e-01
4.251602e-01
2.667408e-01
4.251602e-01
3.043418e-01
3.043418e-01
2.748185e-01
2.748185e-01
4.150379e-01
2.392316e-01
4.150379e-01
2.392316e-01
3.888369e-01
3.888369e-01
4.478491e-01
4.478491e-01
4.690239e-01
5.009250e-01
4.690239e-01
5.009250e-01
5.174720e-01
5.174720e-01
5.270871e-01
5.270871e-01
4.875088e-01
5.405242e-01
4.875088e-01
5.405242e-01
6.845740e-01
6.845740e-01
1.329819e+00
1.329819e+00
1.703786e+00
7.642611e-01
1.703786e+00
7.642611e-01
1.940849e+00
1.940849e+00
1.509897e+00
1.509897e+00
4.650375e+00
1.589181e+00
4.650375e+00
1.589181e+00
5.906977e+00
5.906977e+00
1.784909e+01
1.784909e+01
2.488854e+01
1.395448e+01
2.488854e+01
1.395448e+01
3.195443e+01
3.195443e+01
2.925022e+01
2.925022e+01
1.237636e+01
2.960030e+01
1.237636e+01
2.960030e+01
7.209033e+00
7.209033e+00
5.383318e+01
5.383318e+01
6.994102e+01
2.814974e+01
6.994102e+01
2.814974e+01
8.053039e+01
8.053039e+01
5.137922e+01
5.137922e+01
8.593810e+01
1.051466e+02
8.593810e+01
1.051466e+02
1.544361e+01
1.544361e+01
4.305644e+01
4.305644e+01
3.224009e+01
3.223746e+01
3.224009e+01
3.223746e+01
4.419780e+01
4.419780e+01
3.134448e+01
3.134448e+01
4.036011e+01
4.504042e+01
4.036011e+01
4.504042e+01
2.368817e+01
2.368817e+01
3.070492e+01
3.070492e+01
5.766814e+01
2.563858e+01
5.766814e+01
2.563858e+01
5.304922e+01
5.304922e+01
4.600676e+01
4.600676e+01
3.488527e+01
6.994788e+01
3.488527e+01
6.994788e+01
3.081780e+01
3.081780e+01
1.231287e+01
1.231287e+01
2.515367e+01
2.612719e+01
2.515367e+01
2.612719e+01
1.398636e+01
1.398636e+01
1.760658e+01
1.760658e+01
1.190645e+01
1.424658e+01
1.190645e+01
1.424658e+01
9.434886e+00
9.434886e+00
4.035290e+00
4.035290e+00
5.088016e+00
5.383208e+00
5.088016e+00
5.383208e+00
2.005134e-01
2.005134e-01
1.274089e-01
1.274089e-01
3.195001e-01
2.024920e-01
3.195001e-01
2.024920e-01
9.415874e-02
9.415874e-02
2.304073e-01
2.304073e-01
2.768013e-01
2.474773e-01
2.768013e-01
2.474773e-01
2.025992e-01
2.025992e-01
1.201228e-01
1.201228e-01
2.760363e-01
3.380957e-01
2.760363e-01
3.380957e-01
2.639456e-01
2.639456e-01
4.352411e-01
4.352411e-01
4.128180e-01
2.881668e-01
4.128180e-01
2.881668e-01
4.561364e-01
4.561364e-01
5.296842e-01
5.296842e-01
4.695895e-01
4.408881e-01
4.695895e-01
4.408881e-01
4.423007e-01
4.423007e-01
3.145497e-01
3.145497e-01
3.427170e-01
2.853646e-01
3.427170e-01
2.853646e-01
3.754194e-01
3.754194e-01
4.689065e-01
4.689065e-01
3.111971e-01
3.323324e-01
3.111971e-01
3.323324e-01
5.606028e-01
5.606028e-01
5.186241e-01
5.186241e-01
5.019703e-01
4.402878e-01
5.019703e-01
4.402878e-01
6.316312e-01
6.316312e-01
3.948473e-01
3.948473e-01
4.994302e-01
5.287499e-01
4.994302e-01
5.287499e-01
1.126480e+00
1.126480e+00
1.733984e+00
1.733984e+00
1.343714e+00
1.257026e+00
1.343714e+00
1.257026e+00
2.717228e+00
2.717228e+00
1.172722e+01
1.172722e+01
1.849815e+01
7.208461e+00
1.849815e+01
7.208461e+00
2.067411e+01
2.067411e+01
2.446097e+01
2.446097e+01
2.368106e+01
2.359511e+01
2.368106e+01
2.359511e+01
1.886229e+01
1.886229e+01
2.253907e+01
2.253907e+01
4.331406e+01
2.790031e+01
4.331406e+01
2.790031e+01
4.401579e+01
4.401579e+01
6.997313e+01
6.997313e+01
7.716287e+01
5.556515e+01
7.716287e+01
5.556515e+01
1.227436e+02
1.227436e+02
1.350235e+02
1.350235e+02
1.902277e+02
1.436494e+02
1.902277e+02
1.436494e+02
1.210778e+02
1.210778e+02
5.445871e+01
5.445871e+01
1.067250e+02
2.035126e+02
1.067250e+02
2.035126e+02
2.396880e+01
2.396880e+01
4.923502e+01
4.923502e+01
1.210096e+02
4.425353e+01
1.210096e+02
4.425353e+01
9.961488e+01
9.961488e+01
1.138847e+02
1.138847e+02
1.580919e+02
1.968400e+02
1.580919e+02
1.968400e+02
8.871488e+01
8.871488e+01
3.348826e+01
3.348826e+01
4.861601e+01
9.383702e+01
4.861601e+01
9.383702e+01
2.901677e+01
2.901677e+01
3.410669e+01
3.410669e+01
4.210478e+01
4.508924e+01
4.210478e+01
4.508924e+01
2.807162e+01
2.807162e+01
1.890860e+01
1.890860e+01
3.079162e+01
3.837738e+01
3.079162e+01
3.837738e+01
8.377965e+00
8.377965e+00
6.411607e+00
6.411607e+00
6.665756e+00
1.045674e+01
6.665756e+00
1.045674e+01
1.607243e-01
1.607243e-01
3.153418e-01
3.153418e-01
2.618308e-01
2.618308e-01
2.258974e-01
2.258974e-01
3.510345e-01
3.510345e-01
3.117876e-01
3.117876e-01
2.154139e-01
2.154139e-01
3.266441e-01
3.266441e-01
4.186151e-01
4.186151e-01
3.691343e-01
3.691343e-01
1.930116e-01
1.930116e-01
2.065719e-01
2.065719e-01
1.551705e-01
1.551705e-01
1.054613e-01
1.054613e-01
3.467931e-01
3.467931e-01
4.136658e-01
4.136658e-01
6.285802e-01
6.285802e-01
1.133462e+00
1.133462e+00
1.542856e+00
1.542856e+00
3.614709e+00
3.614709e+00
1.169593e+01
1.169593e+01
2.286852e+01
2.286852e+01
2.610287e+01
2.610287e+01
3.269354e+01
3.269354e+01
4.543891e+01
4.543891e+01
5.760732e+01
5.760732e+01
6.907869e+01
6.907869e+01
8.907101e+01
8.907101e+01
1.502238e+02
1.502238e+02
2.061255e+02
2.061255e+02
2.187520e+02
2.187520e+02
1.128781e+02
1.128781e+02
8.336909e+01
8.336909e+01
1.425309e+02
1.425309e+02
2.030685e+02
2.030685e+02
1.530125e+02
1.530125e+02
9.225831e+01
9.225831e+01
6.199948e+01
6.199948e+01
6.011083e+01
6.011083e+01
5.475170e+01
5.475170e+01
4.355212e+01
4.355212e+01
4.217549e+01
4.217549e+01
1.317052e+00
1.221453e+00
1.090306e+00
7.703903e-01
8.699596e-01
1.223441e+00
1.466610e+00
1.172068e+00
1.178001e+00
1.063953e+00
1.127001e+00
1.329182e+00
2.060415e+00
1.339884e+00
1.276355e+00
1.422619e+00
1.587057e+00
1.700089e+00
2.242671e+00
1.514399e+00
1.172468e+00
1.473368e+00
1.759479e+00
1.938126e+00
2.273233e+00
1.719589e+00
1.123090e+00
1.336547e+00
1.687835e+00
1.919789e+00
1.807406e+00
1.559552e+00
1.068630e+00
1.096396e+00
1.467743e+00
1.697428e+00
1.380708e+00
1.197075e+00
8.349899e-01
9.056723e-01
1.207591e+00
1.290066e+00
1.149146e+00
8.106487e-01
6.152566e-01
8.326662e-01
9.594851e-01
9.727346e-01
7.827175e-01
6.159340e-01
4.864620e-01
7.057227e-01
7.007448e-01
6.932938e-01
5.572203e-01
4.679401e-01
3.233700e-01
4.209074e-01
3.501128e-01
3.200270e-01
4.657486e-01
4.126555e-01
2.716256e-01
2.851661e-01
2.338131e-01
2.250655e-01
9.137286e-01
8.564738e-01
1.050034e+00
8.590170e-01
7.301678e-01
1.042437e+00
1.478915e+00
9.598855e-01
8.756488e-01
8.234308e-01
1.059110e+00
1.399121e+00
2.698238e+00
1.783573e+00
6.408676e-01
7.607383e-01
1.567116e+00
1.990375e+00
3.103466e+00
2.373715e+00
1.069067e+00
9.123391e-01
1.690117e+00
2.164183e+00
2.920142e+00
2.453410e+00
1.308325e+00
9.868413e-01
1.600265e+00
2.061210e+00
2.437470e+00
1.939127e+00
9.291399e-01
7.429022e-01
1.394099e+00
1.848456e+00
1.469206e+00
9.696622e-01
3.686359e-01
6.056801e-01
1.137698e+00
1.471725e+00
8.609725e-01
7.013573e-01
5.265897e-01
6.319502e-01
9.034265e-01
1.076419e+00
8.924613e-01
7.587855e-01
4.691306e-01
5.167456e-01
6.616621e-01
7.794783e-01
6.147385e-01
5.216000e-01
2.833107e-01
2.451321e-01
3.038528e-01
4.208507e-01
5.352522e-01
4.631008e-01
2.702648e-01
1.648452e-01
1.889137e-01
2.906962e-01
8.110928e-01
4.512347e-01
8.653038e-01
1.134990e+00
9.447942e-01
9.923354e-01
1.599849e+00
1.062000e+00
7.830772e-01
1.069836e+00
1.336849e+00
1.554540e+00
2.551357e+00
2.129129e+00
1.420310e+00
1.220630e+00
2.064615e+00
2.472780e+00
2.177164e+00
2.171738e+00
2.179493e+00
1.490008e+00
2.207257e+00
2.805566e+00
1.599626e+00
1.933531e+00
2.294925e+00
1.379788e+00
2.034268e+00
2.601749e+00
2.045779e+00
1.773011e+00
1.573908e+00
8.551980e-01
1.755842e+00
2.196608e+00
1.863673e+00
1.191072e+00
5.768406e-01
6.239526e-01
1.397900e+00
1.802230e+00
9.816762e-01
7.605299e-01
6.122714e-01
7.291761e-01
1.140346e+00
1.403024e+00
1.499340e+00
1.222140e+00
8.279992e-01
7.706309e-01
9.379392e-01
1.032448e+00
1.061748e+00
9.066679e-01
6.466261e-01
4.837179e-01
5.410307e-01
6.506697e-01
7.225487e-01
6.613527e-01
5.227094e-01
3.429870e-01
3.652747e-01
5.114272e-01
1.699538e+00
1.340779e+00
1.290628e+00
1.326081e+00
9.282883e-01
7.891782e-01
2.479269e+00
1.237377e+00
1.293302e+00
1.609377e+00
1.183434e+00
1.085821e+00
3.853217e+00
1.741190e+00
2.283468e+00
2.641710e+00
2.023436e+00
2.149313e+00
4.065725e+00
1.407745e+00
2.698310e+00
2.940221e+00
2.243944e+00
2.986073e+00
4.210304e+00
1.703611e+00
2.561596e+00
2.177634e+00
1.694545e+00
2.830202e+00
3.699921e+00
1.447363e+00
1.958640e+00
1.153108e+00
1.311793e+00
2.070061e+00
1.806025e+00
8.932348e-01
1.364702e+00
7.616252e-01
1.151259e+00
1.495517e+00
1.535392e+00
1.042483e+00
8.472947e-01
7.809449e-01
1.202218e+00
1.506219e+00
1.972797e+00
1.600245e+00
1.201934e+00
1.084322e+00
1.293543e+00
1.395359e+00
1.510696e+00
1.312609e+00
1.120372e+00
9.284265e-01
9.047815e-01
8.722990e-01
7.704579e-01
8.991395e-01
9.752127e-01
7.309287e-01
6.263004e-01
6.322656e-01
5.136300e+00
4.741032e+00
3.610945e+00
2.290012e+00
1.274561e+00
1.131932e+00
3.052371e+00
1.488186e+00
1.722230e+00
2.252333e+00
1.261059e+00
7.879982e-01
9.036678e+00
5.352529e+00
3.004579e+00
3.237980e+00
1.412177e+00
1.500603e+00
1.238867e+01
7.708438e+00
4.124438e+00
4.090357e+00
1.540793e+00
2.606191e+00
1.091509e+01
7.127366e+00
4.125621e+00
3.048228e+00
9.253519e-01
2.677709e+00
5.718999e+00
3.226955e+00
2.010646e+00
1.326727e+00
8.343246e-01
1.929306e+00
1.799508e+00
1.258058e+00
1.245282e+00
1.104189e+00
7.130883e-01
1.179807e+00
1.347833e+00
1.236368e+00
1.435256e+00
8.535926e-01
9.430524e-01
1.313171e+00
1.747866e+00
1.354456e+00
1.087564e+00
1.172809e+00
1.526673e+00
1.593360e+00
1.364421e+00
1.449387e+00
1.633798e+00
1.441711e+00
1.295646e+00
1.153469e+00
8.821582e-01
1.335210e+00
1.538549e+00
1.203364e+00
9.797810e-01
8.235830e-01
8.751443e+00
7.238178e+00
5.056055e+00
3.218914e+00
1.853517e+00
1.674035e+00
6.102362e+00
3.071739e+00
2.125777e+00
3.075949e+00
2.204932e+00
1.510795e+00
1.545052e+01
1.065315e+01
5.233726e+00
3.404955e+00
2.644972e+00
2.907133e+00
2.171675e+01
1.532706e+01
8.146274e+00
4.424196e+00
2.427013e+00
4.379656e+00
1.945376e+01
1.406547e+01
7.861154e+00
3.360238e+00
2.130061e+00
4.550508e+00
1.094223e+01
6.630552e+00
4.079936e+00
1.530834e+00
2.333098e+00
3.284504e+00
4.902187e+00
2.547744e+00
1.320286e+00
2.001539e+00
1.707539e+00
1.825802e+00
2.281448e+00
2.003238e+00
2.315991e+00
1.256247e+00
1.025145e+00
1.412444e+00
2.068802e+00
1.538371e+00
9.963067e-01
1.254514e+00
1.667784e+00
1.656397e+00
1.234292e+00
1.568215e+00
1.939352e+00
1.770398e+00
1.534209e+00
1.318417e+00
1.224351e+00
1.722596e+00
1.882211e+00
1.508953e+00
1.209388e+00
9.608591e-01
SCALARS TRIAX_STRESS float 1
LOOKUP_TABLE default
3.578379e-02
2.866320e-02
-3.028380e-02
-2.731290e-02
3.578379e-02
2.866320e-02
-3.028380e-02
-2.731290e-02
3.194266e-02
-5.634490e-02
3.194266e-02
-5.634490e-02
-5.450316e-02
-5.769902e-02
-5.450316e-02
-5.769902e-02
-2.872228e-02
-2.872228e-02
1.002941e-02
-1.600928e-01
2.754378e-01
1.875326e-01
1.002941e-02
-1.600928e-01
2.754378e-01
1.875326e-01
-2.115048e-01
-4.535905e-02
-2.115048e-01
-4.535905e-02
8.170435e-02
3.239796e-01
8.170435e-02
3.239796e-01
1.950908e-01
1.950908e-01
-3.408758e-02
-2.905379e-02
3.289601e-02
-3.408758e-02
-2.905379e-02
3.289601e-02
-6.228255e-02
3.316384e-03
-6.228255e-02
3.316384e-03
-1.380265e-01
-1.470478e-01
-1.380265e-01
-1.470478e-01
4.429681e-04
4.429681e-04
-1.757410e-02
-2.528798e-03
9.682432e-02
-1.803009e-02
-1.757410e-02
-2.528798e-03
9.682432e-02
-1.803009e-02
1.052856e-01
1.383293e-01
1.052856e-01
1.383293e-01
2.211510e-01
-6.279458e-02
2.211510e-01
-6.279458e-02
1.510509e-01
1.510509e-01
-9.237187e-02
1.134525e-01
1.173839e-02
-9.986666e-02
-9.237187e-02
1.134525e-01
1.173839e-02
-9.986666e-02
6.302610e-02
6.302610e-02
2.229407e-02
2.229407e-02
2.156380e-01
8.232728e-02
-3.180183e-01
2.111904e-02
2.156380e-01
8.232728e-02
-3.180183e-01
2.111904e-02
9.272024e-02
9.272024e-02
1.277529e-01
1.277529e-01
1.098218e-01
-6.024296e-02
-2.021730e-01
1.414358e-02
1.098218e-01
-6.024296e-02
-2.021730e-01
1.414358e-02
-8.486179e-02
-4.363741e-01
-8.486179e-02
-4.363741e-01
-2.866948e-01
-1.233986e-01
-2.866948e-01
-1.233986e-01
-1.086559e-01
-1.086559e-01
1.738809e-01
-1.675140e-01
-2.657588e-03
3.210404e-01
1.738809e-01
-1.675140e-01
-2.657588e-03
3.210404e-01
-2.015462e-01
9.475733e-02
-2.015462e-01
9.475733e-02
5.515743e-01
-2.376977e-02
5.515743e-01
-2.376977e-02
-4.865903e-02
-4.865903e-02
5.414095e-02
5.369879e-02
-1.973476e-02
6.231385e-03
5.414095e-02
5.369879e-02
-1.973476e-02
6.231385e-03
-2.671293e-02
-7.938151e-02
-2.671293e-02
-7.938151e-02
-3.440420e-02
4.437291e-02
-3.440420e-02
4.437291e-02
8.488991e-02
8.488991e-02
1.332464e-01
1.900982e-02
3.732868e-02
1.332464e-01
1.900982e-02
3.732868e-02
8.043214e-03
5.442848e-03
8.043214e-03
5.442848e-03
-8.984836e-02
-8.984836e-02
-8.073071e-02
-8.073071e-02
-5.590382e-03
-9.654881e-02
-5.590382e-03
-9.654881e-02
1.824773e-01
8.920663e-02
7.865608e-02
1.510040e-01
1.824773e-01
8.920663e-02
7.865608e-02
1.510040e-01
-1.143206e-02
-1.143206e-02
-1.856443e-02
-2.852873e-02
7.053706e-02
1.141410e-01
-1.856443e-02
-2.852873e-02
7.053706e-02
1.141410e-01
9.853325e-02
9.853325e-02
2.683569e-01
2.683569e-01
1.672923e-01
1.672923e-01
1.359070e-01
1.359070e-01
-2.846447e-01
-2.846447e-01
-1.506415e-01
-1.506415e-01
1.298815e-01
-2.751852e-02
1.298815e-01
-2.751852e-02
-3.981834e-02
-3.981834e-02
1.980226e-02
1.318641e-01
1.980226e-02
1.318641e-01
8.583720e-02
8.583720e-02
-1.180218e-01
-2.856446e-02
-1.180218e-01
-2.856446e-02
-1.521663e-01
-7.255939e-02
-1.521663e-01
-7.255939e-02
-1.942480e-01
-6.844115e-02
-1.942480e-01
-6.844115e-02
-1.431544e-01
-1.431544e-01
-1.085813e-01
-1.085813e-01
1.869329e-01
-1.704083e-01
1.869329e-01
-1.704083e-01
-2.374955e-01
-2.374955e-01
-1.808831e-01
-5.802749e-02
-1.808831e-01
-5.802749e-02
1.097724e-01
-9.118417e-02
1.150310e-01
2.655812e-01
1.097724e-01
-9.118417e-02
1.150310e-01
2.655812e-01
1.086429e-01
1.113411e-01
1.086429e-01
1.113411e-01
2.587615e-01
1.733876e-01
2.587615e-01
1.733876e-01
-3.940704e-01
-1.764484e-01
-3.253601e-01
-4.370869e-01
-3.940704e-01
-1.764484e-01
-3.253601e-01
-4.370869e-01
-9.709477e-02
-4.575979e-01
-9.709477e-02
-4.575979e-01
-3.425538e-01
-2.835030e-01
-3.425538e-01
-2.835030e-01
-3.687741e-01
-3.687741e-01
4.528643e-01
3.975740e-01
4.528643e-01
3.975740e-01
5.168863e-01
5.168863e-01
5.518390e-01
5.518390e-01
-7.658426e-02
-5.104050e-02
1.132657e-01
-4.250087e-02
-7.658426e-02
-5.104050e-02
1.132657e-01
-4.250087e-02
3.098252e-01
3.098252e-01
1.851914e-01
1.851914e-01
-4.492534e-02
5.795592e-03
1.915854e-01
-7.280973e-02
-4.492534e-02
5.795592e-03
1.915854e-01
-7.280973e-02
2.144605e-01
2.144605e-01
-3.654656e-02
-2.973603e-02
-2.130433e-01
-4.459701e-02
-3.654656e-02
-2.973603e-02
-2.130433e-01
-4.459701e-02
-1.226310e-01
-1.226310e-01
1.219774e-01
-1.371561e-02
1.219774e-01
-1.371561e-02
-2.338791e-01
-8.684919e-02
-2.338791e-01
-8.684919e-02
-1.197392e-01
-1.197392e-01
3.967480e-01
3.967480e-01
-3.468364e-02
-3.468364e-02
1.162042e-01
5.651866e-01
1.162042e-01
5.651866e-01
-4.140815e-01
-2.011129e-01
-4.140815e-01
-2.011129e-01
2.273449e-01
2.273449e-01
-3.424610e-02
-1.705036e-01
2.127732e-01
2.737990e-01
-3.424610e-02
-1.705036e-01
2.127732e-01
2.737990e-01
-2.595006e-01
-2.595006e-01
1.385451e-01
1.385451e-01
3.921378e-02
1.590132e-02
7.397421e-03
-2.128374e-03
3.921378e-02
1.590132e-02
7.397421e-03
-2.128374e-03
1.968551e-01
1.968551e-01
4.059197e-01
4.059197e-01
3.476721e-01
3.476721e-01
2.451758e-01
7.630614e-02
2.451758e-01
7.630614e-02
4.405985e-02
4.405985e-02
3.453658e-03
3.453658e-03
8.295323e-02
1.065399e-02
8.295323e-02
1.065399e-02
-4.518925e-01
-4.518925e-01
-2.424574e-01
-2.424574e-01
-1.658910e-01
-2.798540e-01
-1.658910e-01
-2.798540e-01
-9.196019e-02
-4.909008e-01
-9.196019e-02
-4.909008e-01
-3.401985e-02
-1.288695e-02
-1.170476e-01
-5.034305e-02
-3.401985e-02
-1.288695e-02
-1.170476e-01
-5.034305e-02
4.726219e-02
4.726219e-02
-3.267572e-02
-3.267572e-02
-5.481981e-03
-3.380636e-02
-5.481981e-03
-3.380636e-02
-9.917172e-02
-6.577867e-02
-9.917172e-02
-6.577867e-02
2.689464e-01
2.689464e-01
-3.703398e-02
-3.703398e-02
2.983544e-01
1.569275e-01
2.983544e-01
1.569275e-01
4.172231e-01
4.172231e-01
1.894150e-01
3.592646e-01
1.894150e-01
3.592646e-01
1.716243e-01
1.716243e-01
5.703342e-01
5.703342e-01
3.961347e-01
3.961347e-01
4.385670e-01
4.150306e-01
4.385670e-01
4.150306e-01
3.292306e-01
3.292306e-01
1.807651e-01
1.807651e-01
1.106675e-01
4.564221e-01
1.106675e-01
4.564221e-01
4.928392e-02
4.928392e-02
3.136768e-01
3.136768e-01
-1.772135e-01
-1.222766e-01
-1.772135e-01
-1.222766e-01
3.263512e-01
3.263512e-01
2.931897e-01
2.931897e-01
7.228256e-01
1.364714e-01
7.228256e-01
1.364714e-01
2.780328e-01
-3.327587e-01
2.780328e-01
-3.327587e-01
2.419760e-01
2.419760e-01
-1.676713e-02
1.631362e-01
-1.676713e-02
1.631362e-01
-3.797945e-01
-3.797945e-01
3.201991e-01
3.201991e-01
5.412581e-01
5.412581e-01
4.498353e-01
1.433233e-01
4.498353e-01
1.433233e-01
3.672452e-01
3.672452e-01
3.027601e-01
3.027601e-01
4.373693e-01
1.620641e-01
4.373693e-01
1.620641e-01
4.070437e-01
4.070437e-01
1.366476e-01
1.366476e-01
7.494399e-01
6.647328e-01
7.494399e-01
6.647328e-01
1.817995e-01
1.817995e-01
5.456256e-01
5.456256e-01
5.565274e-01
6.522200e-01
5.565274e-01
6.522200e-01
2.005940e-01
1.106496e-01
2.005940e-01
1.106496e-01
-6.171529e-02
-6.171529e-02
-2.214618e-03
6.658996e-02
-2.214618e-03
6.658996e-02
-1.328681e-01
-1.328681e-01
-2.785402e-01
-2.785402e-01
-1.589160e-01
-1.589160e-01
-5.217470e-01
-4.183039e-01
-5.217470e-01
-4.183039e-01
3.593265e-02
3.593265e-02
2.105710e-01
2.105710e-01
-2.638425e-01
-1.390868e-01
-2.638425e-01
-1.390868e-01
8.965635e-01
8.965635e-01
1.105198e+00
1.105198e+00
1.203600e+00
2.340246e-01
1.203600e+00
2.340246e-01
7.535619e-01
7.535619e-01
7.416222e-01
7.416222e-01
1.890910e-01
7.684107e-01
1.890910e-01
7.684107e-01
-2.015622e-01
5.767045e-02
-2.015622e-01
5.767045e-02
2.731181e-02
2.731181e-02
5.816930e-01
-5.022205e-02
5.816930e-01
-5.022205e-02
2.626214e-01
2.626214e-01
6.045930e-02
6.045930e-02
-5.560567e-01
-5.560567e-01
-7.455566e-02
5.498694e-01
-7.455566e-02
5.498694e-01
-6.096109e-01
-6.096109e-01
-4.412063e-01
-4.412063e-01
-4.705207e-02
3.275819e-03
-4.705207e-02
3.275819e-03
-6.443521e-01
-6.443521e-01
-1.140855e-01
-1.140855e-01
-6.347571e-01
-2.858935e-01
-6.347571e-01
-2.858935e-01
-1.147294e-01
-1.147294e-01
-5.869752e-01
-5.869752e-01
-3.187751e-01
-7.613701e-01
-3.187751e-01
-7.613701e-01
3.109270e-01
2.363054e-01
3.109270e-01
2.363054e-01
6.960821e-01
6.960821e-01
6.313805e-01
5.306295e-01
6.313805e-01
5.306295e-01
6.453325e-01
6.453325e-01
3.802132e-01
3.802132e-01
4.405147e-01
4.405147e-01
3.839903e-01
3.127882e-01
3.839903e-01
3.127882e-01
4.163488e-01
4.163488e-01
1.182965e-01
1.182965e-01
-5.695494e-01
-3.626882e-02
-5.695494e-01
-3.626882e-02
-1.271229e-01
-1.271229e-01
-2.013784e-01
-2.013784e-01
-3.388775e-01
-3.928838e-01
-3.388775e-01
-3.928838e-01
-2.478903e-01
-2.478903e-01
-2.730031e-01
-2.730031e-01
-3.086175e-01
-2.280593e-01
-3.086175e-01
-2.280593e-01
4.845229e-01
4.838460e-01
4.845229e-01
4.838460e-01
6.238877e-01
6.238877e-01
5.121138e-01
3.649158e-01
5.121138e-01
3.649158e-01
3.575886e-01
3.575886e-01
6.795391e-01
6.795391e-01
4.059856e-01
4.059856e-01
4.826533e-01
6.844940e-01
4.826533e-01
6.844940e-01
-3.249616e-01
-3.249616e-01
-6.811191e-01
-6.811191e-01
-4.489477e-01
-9.471022e-02
-4.489477e-01
-9.471022e-02
-6.558432e-01
-6.558432e-01
-7.434650e-01
-7.434650e-01
-4.433377e-01
-5.046342e-01
-4.433377e-01
-5.046342e-01
-3.294417e-01
-3.294417e-01
1.716211e-01
1.716211e-01
1.665677e-02
-1.637787e-01
1.665677e-02
-1.637787e-01
9.208463e-02
-3.502356e-01
9.208463e-02
-3.502356e-01
5.561202e-01
5.561202e-01
4.710360e-01
-1.998637e-01
4.710360e-01
-1.998637e-01
-6.077623e-01
-6.077623e-01
4.268216e-01
4.268216e-01
5.991947e-01
5.991947e-01
6.515648e-01
4.181708e-01
6.515648e-01
4.181708e-01
6.383737e-01
6.383737e-01
1.722811e-01
1.722811e-01
5.926598e-01
6.256787e-01
5.926598e-01
6.256787e-01
-2.529613e-01
-2.529613e-01
-2.524817e-01
-2.524817e-01
-3.586868e-01
5.359165e-02
-3.586868e-01
5.359165e-02
8.309336e-02
8.309336e-02
2.471239e-01
2.471239e-01
3.206452e-01
7.439406e-02
3.206452e-01
7.439406e-02
4.439434e-01
2.155695e-01
4.439434e-01
2.155695e-01
5.262451e-01
5.262451e-01
7.490330e-01
8.646537e-01
7.490330e-01
8.646537e-01
5.005163e-01
5.005163e-01
5.906687e-01
5.906687e-01
6.672734e-01
6.672734e-01
1.538953e-01
5.207092e-01
1.538953e-01
5.207092e-01
6.759043e-02
6.759043e-02
-1.463685e-01
-1.463685e-01
-5.062187e-01
-3.965792e-01
-5.062187e-01
-3.965792e-01
-2.994986e-01
-2.994986e-01
-5.615382e-01
-5.615382e-01
-6.062541e-01
-7.049984e-01
-6.062541e-01
-7.049984e-01
-2.831868e-01
-2.831868e-01
-2.757052e-01
-2.757052e-01
-1.137024e-01
-1.713785e-01
-1.137024e-01
-1.713785e-01
5.650068e-01
4.091188e-01
5.650068e-01
4.091188e-01
6.864123e-01
6.864123e-01
3.467689e-01
2.336448e-01
3.467689e-01
2.336448e-01
2.433236e-01
2.433236e-01
1.918872e-01
1.918872e-01
-4.078134e-01
-4.078134e-01
-6.433042e-01
-3.377888e-01
-6.433042e-01
-3.377888e-01
-4.268598e-01
-4.268598e-01
-5.000229e-01
-5.000229e-01
-1.081681e+00
-5.567748e-01
-1.081681e+00
-5.567748e-01
-5.430563e-01
-5.430563e-01
-5.571898e-01
-5.571898e-01
-4.111371e-01
-9.411904e-01
-4.111371e-01
-9.411904e-01
-3.438043e-01
-3.438043e-01
1.604838e-02
1.604838e-02
5.162218e-03
-2.309545e-01
5.162218e-03
-2.309545e-01
-4.209786e-01
-2.389744e-01
-4.209786e-01
-2.389744e-01
-4.269136e-01
-4.269136e-01
-7.927349e-01
-8.232023e-01
-7.927349e-01
-8.232023e-01
-5.223024e-01
-5.223024e-01
-6.675466e-01
-6.675466e-01
-7.105263e-01
-7.105263e-01
-3.024475e-01
-5.674421e-01
-3.024475e-01
-5.674421e-01
-5.811987e-01
-5.811987e-01
-1.061915e+00
-1.061915e+00
1.947443e-01
9.165855e-02
1.947443e-01
9.165855e-02
-4.811721e-01
-4.811721e-01
1.749983e-01
1.749983e-01
4.708654e-01
5.615374e-01
4.708654e-01
5.615374e-01
4.169671e-02
4.169671e-02
2.075367e-01
2.075367e-01
4.272522e-01
2.778112e-01
4.272522e-01
2.778112e-01
-7.059157e-01
-6.367060e-01
-7.059157e-01
-6.367060e-01
-6.453779e-01
-6.453779e-01
-6.426570e-01
-6.372307e-01
-6.426570e-01
-6.372307e-01
-7.333186e-01
-7.333186e-01
-6.426973e-01
-6.426973e-01
-1.609869e-01
-1.609869e-01
-1.630832e-01
-6.181186e-01
-1.630832e-01
-6.181186e-01
5.426831e-01
5.426831e-01
7.329345e-01
7.329345e-01
5.033432e-01
4.038414e-01
5.033432e-01
4.038414e-01
6.539464e-01
6.539464e-01
5.889481e-01
5.889481e-01
5.686330e-01
5.917102e-01
5.686330e-01
5.917102e-01
4.864598e-01
4.864598e-01
3.615161e-01
3.615161e-01
5.109013e-01
4.573477e-01
5.109013e-01
4.573477e-01
-6.889272e-01
-6.968566e-01
-6.889272e-01
-6.968566e-01
-6.737840e-01
-6.737840e-01
-2.001653e-01
-8.568419e-01
-2.001653e-01
-8.568419e-01
-6.809304e-01
-6.809304e-01
-9.203429e-01
-9.203429e-01
-3.041721e-01
-3.041721e-01
-9.400182e-02
-1.671551e-01
-9.400182e-02
-1.671551e-01
5.570272e-01
5.570272e-01
5.960158e-01
5.960158e-01
7.272650e-01
8.586023e-01
7.272650e-01
8.586023e-01
6.349513e-01
6.349513e-01
6.376353e-01
6.376353e-01
6.562288e-01
6.398378e-01
6.562288e-01
6.398378e-01
5.287390e-01
5.287390e-01
4.048556e-01
4.048556e-01
3.238898e-01
5.355206e-01
3.238898e-01
5.355206e-01
-3.222231e-01
-2.656844e-01
-3.222231e-01
-2.656844e-01
4.213119e-01
4.213119e-01
5.183276e-01
2.487064e-01
5.183276e-01
2.487064e-01
-2.890382e-01
-2.890382e-01
7.572135e-01
7.572135e-01
4.863746e-01
4.863746e-01
6.690235e-01
6.070489e-01
6.690235e-01
6.070489e-01
5.666861e-01
5.666861e-01
6.248193e-01
6.248193e-01
4.541356e-01
4.311211e-01
4.541356e-01
4.311211e-01
7.396947e-01
7.396947e-01
6.661653e-01
6.661653e-01
4.022709e-01
3.051598e-01
4.022709e-01
3.051598e-01
5.266522e-01
5.266522e-01
4.590935e-01
4.590935e-01
1.307945e-01
3.838174e-01
1.307945e-01
3.838174e-01
4.536316e-01
-2.627756e-01
4.536316e-01
-2.627756e-01
2.149003e-01
2.149003e-01
-8.103117e-03
7.718724e-01
-8.103117e-03
7.718724e-01
1.404111e-01
1.404111e-01
5.836006e-02
5.836006e-02
5.838639e-01
5.838639e-01
3.785313e-01
-5.866643e-01
3.785313e-01
-5.866643e-01
4.814530e-01
4.814530e-01
8.069878e-02
8.069878e-02
-2.314594e-01
3.577995e-01
-2.314594e-01
3.577995e-01
8.662236e-02
8.662236e-02
3.892108e-01
3.892108e-01
7.729664e-01
4.570320e-01
7.729664e-01
4.570320e-01
3.224196e-01
3.224196e-01
2.932064e-02
2.932064e-02
9.909206e-02
3.067509e-01
9.909206e-02
3.067509e-01
2.438670e-01
4.868298e-01
3.927740e-01
5.183847e-01
2.438670e-01
4.868298e-01
3.927740e-01
5.183847e-01
2.220242e-01
4.426379e-01
2.220242e-01
4.426379e-01
5.663406e-01
6.792213e-01
5.663406e-01
6.792213e-01
5.079728e-01
5.079728e-01
5.975265e-01
5.628237e-01
5.975265e-01
5.628237e-01
4.961550e-01
7.394866e-01
4.961550e-01
7.394866e-01
5.590513e-01
5.891197e-01
5.590513e-01
5.891197e-01
-4.082886e-03
6.804167e-01
-4.082886e-03
6.804167e-01
5.344251e-01
5.344251e-01
6.124492e-01
2.834259e-02
6.124492e-01
2.834259e-02
5.842759e-01
5.842759e-01
4.912663e-01
4.484460e-01
4.912663e-01
4.484460e-01
3.601130e-02
3.601130e-02
6.849963e-01
6.849963e-01
4.999328e-01
4.999328e-01
6.935727e-01
6.521066e-01
6.935727e-01
6.521066e-01
8.647244e-02
8.647244e-02
2.267784e-01
2.267784e-01
6.086315e-01
3.593384e-01
6.086315e-01
3.593384e-01
5.570468e-01
5.570468e-01
6.189465e-01
9.487802e-01
6.189465e-01
9.487802e-01
6.127097e-01
6.127097e-01
6.974563e-01
6.974563e-01
6.350379e-01
6.350379e-01
9.107468e-01
4.980417e-01
9.107468e-01
4.980417e-01
2.789508e-02
2.789508e-02
2.502673e-01
2.502673e-01
5.149085e-01
-3.267225e-02
5.149085e-01
-3.267225e-02
7.476854e-01
7.476854e-01
3.273075e-01
4.806098e-02
3.273075e-01
4.806098e-02
1.804165e-01
1.804165e-01
6.022380e-01
6.022380e-01
6.612133e-01
6.612133e-01
-1.112847e-01
3.366240e-01
-1.112847e-01
3.366240e-01
-6.483426e-02
-6.483426e-02
-6.213695e-01
-6.213695e-01
3.346091e-01
8.497566e-01
3.346091e-01
8.497566e-01
3.424587e-02
3.424587e-02
3.260770e-01
3.162010e-01
3.260770e-01
3.162010e-01
2.255851e-01
2.255851e-01
4.832721e-02
4.832721e-02
-4.880724e-01
-4.880724e-01
-3.577754e-01
3.041215e-01
-3.577754e-01
3.041215e-01
-3.461387e-01
-3.461387e-01
-5.220187e-01
-5.220187e-01
-5.057060e-02
-4.910744e-01
-5.057060e-02
-4.910744e-01
1.849134e-01
1.849134e-01
4.328948e-02
-2.600895e-01
4.328948e-02
-2.600895e-01
-8.850852e-01
-8.850852e-01
6.013283e-02
6.013283e-02
-1.457702e-01
-1.457702e-01
-1.659459e-01
-1.936914e-01
-1.659459e-01
-1.936914e-01
-5.486484e-01
-5.486484e-01
-4.297815e-01
-4.297815e-01
-7.835844e-01
-3.413130e-01
-7.835844e-01
-3.413130e-01
-1.131820e-01
-1.131820e-01
-6.847383e-02
-4.526480e-01
-6.847383e-02
-4.526480e-01
-1.856975e-01
-1.856975e-01
1.068233e-01
1.068233e-01
-1.922984e-01
-1.922984e-01
1.216641e-01
3.561992e-01
1.216641e-01
3.561992e-01
3.397744e-01
3.397744e-01
6.127832e-01
6.127832e-01
2.552242e-01
1.737494e-01
2.552242e-01
1.737494e-01
5.235773e-01
5.235773e-01
4.813083e-01
4.813083e-01
3.740557e-01
4.446587e-01
3.740557e-01
4.446587e-01
4.155312e-01
4.155312e-01
4.260684e-01
4.260684e-01
6.508132e-01
3.273111e-01
6.508132e-01
3.273111e-01
2.600614e-02
2.600614e-02
-3.738096e-01
-3.738096e-01
-3.410112e-01
2.040083e-01
-3.410112e-01
2.040083e-01
-2.963525e-01
-2.963525e-01
3.183547e-02
3.183547e-02
1.815786e-01
4.030696e-01
1.815786e-01
4.030696e-01
-1.309103e-01
-1.309103e-01
-1.342889e-01
-5.834098e-02
-1.342889e-01
-5.834098e-02
3.135300e-01
3.135300e-01
2.742863e-01
2.742863e-01
3.347892e-01
3.347892e-01
1.333269e-01
4.269193e-02
1.333269e-01
4.269193e-02
3.554276e-01
3.554276e-01
2.893368e-01
2.893368e-01
5.210884e-01
5.465743e-01
5.210884e-01
5.465743e-01
5.321815e-01
5.321815e-01
5.451357e-01
5.451357e-01
-1.329462e-01
2.037845e-01
-1.329462e-01
2.037845e-01
2.830237e-01
2.830237e-01
4.825548e-01
4.825548e-01
-1.204152e-01
-4.699772e-01
-1.204152e-01
-4.699772e-01
2.356349e-01
2.356349e-01
-1.456891e-01
-1.456891e-01
2.808242e-01
2.345974e-01
2.808242e-01
2.345974e-01
1.349830e-01
1.349830e-01
2.775467e-01
2.775467e-01
4.968969e-01
4.968969e-01
-2.020139e-01
-2.020139e-01
-1.703783e-01
4.692353e-01
-1.703783e-01
4.692353e-01
3.166377e-01
3.166377e-01
3.061742e-01
3.061742e-01
-7.259064e-02
-4.180361e-01
-7.259064e-02
-4.180361e-01
-8.881397e-01
-8.881397e-01
-5.958817e-01
-5.958817e-01
-1.047743e+00
-1.231664e+00
-1.047743e+00
-1.231664e+00
-3.041288e-01
-3.041288e-01
-3.894209e-01
-3.894209e-01
7.139554e-01
8.257217e-01
7.139554e-01
8.257217e-01
8.385498e-01
8.385498e-01
1.020905e+00
1.020905e+00
7.453136e-01
3.694786e-01
7.453136e-01
3.694786e-01
-2.602025e-01
-2.602025e-01
2.115671e-01
2.115671e-01
-4.031767e-01
-5.655196e-01
-4.031767e-01
-5.655196e-01
-5.726077e-01
-5.726077e-01
-5.880073e-01
-5.880073e-01
-1.068071e-01
-1.780012e-01
-1.068071e-01
-1.780012e-01
-6.681585e-02
2.974869e-03
-6.681585e-02
2.974869e-03
-1.566346e-01
-1.866687e-01
-1.566346e-01
-1.866687e-01
1.307337e-01
-1.229737e-01
1.307337e-01
-1.229737e-01
3.495789e-01
2.271254e-01
1.645976e-01
5.685559e-01
3.495789e-01
2.271254e-01
1.645976e-01
5.685559e-01
3.433034e-01
-2.576966e-01
3.433034e-01
-2.576966e-01
-1.823032e-01
-9.816384e-02
-1.823032e-01
-9.816384e-02
4.186821e-01
4.186821e-01
8.887788e-02
-1.432135e-01
-3.259118e-02
-3.223644e-01
8.887788e-02
-1.432135e-01
-3.259118e-02
-3.223644e-01
-1.524765e-01
1.142007e-01
-1.524765e-01
1.142007e-01
7.055317e-02
2.949663e-01
7.055317e-02
2.949663e-01
5.597364e-02
5.597364e-02
-9.846783e-02
-7.496414e-02
-1.809550e-01
-1.314203e-01
-9.846783e-02
-7.496414e-02
-1.809550e-01
-1.314203e-01
1.027045e-01
-5.818507e-02
1.027045e-01
-5.818507e-02
-2.300719e-01
-2.030655e-01
-2.300719e-01
-2.030655e-01
7.402917e-02
7.402917e-02
-2.383111e-01
-2.919119e-01
-1.559877e-01
-2.383111e-01
-2.919119e-01
-1.559877e-01
-3.208684e-01
2.013807e-01
-3.208684e-01
2.013807e-01
3.104998e-01
-3.031902e-01
3.104998e-01
-3.031902e-01
-5.303688e-01
-5.303688e-01
6.545162e-02
-8.916619e-02
-5.108943e-02
-5.852737e-02
6.545162e-02
-8.916619e-02
-5.108943e-02
-5.852737e-02
1.643527e-01
1.643527e-01
1.102691e-01
1.102691e-01
6.758188e-04
-9.549370e-02
-1.221368e-02
1.019382e-01
6.758188e-04
-9.549370e-02
-1.221368e-02
1.019382e-01
-2.343946e-01
-3.487751e-01
-2.343946e-01
-3.487751e-01
-3.508149e-01
2.446406e-02
-3.508149e-01
2.446406e-02
-4.826318e-03
-4.826318e-03
1.066250e-01
2.071198e-01
1.043176e-01
-2.051862e-02
1.066250e-01
2.071198e-01
1.043176e-01
-2.051862e-02
2.557493e-02
2.557493e-02
-6.414326e-02
-6.414326e-02
-7.142224e-02
-7.142224e-02
-1.063430e-01
-1.753526e-01
-1.063430e-01
-1.753526e-01
-5.927048e-02
-5.927048e-02
-2.324640e-01
-1.372797e-01
-2.324640e-01
-1.372797e-01
1.470980e-01
1.470980e-01
-1.502763e-02
-2.775185e-01
-2.968196e-03
2.910217e-01
-1.502763e-02
-2.775185e-01
-2.968196e-03
2.910217e-01
-9.852741e-02
-9.852741e-02
3.607217e-03
9.857298e-02
3.607217e-03
9.857298e-02
1.171106e-01
1.171106e-01
4.709569e-02
1.161123e-01
7.157566e-02
-1.718823e-01
4.709569e-02
1.161123e-01
7.157566e-02
-1.718823e-01
-3.057551e-03
4.883533e-02
-3.057551e-03
4.883533e-02
1.557385e-01
1.557385e-01
2.953994e-01
1.207049e-01
2.953994e-01
1.207049e-01
2.548573e-01
2.548573e-01
6.186665e-02
-9.552327e-02
-1.351375e-01
-3.423805e-02
6.186665e-02
-9.552327e-02
-1.351375e-01
-3.423805e-02
-3.562545e-02
-3.562545e-02
-3.906780e-02
-3.906780e-02
9.222364e-02
2.585803e-02
9.222364e-02
2.585803e-02
3.264766e-02
3.264766e-02
-2.849341e-02
-7.496361e-02
-2.849341e-02
-7.496361e-02
2.378746e-01
1.766074e-01
-3.230255e-02
2.378746e-01
1.766074e-01
-3.230255e-02
-2.713845e-01
-2.713845e-01
-8.334160e-02
-8.334160e-02
9.444446e-02
-1.380382e-01
4.710191e-02
4.605305e-01
9.444446e-02
-1.380382e-01
4.710191e-02
4.605305e-01
-3.500466e-01
-1.006828e-01
-3.500466e-01
-1.006828e-01
1.196470e-01
1.196470e-01
4.590036e-01
4.590036e-01
-1.591961e-01
-5.120414e-02
-1.593376e-01
-2.314351e-01
-1.591961e-01
-5.120414e-02
-1.593376e-01
-2.314351e-01
-9.783965e-02
-4.180060e-02
-9.783965e-02
-4.180060e-02
-6.007748e-02
-3.858795e-01
-6.007748e-02
-3.858795e-01
-4.976838e-01
-4.976838e-01
9.094492e-02
-2.605307e-01
-3.520505e-01
-2.690231e-01
9.094492e-02
-2.605307e-01
-3.520505e-01
-2.690231e-01
7.337544e-02
7.337544e-02
-1.864937e-01
-1.864937e-01
5.442316e-02
5.442316e-02
-2.924207e-01
-2.924207e-01
-2.758022e-01
-2.009673e-01
-2.758022e-01
-2.009673e-01
-8.947072e-02
-6.390681e-02
-1.929248e-03
5.065658e-02
-8.947072e-02
-6.390681e-02
-1.929248e-03
5.065658e-02
7.199634e-02
-6.785872e-02
7.199634e-02
-6.785872e-02
1.226464e-02
8.988412e-03
1.226464e-02
8.988412e-03
1.008745e-01
1.008745e-01
-7.873102e-02
-1.491645e-01
-7.873102e-02
-1.491645e-01
3.833005e-02
3.833005e-02
-3.539378e-01
-4.458544e-01
-3.539378e-01
-4.458544e-01
-2.458504e-01
-2.458504e-01
3.099978e-01
8.181224e-02
3.099978e-01
8.181224e-02
2.428575e-01
2.428575e-01
2.458831e-01
2.458831e-01
-2.204250e-01
-2.204250e-01
-1.813025e-02
-1.470099e-01
-1.813025e-02
-1.470099e-01
2.635568e-02
2.635568e-02
7.751844e-02
-2.101816e-02
7.751844e-02
-2.101816e-02
-2.003607e-01
-1.122532e-01
-2.003607e-01
-1.122532e-01
-7.086365e-02
3.624390e-01
1.974456e-01
-1.372010e-01
-7.086365e-02
3.624390e-01
1.974456e-01
-1.372010e-01
3.164759e-01
1.896698e-01
3.164759e-01
1.896698e-01
4.553828e-02
4.553828e-02
5.519221e-02
-1.366809e-01
5.519221e-02
-1.366809e-01
2.490003e-01
2.490003e-01
-6.856894e-02
-6.856894e-02
-5.269855e-01
-5.269855e-01
4.454586e-01
-2.635746e-01
4.454586e-01
-2.635746e-01
-6.743412e-02
-4.972702e-01
-6.743412e-02
-4.972702e-01
-1.381123e-01
-1.381123e-01
-2.595019e-02
-2.595019e-02
-3.718956e-02
-3.718956e-02
8.229470e-03
8.229470e-03
-1.970283e-01
-1.970283e-01
-1.140302e-01
-1.140302e-01
-1.126274e-01
-3.578958e-02
-1.126274e-01
-3.578958e-02
-1.611215e-01
-2.169294e-01
-1.611215e-01
-2.169294e-01
5.882827e-02
5.882827e-02
-2.959786e-01
-2.959786e-01
5.108388e-02
5.108388e-02
-1.786083e-02
-1.786083e-02
1.433744e-01
5.094586e-01
1.433744e-01
5.094586e-01
-4.352167e-01
-4.352167e-01
1.099826e-01
-1.997219e-01
1.099826e-01
-1.997219e-01
1.651969e-01
1.651969e-01
-2.813681e-01
1.190317e-01
-2.813681e-01
1.190317e-01
-8.202609e-01
1.451735e-01
-8.202609e-01
1.451735e-01
7.251742e-01
1.811507e-01
7.251742e-01
1.811507e-01
-6.586534e-01
-1.424288e-01
-6.586534e-01
-1.424288e-01
-2.345295e-01
-5.607782e-02
-2.345295e-01
-5.607782e-02
1.326478e-01
3.713077e-01
1.326478e-01
3.713077e-01
-1.123972e-01
3.818249e-02
-1.123972e-01
3.818249e-02
-2.038686e-01
-1.198752e-02
-2.038686e-01
-1.198752e-02
-6.098765e-02
3.593568e-01
-6.098765e-02
3.593568e-01
2.843119e-01
-1.354531e-01
2.843119e-01
-1.354531e-01
5.026440e-01
2.139571e-02
5.026440e-01
2.139571e-02
-3.276315e-02
-2.945330e-01
-3.276315e-02
-2.945330e-01
-2.347876e-01
-2.271461e-01
-2.347876e-01
-2.271461e-01
-9.149062e-02
-1.136825e-02
-9.149062e-02
-1.136825e-02
3.111836e-01
-2.253350e-01
3.111836e-01
-2.253350e-01
-8.617128e-02
2.319343e-03
-8.617128e-02
2.319343e-03
-5.451414e-01
-2.685745e-01
-5.451414e-01
-2.685745e-01
2.617910e-02
2.029426e-01
2.617910e-02
2.029426e-01
-2.019913e-01
6.195062e-03
-2.019913e-01
6.195062e-03
4.905442e-01
1.230903e-01
4.905442e-01
1.230903e-01
-5.880981e-01
8.550955e-02
-5.880981e-01
8.550955e-02
5.506934e-01
-1.519743e-02
5.506934e-01
-1.519743e-02
4.192112e-01
3.463245e-01
4.192112e-01
3.463245e-01
-3.868721e-02
-6.328479e-01
-3.868721e-02
-6.328479e-01
6.186786e-02
4.784173e-01
6.186786e-02
4.784173e-01
1.135554e-01
3.840165e-01
1.135554e-01
3.840165e-01
1.574790e-01
1.210856e-01
1.574790e-01
1.210856e-01
9.401983e-01
6.012620e-01
9.401983e-01
6.012620e-01
6.020978e-01
5.679794e-01
6.020978e-01
5.679794e-01
4.126828e-02
-4.233270e-02
4.126828e-02
-4.233270e-02
1.168021e-01
3.755425e-01
1.168021e-01
3.755425e-01
1.107604e-01
2.157850e-01
1.107604e-01
2.157850e-01
1.960225e-01
5.255666e-01
1.960225e-01
5.255666e-01
-1.246572e-01
3.375995e-01
-1.246572e-01
3.375995e-01
-9.062767e-02
1.476101e-01
-9.062767e-02
1.476101e-01
-6.932330e-02
3.886153e-02
-6.932330e-02
3.886153e-02
-9.338468e-02
-5.003630e-01
-9.338468e-02
-5.003630e-01
5.165725e-01
3.665294e-02
5.165725e-01
3.665294e-02
-4.511024e-02
-3.671246e-01
-4.511024e-02
-3.671246e-01
8.570697e-01
5.855973e-01
8.570697e-01
5.855973e-01
3.583106e-01
2.992022e-01
3.583106e-01
2.992022e-01
6.639374e-01
4.334026e-01
6.639374e-01
4.334026e-01
-1.111152e-01
-1.111152e-01
-6.819325e-02
-6.819325e-02
-1.729943e-01
3.776506e-02
-1.729943e-01
3.776506e-02
-9.184062e-02
-9.184062e-02
-4.005313e-02
-4.005313e-02
-1.689846e-01
-2.226578e-01
-1.689846e-01
-2.226578e-01
1.171487e-01
1.171487e-01
-1.149849e-02
-1.149849e-02
-1.515385e-01
-4.359956e-01
-1.515385e-01
-4.359956e-01
-1.659692e-01
-1.659692e-01
5.730811e-02
5.730811e-02
5.269393e-01
-2.974160e-01
5.269393e-01
-2.974160e-01
-9.953591e-02
-9.953591e-02
1.558164e-01
1.558164e-01
-1.611760e-01
7.853945e-01
-1.611760e-01
7.853945e-01
2.397522e-01
2.397522e-01
-1.521024e-01
-1.521024e-01
-2.107997e-02
1.332969e-01
-2.107997e-02
1.332969e-01
7.127964e-02
7.127964e-02
-3.593026e-02
-3.593026e-02
1.545087e-01
8.588883e-02
1.545087e-01
8.588883e-02
7.858716e-01
7.858716e-01
9.307149e-01
9.307149e-01
1.225295e+00
1.083463e+00
1.225295e+00
1.083463e+00
2.607862e-02
2.607862e-02
5.519174e-02
5.519174e-02
-2.184288e-02
2.083849e-01
-2.184288e-02
2.083849e-01
-1.567178e-01
-1.567178e-01
4.333378e-02
4.333378e-02
2.329463e-02
-4.868108e-01
2.329463e-02
-4.868108e-01
2.446791e-02
2.446791e-02
-2.771511e-01
-2.771511e-01
-2.111598e-01
6.725592e-02
-2.111598e-01
6.725592e-02
-3.295673e-01
-3.295673e-01
-2.199312e-01
-2.199312e-01
-3.895924e-01
-1.302609e-01
-3.895924e-01
-1.302609e-01
-6.362453e-03
-6.362453e-03
-1.665086e-01
-1.665086e-01
-2.634050e-01
-3.889658e-01
-2.634050e-01
-3.889658e-01
1.051725e-02
1.051725e-02
3.304752e-01
3.304752e-01
-4.213809e-01
-2.836085e-01
-4.213809e-01
-2.836085e-01
4.227384e-01
4.227384e-01
1.817009e-01
1.817009e-01
-1.117839e-01
-2.297706e-01
-1.117839e-01
-2.297706e-01
2.095499e-01
2.095499e-01
1.342861e-01
1.342861e-01
3.483716e-01
6.330365e-01
3.483716e-01
6.330365e-01
-1.899785e-01
-1.899785e-01
-7.344219e-02
-7.344219e-02
-1.405106e-01
-2.067812e-01
-1.405106e-01
-2.067812e-01
-2.747278e-01
-2.747278e-01
1.475527e-01
1.475527e-01
-4.624661e-01
-1.919108e-01
-4.624661e-01
-1.919108e-01
6.953834e-01
6.953834e-01
2.215833e-01
2.215833e-01
7.232238e-02
-3.081344e-01
7.232238e-02
-3.081344e-01
6.643905e-02
6.643905e-02
2.544281e-01
2.544281e-01
4.366636e-01
5.896497e-01
4.366636e-01
5.896497e-01
4.337901e-01
4.337901e-01
3.309080e-01
3.309080e-01
3.199894e-01
8.570870e-02
3.199894e-01
8.570870e-02
8.855065e-02
8.855065e-02
6.650120e-02
6.650120e-02
2.736777e-01
4.170871e-02
2.736777e-01
4.170871e-02
2.110402e-01
2.110402e-01
-8.995234e-04
-8.995234e-04
-3.105731e-01
2.294964e-01
-3.105731e-01
2.294964e-01
-2.286571e-01
-2.286571e-01
-8.340902e-02
-8.340902e-02
-5.328184e-02
-1.614197e-01
-5.328184e-02
-1.614197e-01
-8.760513e-02
-8.760513e-02
-3.106370e-01
-3.106370e-01
-1.852869e-01
-1.571191e-01
-1.852869e-01
-1.571191e-01
5.009257e-02
5.009257e-02
1.278242e-01
1.278242e-01
5.847428e-01
1.597639e-01
5.847428e-01
1.597639e-01
-4.514021e-01
-4.514021e-01
-8.873356e-02
-8.873356e-02
-3.925519e-01
-1.059971e-01
-3.925519e-01
-1.059971e-01
3.323257e-01
3.323257e-01
1.756911e-01
1.756911e-01
1.658812e-01
1.424982e-01
1.658812e-01
1.424982e-01
-5.399426e-01
-5.399426e-01
-4.372850e-01
-4.372850e-01
-4.515071e-01
-4.112144e-01
-4.515071e-01
-4.112144e-01
-4.899633e-02
-4.899633e-02
-9.556048e-02
-9.556048e-02
-3.832704e-01
-1.563735e-01
-3.832704e-01
-1.563735e-01
-1.526829e-01
-1.526829e-01
-5.818586e-02
-5.818586e-02
1.887088e-01
-3.044179e-01
1.887088e-01
-3.044179e-01
1.242163e-03
1.242163e-03
-4.084090e-02
-4.084090e-02
-5.666142e-01
-2.355073e-01
-5.666142e-01
-2.355073e-01
6.602642e-03
6.602642e-03
-1.352715e-01
-1.352715e-01
-3.948652e-01
1.238262e-01
-3.948652e-01
1.238262e-01
3.588732e-01
3.588732e-01
3.004197e-01
3.004197e-01
2.685102e-01
-4.825708e-01
2.685102e-01
-4.825708e-01
-4.370005e-01
-4.370005e-01
8.137236e-02
8.137236e-02
2.169557e-01
1.459162e-01
2.169557e-01
1.459162e-01
3.095813e-01
3.095813e-01
1.435178e-01
1.435178e-01
-2.303599e-01
2.608907e-01
-2.303599e-01
2.608907e-01
-1.969727e-01
-1.969727e-01
-4.318224e-01
-4.318224e-01
-3.792781e-01
-4.927907e-01
-3.792781e-01
-4.927907e-01
-1.762506e-01
-1.762506e-01
8.636468e-02
8.636468e-02
1.816882e-01
8.031683e-02
1.816882e-01
8.031683e-02
3.191861e-01
3.191861e-01
1.493455e-01
1.493455e-01
-1.039514e-01
1.144206e-01
-1.039514e-01
1.144206e-01
-1.900522e-01
-1.900522e-01
2.443009e-01
2.443009e-01
7.405676e-02
-4.372502e-01
7.405676e-02
-4.372502e-01
9.986367e-02
9.986367e-02
-3.094826e-01
-3.094826e-01
-1.886092e-01
-9.042034e-02
-1.886092e-01
-9.042034e-02
2.004275e-02
2.004275e-02
1.027805e-01
1.027805e-01
-6.705887e-01
-1.689596e-01
-6.705887e-01
-1.689596e-01
-1.425402e-01
-1.425402e-01
-2.830690e-01
-2.830690e-01
6.408818e-02
4.879160e-01
6.408818e-02
4.879160e-01
1.546371e-01
1.546371e-01
2.491554e-03
2.491554e-03
1.013966e-01
1.764504e-02
1.013966e-01
1.764504e-02
-2.867956e-01
-2.867956e-01
1.260707e-01
1.260707e-01
8.262775e-02
-9.848636e-02
8.262775e-02
-9.848636e-02
2.588116e-01
2.588116e-01
-2.304242e-01
-2.304242e-01
8.288018e-01
1.247628e+00
8.288018e-01
1.247628e+00
-2.820040e-01
-2.820040e-01
-2.953862e-01
-2.953862e-01
1.156571e-01
-3.125772e-01
1.156571e-01
-3.125772e-01
-3.704229e-02
-3.704229e-02
5.003269e-01
5.003269e-01
4.626698e-01
3.192189e-01
4.626698e-01
3.192189e-01
4.362086e-01
4.362086e-01
2.780762e-02
2.780762e-02
-5.097757e-01
7.614710e-02
-5.097757e-01
7.614710e-02
-2.077731e-01
-2.077731e-01
-3.875700e-01
-3.875700e-01
-7.799955e-01
-7.701244e-01
-7.799955e-01
-7.701244e-01
-3.923214e-01
-3.923214e-01
-1.903739e-01
-1.903739e-01
-8.223714e-02
-3.474293e-01
-8.223714e-02
-3.474293e-01
2.906326e-01
2.906326e-01
2.089972e-01
2.089972e-01
1.068524e-01
3.316302e-02
1.068524e-01
3.316302e-02
-1.304694e-01
-1.304694e-01
2.771595e-02
2.771595e-02
-9.696530e-02
-1.779479e-01
-9.696530e-02
-1.779479e-01
8.638550e-02
8.638550e-02
-7.095998e-02
-7.095998e-02
-7.105947e-02
3.995723e-01
-7.105947e-02
3.995723e-01
-3.478264e-01
-3.478264e-01
-1.301946e-01
-1.301946e-01
4.542730e-02
-2.236967e-01
4.542730e-02
-2.236967e-01
-2.150691e-01
-2.150691e-01
-6.076233e-01
-6.076233e-01
7.933738e-01
3.152693e-01
7.933738e-01
3.152693e-01
2.019364e-01
1.510347e-01
2.019364e-01
1.510347e-01
1.803690e-02
1.803690e-02
8.461080e-02
2.137193e-01
8.461080e-02
2.137193e-01
3.773321e-01
3.773321e-01
-1.944097e-01
-1.944097e-01
-5.800311e-03
-5.800311e-03
2.200121e-01
4.950760e-03
2.200121e-01
4.950760e-03
2.410031e-01
2.410031e-01
4.622827e-01
4.622827e-01
-1.785011e-01
-1.824986e-01
-1.785011e-01
-1.824986e-01
-4.135437e-01
-4.135437e-01
-8.531619e-01
-8.531619e-01
-1.836577e-01
-5.321938e-02
-1.836577e-01
-5.321938e-02
4.975607e-02
4.975607e-02
2.078154e-01
2.078154e-01
2.253497e-01
6.521575e-02
2.253497e-01
6.521575e-02
1.147483e-01
1.147483e-01
2.947374e-01
2.947374e-01
2.340793e-01
2.880258e-01
2.340793e-01
2.880258e-01
-2.753433e-02
-2.753433e-02
-5.477740e-01
-5.477740e-01
-6.593704e-01
-2.602509e-01
-6.593704e-01
-2.602509e-01
-5.260340e-01
-5.260340e-01
-4.429718e-01
-4.429718e-01
-4.216552e-01
-4.519322e-01
-4.216552e-01
-4.519322e-01
-1.934825e-01
2.779211e-01
-1.934825e-01
2.779211e-01
3.478680e-02
3.478680e-02
-2.640322e-01
-1.918820e-01
-2.640322e-01
-1.918820e-01
-3.406800e-02
-3.406800e-02
7.097962e-02
7.097962e-02
2.044638e-02
2.044638e-02
2.037653e-01
-1.422487e-01
2.037653e-01
-1.422487e-01
-2.908912e-01
-2.908912e-01
-4.981387e-01
-4.981387e-01
1.019239e-01
1.703516e-01
1.019239e-01
1.703516e-01
1.070644e-02
1.070644e-02
2.506553e-01
2.506553e-01
5.291835e-02
-6.957776e-02
5.291835e-02
-6.957776e-02
3.637529e-01
3.637529e-01
6.347345e-02
6.347345e-02
-2.302287e-01
3.939951e-01
-2.302287e-01
3.939951e-01
-1.845038e-01
-1.845038e-01
2.620403e-01
2.620403e-01
-8.102604e-03
-2.890419e-01
-8.102604e-03
-2.890419e-01
3.636173e-01
3.636173e-01
-1.030066e-01
-1.030066e-01
4.476015e-01
4.045058e-01
4.476015e-01
4.045058e-01
-4.485225e-01
-4.485225e-01
-4.415414e-01
-4.415414e-01
1.139293e-02
-9.434352e-02
1.139293e-02
-9.434352e-02
1.862630e-01
5.980076e-01
1.862630e-01
5.980076e-01
-3.560077e-01
-3.560077e-01
-2.764814e-01
3.149164e-01
-2.764814e-01
3.149164e-01
7.599972e-01
7.599972e-01
4.634270e-01
4.634270e-01
-1.694582e-01
-1.694582e-01
-1.352472e-01
6.745538e-01
-1.352472e-01
6.745538e-01
-3.951736e-01
-3.951736e-01
5.020374e-01
5.020374e-01
5.893358e-01
-7.349236e-01
5.893358e-01
-7.349236e-01
-1.407489e-01
-1.407489e-01
-2.731490e-01
-2.731490e-01
-1.715281e-01
3.679744e-01
-1.715281e-01
3.679744e-01
-3.335627e-01
-3.335627e-01
-9.835827e-02
-9.835827e-02
-4.544354e-01
-5.459176e-01
-4.544354e-01
-5.459176e-01
5.343230e-01
5.343230e-01
2.728014e-02
2.728014e-02
8.816421e-02
6.588457e-02
8.816421e-02
6.588457e-02
-3.196608e-01
-3.196608e-01
3.111757e-01
3.111757e-01
9.952502e-02
-5.160659e-01
9.952502e-02
-5.160659e-01
4.748203e-01
4.748203e-01
2.855550e-01
2.855550e-01
3.363945e-01
6.488916e-01
3.363945e-01
6.488916e-01
4.561658e-01
6.133058e-01
4.561658e-01
6.133058e-01
-6.218280e-01
-6.218280e-01
-6.312940e-01
2.207645e-01
-6.312940e-01
2.207645e-01
5.731701e-01
5.731701e-01
-6.719864e-01
-6.719864e-01
-2.237615e-02
-2.237615e-02
-6.736292e-01
-1.081397e+00
-6.736292e-01
-1.081397e+00
-2.628692e-01
-2.628692e-01
5.294638e-03
5.294638e-03
-4.794000e-01
-5.329017e-01
-4.794000e-01
-5.329017e-01
3.989423e-01
3.989423e-01
2.097731e-01
2.097731e-01
2.809634e-01
1.427558e-02
2.809634e-01
1.427558e-02
-3.707121e-01
-3.707121e-01
-6.835785e-01
-6.835785e-01
-1.136065e-01
-7.027301e-02
-1.136065e-01
-7.027301e-02
-1.452790e-01
-1.452790e-01
-7.344774e-02
-7.344774e-02
4.392795e-02
3.412608e-01
4.392795e-02
3.412608e-01
-3.801740e-01
-3.801740e-01
2.308574e-01
2.308574e-01
1.779451e-01
-1.843127e-01
1.779451e-01
-1.843127e-01
5.188620e-01
5.188620e-01
4.837070e-01
4.837070e-01
1.525516e-01
1.586838e-01
1.525516e-01
1.586838e-01
2.289688e-01
5.922570e-01
2.289688e-01
5.922570e-01
-4.660905e-01
-4.660905e-01
-7.791974e-01
4.490831e-01
-7.791974e-01
4.490831e-01
7.263868e-01
7.263868e-01
-5.885004e-01
-5.885004e-01
1.965769e-01
1.965769e-01
7.429383e-01
-7.795649e-01
7.429383e-01
-7.795649e-01
1.678484e-01
1.678484e-01
-2.457116e-01
-2.457116e-01
1.226458e-01
6.332789e-01
1.226458e-01
6.332789e-01
6.570743e-02
6.570743e-02
-1.042260e-01
-1.042260e-01
-2.568758e-01
2.287259e-01
-2.568758e-01
2.287259e-01
-1.596893e-01
-1.596893e-01
-1.718582e-01
-1.718582e-01
1.741318e-03
-2.611662e-01
1.741318e-03
-2.611662e-01
3.840282e-01
3.840282e-01
3.247857e-01
3.247857e-01
5.104474e-01
4.949216e-01
5.104474e-01
4.949216e-01
-3.150746e-01
-3.150746e-01
3.039743e-01
3.039743e-01
4.309933e-01
1.526427e-01
4.309933e-01
1.526427e-01
1.113370e-01
1.113370e-01
-5.022693e-01
-5.022693e-01
-6.083380e-01
-6.299980e-02
-6.083380e-01
-6.299980e-02
2.492995e-01
4.723903e-01
2.492995e-01
4.723903e-01
-4.722808e-01
-4.722808e-01
5.410258e-01
-3.704834e-03
5.410258e-01
-3.704834e-03
-3.572827e-02
-3.572827e-02
-8.901055e-01
-8.901055e-01
2.752457e-01
2.752457e-01
-2.437761e-02
-5.170219e-01
-2.437761e-02
-5.170219e-01
4.492071e-01
4.492071e-01
5.651955e-02
5.651955e-02
6.932424e-02
9.042792e-01
6.932424e-02
9.042792e-01
1.707983e-01
1.707983e-01
-9.137362e-03
-9.137362e-03
2.333103e-02
-2.065562e-01
2.333103e-02
-2.065562e-01
-1.556744e-01
-1.556744e-01
8.496328e-02
8.496328e-02
6.758896e-02
6.293569e-02
6.758896e-02
6.293569e-02
-3.709069e-02
-3.709069e-02
-4.542941e-02
-4.542941e-02
-4.421841e-01
-4.816513e-01
-4.421841e-01
-4.816513e-01
1.401113e-01
1.401113e-01
-8.248979e-02
-8.248979e-02
-1.725327e-01
2.666004e-01
-1.725327e-01
2.666004e-01
-6.409164e-02
-6.409164e-02
1.535078e-01
1.535078e-01
5.096852e-01
-1.331422e-01
5.096852e-01
-1.331422e-01
2.238672e-01
2.933286e-01
-1.520649e-01
-3.616926e-01
2.238672e-01
2.933286e-01
-1.520649e-01
-3.616926e-01
-7.423043e-02
-1.426967e-01
-7.423043e-02
-1.426967e-01
-2.645616e-02
-5.446903e-01
-2.645616e-02
-5.446903e-01
1.246549e-01
1.246549e-01
-3.892259e-01
6.458363e-03
-3.892259e-01
6.458363e-03
1.891545e-01
1.891545e-01
-1.964881e-01
-5.627889e-02
-1.964881e-01
-5.627889e-02
2.490612e-02
2.490612e-02
4.099911e-01
2.851546e-01
4.099911e-01
2.851546e-01
-4.640583e-01
-4.640583e-01
2.772482e-01
4.400565e-01
2.772482e-01
4.400565e-01
-2.910073e-01
-2.910073e-01
-1.298449e-01
-3.443144e-01
-1.298449e-01
-3.443144e-01
3.775279e-01
3.775279e-01
-2.760899e-02
2.370405e-01
-2.760899e-02
2.370405e-01
7.809455e-02
7.809455e-02
5.210032e-01
6.889518e-01
5.210032e-01
6.889518e-01
-9.671208e-02
-9.671208e-02
2.483281e-01
5.301275e-02
2.483281e-01
5.301275e-02
3.077723e-01
3.077723e-01
1.094123e-01
-7.361655e-02
1.094123e-01
-7.361655e-02
3.240662e-01
3.240662e-01
-3.125782e-01
-4.602159e-02
-3.125782e-01
-4.602159e-02
3.007110e-01
3.007110e-01
-9.679298e-02
-7.224587e-02
-9.679298e-02
-7.224587e-02
-1.985417e-01
-1.985417e-01
-9.504769e-02
-3.406300e-01
-9.504769e-02
-3.406300e-01
-6.079730e-01
-6.079730e-01
-4.232395e-01
-1.645018e-01
-4.232395e-01
-1.645018e-01
9.905181e-02
-2.991359e-01
9.905181e-02
-2.991359e-01
-4.188772e-01
3.118488e-01
-4.188772e-01
3.118488e-01
5.514574e-01
1.798141e-01
5.514574e-01
1.798141e-01
-3.497706e-01
-3.497706e-01
2.795544e-01
2.795544e-01
-1.745096e-01
-1.745096e-01
-2.255014e-01
-8.467418e-02
-2.255014e-01
-8.467418e-02
-4.952571e-01
-4.952571e-01
-5.175583e-01
-5.175583e-01
-3.409190e-01
-3.409190e-01
-3.041607e-02
-3.041607e-02
-1.523095e-01
-1.415711e-02
-1.523095e-01
-1.415711e-02
-2.284180e-01
-2.284180e-01
-3.743970e-01
-3.743970e-01
3.317401e-01
3.317401e-01
-3.659875e-01
-3.659875e-01
-4.816290e-01
-2.860946e-01
-4.816290e-01
-2.860946e-01
-6.095039e-01
-6.095039e-01
-3.792726e-02
-3.792726e-02
-4.596130e-01
-4.596130e-01
-2.088028e-01
-2.088028e-01
1.946068e-01
5.722517e-01
1.946068e-01
5.722517e-01
1.454031e-01
1.454031e-01
-2.128456e-01
-2.128456e-01
1.295233e-01
1.295233e-01
-1.959385e-01
-1.959385e-01
-4.146707e-02
-3.109416e-01
-4.146707e-02
-3.109416e-01
-2.542979e-01
-2.542979e-01
-2.693107e-02
-2.693107e-02
-5.804008e-02
-5.804008e-02
1.924320e-01
1.924320e-01
3.991483e-01
5.488183e-02
3.991483e-01
5.488183e-02
7.774068e-02
7.774068e-02
-2.507859e-01
-2.507859e-01
-4.683048e-02
-4.683048e-02
1.704852e-02
1.704852e-02
-1.202243e-01
2.884299e-01
-1.202243e-01
2.884299e-01
-3.403373e-01
-3.403373e-01
-6.962065e-01
-6.962065e-01
-1.506631e-01
-1.506631e-01
-2.185340e-01
-2.185340e-01
4.445359e-02
-1.520059e-01
4.445359e-02
-1.520059e-01
-4.247389e-01
-4.247389e-01
1.281144e-01
1.281144e-01
2.506155e-01
-1.302746e-01
2.506155e-01
-1.302746e-01
1.315765e-01
1.315765e-01
1.134935e-01
1.134935e-01
-3.212371e-01
6.795916e-02
-3.212371e-01
6.795916e-02
1.156100e-01
1.156100e-01
1.947520e-01
1.947520e-01
4.083575e-02
-1.777709e-02
4.083575e-02
-1.777709e-02
1.022044e-01
1.022044e-01
-1.001391e-01
-1.001391e-01
-4.620999e-01
9.241314e-02
-4.620999e-01
9.241314e-02
1.865803e-02
1.865803e-02
-2.168567e-01
-2.168567e-01
-7.665653e-02
-4.078938e-01
-7.665653e-02
-4.078938e-01
2.685220e-04
2.685220e-04
-1.370316e-01
-1.370316e-01
-2.909481e-01
-1.967323e-01
-2.909481e-01
-1.967323e-01
-2.994439e-02
-2.994439e-02
-1.233542e-01
-1.233542e-01
3.508102e-01
-3.905524e-02
3.508102e-01
-3.905524e-02
-1.727988e-01
-1.727988e-01
-4.794956e-02
-4.794956e-02
-1.632185e-02
4.412355e-01
-1.632185e-02
4.412355e-01
-4.547671e-01
-4.547671e-01
-2.563430e-01
-2.563430e-01
-7.745335e-02
-1.602466e-01
-7.745335e-02
-1.602466e-01
4.564645e-01
4.564645e-01
5.519353e-01
5.519353e-01
3.139311e-01
3.706134e-01
3.139311e-01
3.706134e-01
3.325076e-01
3.325076e-01
1.166866e-01
1.166866e-01
4.177616e-01
8.482313e-02
4.177616e-01
8.482313e-02
2.840396e-01
2.840396e-01
2.037434e-01
2.037434e-01
-2.561717e-01
-3.130331e-01
-2.561717e-01
-3.130331e-01
-3.872622e-01
-3.872622e-01
-4.548658e-01
-4.548658e-01
-3.468547e-01
1.906664e-01
-3.468547e-01
1.906664e-01
1.264247e-01
1.264247e-01
1.581526e-01
1.581526e-01
-2.980025e-01
-3.180010e-02
-2.980025e-01
-3.180010e-02
-2.991516e-01
-2.991516e-01
-3.778436e-01
-3.778436e-01
-2.159759e-03
2.555530e-01
-2.159759e-03
2.555530e-01
6.098713e-01
6.098713e-01
-6.063420e-02
-6.063420e-02
-3.221442e-01
3.721243e-02
-3.221442e-01
3.721243e-02
-2.591321e-01
-2.591321e-01
-2.081984e-02
-2.081984e-02
1.362593e-02
-4.167475e-01
1.362593e-02
-4.167475e-01
-7.032224e-02
6.863219e-01
-7.032224e-02
6.863219e-01
2.788441e-01
3.492096e-01
2.788441e-01
3.492096e-01
2.475618e-01
3.656644e-01
2.475618e-01
3.656644e-01
5.223292e-01
-1.310065e-01
5.223292e-01
-1.310065e-01
-1.548475e-01
-7.442693e-01
-1.548475e-01
-7.442693e-01
4.533045e-02
5.602515e-02
4.533045e-02
5.602515e-02
1.977423e-01
-2.600159e-01
1.977423e-01
-2.600159e-01
3.265304e-02
-8.008989e-02
3.265304e-02
-8.008989e-02
5.819914e-02
1.028206e-01
5.819914e-02
1.028206e-01
2.363816e-02
-1.543019e-01
2.363816e-02
-1.543019e-01
5.521596e-01
-8.050606e-02
5.521596e-01
-8.050606e-02
-3.799563e-01
-4.345311e-01
-3.799563e-01
-4.345311e-01
8.875821e-02
-2.091042e-01
8.875821e-02
-2.091042e-01
5.189808e-01
1.736545e-01
5.189808e-01
1.736545e-01
-4.787746e-01
-1.386580e-01
-4.787746e-01
-1.386580e-01
3.005467e-01
-5.795476e-02
3.005467e-01
-5.795476e-02
-9.038767e-02
-9.038767e-02
-3.777311e-01
-3.777311e-01
3.074686e-01
3.074686e-01
4.403201e-01
2.492017e-01
4.403201e-01
2.492017e-01
6.498330e-02
6.498330e-02
2.490109e-01
2.490109e-01
-5.687716e-01
-1.850552e-01
-5.687716e-01
-1.850552e-01
6.692212e-01
6.692212e-01
2.534876e-01
2.534876e-01
2.577714e-01
9.331320e-02
2.577714e-01
9.331320e-02
-4.698890e-01
-4.698890e-01
4.670822e-02
4.670822e-02
1.254219e-01
1.596877e-01
1.254219e-01
1.596877e-01
-1.045227e-01
-1.045227e-01
-3.261305e-01
-3.261305e-01
-1.090144e-01
-8.381679e-02
-1.090144e-01
-8.381679e-02
-1.749569e-01
-1.749569e-01
-5.849624e-02
-5.849624e-02
1.878986e-01
1.878986e-01
-3.297581e-01
-3.297581e-01
-4.041969e-01
-3.077111e-01
-4.041969e-01
-3.077111e-01
-5.340767e-01
-5.340767e-01
-5.323719e-01
-5.323719e-01
3.948891e-01
-3.734003e-02
3.948891e-01
-3.734003e-02
-8.132086e-01
-8.132086e-01
-3.616707e-01
-3.616707e-01
-4.466426e-01
-1.900121e-01
-4.466426e-01
-1.900121e-01
3.166803e-01
3.166803e-01
-2.266822e-01
-2.266822e-01
1.077687e-01
-1.171463e-01
1.077687e-01
-1.171463e-01
-1.272416e-01
-1.272416e-01
-1.555726e-01
-1.555726e-01
-3.376210e-01
-4.913213e-02
-3.376210e-01
-4.913213e-02
2.671911e-01
2.671911e-01
-3.094017e-02
-3.094017e-02
-2.010871e-02
-2.010871e-02
2.804643e-01
2.804643e-01
2.229325e-01
4.480835e-01
2.229325e-01
4.480835e-01
1.909417e-01
1.909417e-01
4.703732e-01
4.703732e-01
-3.172845e-02
-3.638076e-01
-3.172845e-02
-3.638076e-01
4.270999e-01
4.270999e-01
-3.350946e-02
-3.350946e-02
3.819926e-01
4.221170e-02
3.819926e-01
4.221170e-02
-4.603308e-01
-4.603308e-01
1.834518e-01
1.834518e-01
-4.107855e-02
1.952723e-01
-4.107855e-02
1.952723e-01
4.169037e-01
4.169037e-01
-1.959871e-01
-1.959871e-01
1.535354e-01
3.170543e-01
1.535354e-01
3.170543e-01
-3.241348e-01
-3.241348e-01
4.670821e-02
4.670821e-02
8.915188e-02
8.915188e-02
2.398765e-01
2.398765e-01
-1.146944e-01
-4.061223e-01
-1.146944e-01
-4.061223e-01
-7.579921e-02
-7.579921e-02
-3.614373e-01
-3.614373e-01
-3.815429e-03
1.806159e-02
-3.815429e-03
1.806159e-02
3.660867e-01
3.660867e-01
4.881383e-01
4.881383e-01
-3.733526e-01
1.372893e-01
-3.733526e-01
1.372893e-01
-2.047643e-01
-2.047643e-01
4.673033e-02
4.673033e-02
-1.732736e-01
-6.848670e-01
-1.732736e-01
-6.848670e-01
-5.921801e-02
-5.921801e-02
5.733012e-02
5.733012e-02
-5.113669e-02
-3.260618e-01
-5.113669e-02
-3.260618e-01
5.196035e-01
5.196035e-01
4.664477e-01
4.664477e-01
-3.076653e-01
-3.076653e-01
-2.495687e-01
-2.495687e-01
-9.191977e-02
1.487832e-01
-9.191977e-02
1.487832e-01
-1.371987e-01
-1.371987e-01
5.748260e-02
5.748260e-02
-4.490855e-01
-2.711336e-01
-4.490855e-01
-2.711336e-01
-1.513356e-01
-1.513356e-01
-2.168039e-01
-2.168039e-01
4.789156e-01
1.523981e-01
4.789156e-01
1.523981e-01
5.128032e-02
5.128032e-02
-6.619316e-02
-6.619316e-02
4.284573e-01
2.008151e-01
4.284573e-01
2.008151e-01
-6.102754e-02
-6.102754e-02
1.028158e-01
1.028158e-01
4.837731e-01
7.352746e-01
4.837731e-01
7.352746e-01
-2.095548e-01
-2.095548e-01
-8.219786e-02
-8.219786e-02
-4.123731e-01
-4.123731e-01
-3.971115e-01
-3.971115e-01
2.967617e-01
-4.001480e-01
2.967617e-01
-4.001480e-01
-5.322995e-02
-5.322995e-02
-1.562302e-01
-1.562302e-01
4.196507e-01
6.101522e-01
4.196507e-01
6.101522e-01
5.296501e-03
5.296501e-03
-2.041839e-01
-2.041839e-01
-3.472824e-01
1.077955e-01
-3.472824e-01
1.077955e-01
-3.114752e-01
-3.114752e-01
2.118998e-01
2.118998e-01
1.973062e-02
-3.767673e-01
1.973062e-02
-3.767673e-01
2.622605e-01
2.622605e-01
4.025331e-01
4.025331e-01
-4.201865e-01
-2.624822e-01
-4.201865e-01
-2.624822e-01
9.540833e-01
9.540833e-01
2.408922e-03
2.408922e-03
3.653886e-01
3.653886e-01
7.852840e-01
7.852840e-01
5.717877e-01
4.197071e-01
5.717877e-01
4.197071e-01
3.043239e-01
3.043239e-01
2.745807e-02
2.745807e-02
-4.172001e-01
-3.377792e-01
-4.172001e-01
-3.377792e-01
5.206706e-02
5.206706e-02
-9.709340e-03
-9.709340e-03
-8.822286e-02
6.018259e-02
-8.822286e-02
6.018259e-02
-1.382920e-01
-1.382920e-01
2.702097e-01
2.702097e-01
2.624789e-01
-2.812346e-01
2.624789e-01
-2.812346e-01
3.698884e-01
3.698884e-01
-4.375106e-01
-4.375106e-01
8.632048e-02
7.149914e-01
8.632048e-02
7.149914e-01
-7.198929e-01
-7.198929e-01
-4.011195e-02
-4.011195e-02
-1.099130e-01
-1.099130e-01
4.932955e-01
4.932955e-01
4.157343e-01
-8.491901e-02
4.157343e-01
-8.491901e-02
6.577162e-01
6.577162e-01
4.281113e-01
4.281113e-01
7.973936e-01
5.867225e-01
7.973936e-01
5.867225e-01
5.442732e-01
5.442732e-01
7.735127e-01
7.735127e-01
8.684044e-01
7.473484e-01
8.684044e-01
7.473484e-01
7.874107e-01
7.874107e-01
7.124205e-01
7.124205e-01
5.117583e-01
5.771769e-01
5.117583e-01
5.771769e-01
7.062920e-01
7.062920e-01
6.418932e-01
6.418932e-01
8.230122e-01
8.339627e-01
8.230122e-01
8.339627e-01
1.231900e+00
1.231900e+00
9.519069e-01
9.519069e-01
-4.432402e-02
8.261047e-01
-4.432402e-02
8.261047e-01
2.152407e-01
2.152407e-01
4.951055e-01
4.951055e-01
6.258168e-01
5.004845e-01
6.258168e-01
5.004845e-01
6.357968e-01
6.357968e-01
7.298158e-01
7.298158e-01
6.515293e-01
7.448264e-01
6.515293e-01
7.448264e-01
-1.899487e-02
-1.899487e-02
2.284494e-03
2.284494e-03
9.117268e-03
-1.594511e-02
9.117268e-03
-1.594511e-02
2.928798e-01
2.928798e-01
-2.706135e-01
-2.706135e-01
-1.670057e-01
4.455309e-01
-1.670057e-01
4.455309e-01
-2.507667e-01
-2.507667e-01
6.429582e-02
6.429582e-02
-3.717907e-01
-5.809676e-01
-3.717907e-01
-5.809676e-01
-4.218144e-01
-4.218144e-01
-6.057270e-01
-6.057270e-01
-2.567889e-01
-3.796679e-01
-2.567889e-01
-3.796679e-01
7.086498e-01
7.086498e-01
6.631007e-01
6.631007e-01
6.158518e-01
6.590844e-01
6.158518e-01
6.590844e-01
6.726436e-01
6.726436e-01
5.750369e-01
5.750369e-01
6.046383e-01
5.731987e-01
6.046383e-01
5.731987e-01
7.575586e-01
7.575586e-01
9.245194e-01
9.245194e-01
9.429366e-01
7.953447e-01
9.429366e-01
7.953447e-01
6.519536e-01
6.519536e-01
7.402348e-01
7.402348e-01
5.104494e-01
6.240651e-01
5.104494e-01
6.240651e-01
7.715403e-02
7.715403e-02
-2.962988e-01
-2.962988e-01
-6.501518e-01
2.315452e-01
-6.501518e-01
2.315452e-01
-2.150237e-02
-2.150237e-02
-7.533388e-01
-7.533388e-01
-4.037112e-01
-5.540392e-01
-4.037112e-01
-5.540392e-01
7.748637e-01
7.748637e-01
6.421243e-01
6.421243e-01
2.382435e-01
2.190308e-01
2.382435e-01
2.190308e-01
6.727705e-01
6.727705e-01
6.555796e-01
6.555796e-01
3.032582e-01
3.917206e-01
3.032582e-01
3.917206e-01
7.450969e-01
7.450969e-01
5.340919e-01
5.340919e-01
-4.834066e-01
-1.834561e-01
-4.834066e-01
-1.834561e-01
1.477723e-01
1.477723e-01
5.117432e-01
5.117432e-01
-6.984270e-02
-5.037728e-01
-6.984270e-02
-5.037728e-01
5.674841e-01
5.674841e-01
-2.099384e-01
-2.099384e-01
-3.005652e-01
-1.607906e-01
-3.005652e-01
-1.607906e-01
-4.483271e-01
-4.483271e-01
1.318158e-01
1.318158e-01
-2.844127e-01
-4.279018e-01
-2.844127e-01
-4.279018e-01
-6.638366e-01
-6.638366e-01
-5.127342e-01
-5.127342e-01
-4.154593e-01
-2.456989e-01
-4.154593e-01
-2.456989e-01
-1.149572e-01
-1.149572e-01
1.404493e-01
1.404493e-01
1.077367e-01
-2.168953e-01
1.077367e-01
-2.168953e-01
-3.770969e-01
-3.770969e-01
-7.899107e-01
-7.899107e-01
-1.172509e-01
6.475111e-02
-1.172509e-01
6.475111e-02
-7.422833e-01
-7.422833e-01
-9.277690e-01
-9.277690e-01
-5.338296e-01
-4.565753e-01
-5.338296e-01
-4.565753e-01
-9.176293e-01
-9.176293e-01
-7.277580e-01
-7.277580e-01
-4.748599e-01
-4.424035e-01
-4.748599e-01
-4.424035e-01
-7.029529e-01
-7.029529e-01
-5.797476e-01
-5.797476e-01
-3.126897e-01
-2.436517e-01
-3.126897e-01
-2.436517e-01
1.927938e-01
1.927938e-01
4.194856e-01
4.194856e-01
6.514024e-01
1.993802e-01
6.514024e-01
1.993802e-01
2.966787e-01
2.966787e-01
3.193335e-01
3.193335e-01
5.715980e-01
6.249349e-01
5.715980e-01
6.249349e-01
3.266095e-01
3.266095e-01
4.151908e-01
4.151908e-01
6.051036e-01
6.669594e-01
6.051036e-01
6.669594e-01
2.803894e-01
2.803894e-01
1.344521e-01
1.344521e-01
6.029376e-01
6.551599e-01
6.029376e-01
6.551599e-01
2.430477e-01
2.430477e-01
1.753423e-01
1.753423e-01
1.554696e-01
4.611852e-01
1.554696e-01
4.611852e-01
1.191815e-01
1.191815e-01
-8.808634e-02
-8.808634e-02
-1.152200e-01
-3.025975e-01
-1.152200e-01
-3.025975e-01
4.315230e-01
4.315230e-01
4.558843e-01
4.558843e-01
1.369820e-01
2.223443e-01
1.369820e-01
2.223443e-01
4.391090e-01
4.391090e-01
5.713255e-01
5.713255e-01
4.197570e-01
2.239737e-01
4.197570e-01
2.239737e-01
6.769763e-01
6.769763e-01
6.193390e-01
6.193390e-01
3.839115e-01
5.058414e-01
3.839115e-01
5.058414e-01
5.974327e-01
5.974327e-01
5.901386e-01
5.901386e-01
5.043870e-01
4.255178e-01
5.043870e-01
4.255178e-01
3.197713e-01
3.197713e-01
-2.750934e-01
-2.750934e-01
-1.299755e-01
1.974488e-01
-1.299755e-01
1.974488e-01
-6.278125e-01
-6.278125e-01
-5.246794e-01
-5.246794e-01
-2.630362e-01
-3.947137e-01
-2.630362e-01
-3.947137e-01
-1.168075e-01
-1.168075e-01
-2.975473e-02
-2.975473e-02
-1.020293e-01
-9.272773e-02
-1.020293e-01
-9.272773e-02
1.088196e-02
1.088196e-02
-7.922745e-02
-7.922745e-02
-4.500682e-01
-2.323115e-01
-4.500682e-01
-2.323115e-01
-1.956289e-01
-1.956289e-01
-3.504295e-02
-3.504295e-02
-3.584305e-01
-6.085582e-01
-3.584305e-01
-6.085582e-01
1.138926e-01
1.138926e-01
1.515820e-01
1.515820e-01
1.071061e-01
-3.275857e-02
1.071061e-01
-3.275857e-02
1.458775e-01
1.458775e-01
3.949566e-02
3.949566e-02
9.019074e-02
1.930095e-01
9.019074e-02
1.930095e-01
-1.871415e-01
-1.871415e-01
2.222722e-01
2.222722e-01
-5.290217e-02
-3.013629e-02
-5.290217e-02
-3.013629e-02
-7.910101e-02
-7.910101e-02
-2.360275e-01
-2.360275e-01
-2.392132e-01
-2.220418e-01
-2.392132e-01
-2.220418e-01
-1.528534e-01
-1.528534e-01
-3.931674e-01
-3.931674e-01
1.506245e-02
-3.145003e-02
1.506245e-02
-3.145003e-02
-4.970680e-01
-4.970680e-01
-3.667366e-01
-3.667366e-01
-3.455483e-01
-2.385300e-01
-3.455483e-01
-2.385300e-01
-1.586682e-02
-1.586682e-02
4.065517e-01
4.065517e-01
4.607326e-02
-1.707929e-01
4.607326e-02
-1.707929e-01
2.069304e-01
2.069304e-01
9.472521e-02
9.472521e-02
1.005846e-01
1.210093e-01
1.005846e-01
1.210093e-01
7.729869e-02
7.729869e-02
7.629491e-03
7.629491e-03
1.455245e-01
9.464022e-02
1.455245e-01
9.464022e-02
-1.471690e-01
-1.471690e-01
-1.850714e-01
-1.850714e-01
9.332637e-02
1.929228e-01
9.332637e-02
1.929228e-01
-2.201986e-01
-2.201986e-01
4.478013e-02
4.478013e-02
-2.109233e-01
-1.449921e-01
-2.109233e-01
-1.449921e-01
-7.163125e-02
-7.163125e-02
-3.907615e-01
-3.907615e-01
-1.687272e-01
-1.370109e-01
-1.687272e-01
-1.370109e-01
-3.837149e-01
-3.837149e-01
-2.310993e-01
-2.310993e-01
-1.057722e-01
-1.540140e-01
-1.057722e-01
-1.540140e-01
2.071803e-02
2.071803e-02
1.083397e-01
1.083397e-01
-2.474214e-02
-7.459510e-02
-2.474214e-02
-7.459510e-02
7.742838e-02
7.742838e-02
3.103217e-02
3.103217e-02
-9.109378e-05
7.360134e-03
-9.109378e-05
7.360134e-03
4.246319e-01
4.246319e-01
3.443972e-01
3.443972e-01
4.365310e-01
2.242279e-01
4.365310e-01
2.242279e-01
1.898407e-01
1.898407e-01
4.044926e-02
4.044926e-02
3.123564e-01
3.787101e-01
3.123564e-01
3.787101e-01
5.579552e-02
5.579552e-02
1.287114e-01
1.287114e-01
2.260681e-01
2.942206e-01
2.260681e-01
2.942206e-01
1.257753e-01
1.257753e-01
1.966670e-02
1.966670e-02
8.743299e-02
1.731983e-01
8.743299e-02
1.731983e-01
-6.014535e-02
-6.014535e-02
-6.777090e-02
-6.777090e-02
-3.576100e-02
-1.642656e-03
-3.576100e-02
-1.642656e-03
-7.675543e-03
-7.675543e-03
3.566800e-02
3.566800e-02
3.760044e-02
-1.920062e-02
3.760044e-02
-1.920062e-02
-2.487893e-02
-2.487893e-02
2.557388e-01
2.557388e-01
8.212103e-02
-4.124853e-02
8.212103e-02
-4.124853e-02
3.504355e-01
3.504355e-01
3.157016e-01
3.157016e-01
2.582381e-01
1.934601e-01
2.582381e-01
1.934601e-01
3.158557e-01
3.158557e-01
2.566130e-01
2.566130e-01
1.765724e-01
2.910946e-01
1.765724e-01
2.910946e-01
1.423940e-01
1.423940e-01
4.719473e-02
4.719473e-02
-9.865447e-03
6.858313e-02
-9.865447e-03
6.858313e-02
-2.756278e-02
-2.756278e-02
-2.696114e-02
-2.696114e-02
6.736905e-03
-1.673672e-02
6.736905e-03
-1.673672e-02
-1.522751e-02
-1.522751e-02
2.918202e-02
2.918202e-02
1.293098e-02
1.524584e-03
1.293098e-02
1.524584e-03
7.304963e-02
7.304963e-02
8.658922e-02
8.658922e-02
1.819201e-01
1.863075e-01
1.819201e-01
1.863075e-01
1.274845e-01
1.274845e-01
2.514804e-01
2.514804e-01
2.150711e-01
1.921063e-01
2.150711e-01
1.921063e-01
2.200044e-01
2.200044e-01
9.836859e-02
9.836859e-02
1.088070e-01
1.670582e-01
1.088070e-01
1.670582e-01
4.166349e-02
4.166349e-02
1.562135e-02
1.562135e-02
4.761010e-02
6.431086e-02
4.761010e-02
6.431086e-02
2.452145e-02
2.452145e-02
2.053118e-02
2.053118e-02
1.642555e-02
2.306667e-02
1.642555e-02
2.306667e-02
3.359655e-03
3.359655e-03
-1.152307e-02
-1.152307e-02
-9.574969e-03
1.695911e-03
-9.574969e-03
1.695911e-03
1.511945e-01
1.511945e-01
2.372370e-01
2.372370e-01
2.144531e-01
9.760975e-02
2.144531e-01
9.760975e-02
2.761330e-01
2.761330e-01
1.766798e-01
1.766798e-01
1.770251e-01
2.329028e-01
1.770251e-01
2.329028e-01
1.476152e-01
1.476152e-01
1.132141e-01
1.132141e-01
6.431508e-02
1.487361e-01
6.431508e-02
1.487361e-01
5.948540e-02
5.948540e-02
3.681906e-02
3.681906e-02
4.037843e-02
5.848547e-02
4.037843e-02
5.848547e-02
1.714341e-02
1.714341e-02
2.982676e-03
2.982676e-03
7.360111e-03
8.895433e-03
7.360111e-03
8.895433e-03
-7.720794e-03
-7.720794e-03
-9.805785e-03
-9.805785e-03
-2.390795e-02
-1.407815e-03
-2.390795e-02
-1.407815e-03
8.414464e-02
8.414464e-02
1.153377e-01
1.153377e-01
1.542022e-02
7.101643e-02
1.542022e-02
7.101643e-02
1.027437e-01
1.027437e-01
1.307549e-01
1.307549e-01
6.091107e-02
2.448216e-02
6.091107e-02
2.448216e-02
1.071077e-01
1.071077e-01
2.719797e-02
2.719797e-02
-2.412601e-03
5.578936e-02
-2.412601e-03
5.578936e-02
5.947055e-02
5.947055e-02
7.336135e-02
7.336135e-02
1.347685e-01
1.017577e-01
1.347685e-01
1.017577e-01
1.857329e-02
1.857329e-02
-7.831672e-04
-7.831672e-04
-2.030394e-02
9.112168e-03
-2.030394e-02
9.112168e-03
-7.119768e-03
-7.119768e-03
-1.923400e-02
-1.923400e-02
-8.132544e-03
-2.515271e-02
-8.132544e-03
-2.515271e-02
5.098931e-02
5.098931e-02
-3.741335e-03
-3.741335e-03
-8.540908e-03
-1.014235e-02
-8.540908e-03
-1.014235e-02
-3.974601e-03
-3.974601e-03
9.090743e-03
9.090743e-03
-8.579899e-03
6.898459e-02
-8.579899e-03
6.898459e-02
7.817062e-02
7.817062e-02
4.638601e-02
4.638601e-02
6.296328e-02
-5.062200e-03
6.296328e-02
-5.062200e-03
1.521186e-01
1.521186e-01
1.614300e-01
1.614300e-01
8.525208e-02
9.148178e-02
8.525208e-02
9.148178e-02
2.804296e-03
2.804296e-03
-1.447455e-02
-1.447455e-02
-9.894123e-04
1.033180e-02
-9.894123e-04
1.033180e-02
-3.286543e-02
-3.286543e-02
-1.889915e-02
-1.889915e-02
-2.321000e-02
-2.698206e-02
-2.321000e-02
-2.698206e-02
-5.375194e-02
-5.375194e-02
-3.135008e-02
-3.135008e-02
-1.074777e-02
-5.213079e-02
-1.074777e-02
-5.213079e-02
1.934609e-01
1.934609e-01
7.130698e-02
7.130698e-02
3.201746e-02
1.941439e-01
3.201746e-02
1.941439e-01
-1.082341e-01
-1.082341e-01
-9.203530e-04
-9.203530e-04
-1.417899e-02
-1.535919e-01
-1.417899e-02
-1.535919e-01
1.811452e-02
1.811452e-02
1.149460e-02
1.149460e-02
-1.447861e-03
-5.171188e-03
-1.447861e-03
-5.171188e-03
5.086443e-03
5.086443e-03
-5.776627e-03
-5.776627e-03
-4.500094e-03
2.539856e-02
-4.500094e-03
2.539856e-02
-3.156704e-02
-3.156704e-02
-2.236189e-02
-2.236189e-02
-1.067148e-02
-3.986567e-02
-1.067148e-02
-3.986567e-02
-2.617660e-02
-2.617660e-02
3.489233e-02
3.489233e-02
5.700903e-02
3.264027e-02
5.700903e-02
3.264027e-02
7.774227e-02
7.774227e-02
-2.492109e-02
-2.492109e-02
4.522859e-02
5.520800e-02
4.522859e-02
5.520800e-02
-6.028096e-02
-6.028096e-02
-2.455242e-03
-2.455242e-03
-3.773966e-02
4.324714e-02
-3.773966e-02
4.324714e-02
5.265434e-02
5.265434e-02
7.394615e-02
7.394615e-02
2.428465e-01
1.555643e-01
2.428465e-01
1.555643e-01
1.954850e-02
1.954850e-02
-1.159564e-02
-1.159564e-02
-2.058621e-02
1.058603e-02
-2.058621e-02
1.058603e-02
-3.763422e-02
-3.763422e-02
-1.772511e-03
-1.772511e-03
9.944951e-03
-2.531035e-02
9.944951e-03
-2.531035e-02
4.871876e-02
4.871876e-02
7.546935e-02
7.546935e-02
2.769359e-01
4.144957e-02
2.769359e-01
4.144957e-02
1.025675e-01
1.025675e-01
9.893068e-02
9.893068e-02
1.886744e-01
3.411306e-01
1.886744e-01
3.411306e-01
6.102909e-02
6.102909e-02
-8.630486e-03
-8.630486e-03
1.800957e-01
2.248295e-01
1.800957e-01
2.248295e-01
1.258548e-01
1.258548e-01
1.908678e-01
1.908678e-01
5.188503e-02
7.305416e-02
5.188503e-02
7.305416e-02
2.924448e-02
2.924448e-02
6.896346e-03
6.896346e-03
1.849746e-02
2.499441e-02
1.849746e-02
2.499441e-02
-1.604803e-03
-1.604803e-03
-1.498577e-02
-1.498577e-02
-3.251126e-02
4.850508e-03
-3.251126e-02
4.850508e-03
1.364798e-01
1.364798e-01
4.904654e-01
4.904654e-01
3.725221e-01
1.757538e-01
3.725221e-01
1.757538e-01
5.616219e-01
5.616219e-01
2.657565e-01
2.657565e-01
2.909830e-01
4.525482e-01
2.909830e-01
4.525482e-01
2.843008e-01
2.843008e-01
2.445723e-01
2.445723e-01
1.992146e-01
2.149044e-01
1.992146e-01
2.149044e-01
7.184406e-02
7.184406e-02
4.092867e-02
4.092867e-02
3.409958e-02
7.978798e-02
3.409958e-02
7.978798e-02
2.280604e-02
2.280604e-02
1.699075e-02
1.699075e-02
1.563963e-02
3.818336e-02
1.563963e-02
3.818336e-02
4.285626e-03
4.285626e-03
-5.176817e-03
-5.176817e-03
-1.448265e-03
2.647820e-04
-1.448265e-03
2.647820e-04
1.303214e-01
1.303214e-01
1.972153e-01
1.972153e-01
1.576779e-01
1.055734e-01
1.576779e-01
1.055734e-01
3.021965e-01
3.021965e-01
2.855080e-01
2.855080e-01
3.372198e-01
2.931760e-01
3.372198e-01
2.931760e-01
1.952553e-01
1.952553e-01
1.484532e-01
1.484532e-01
1.391455e-01
2.436144e-01
1.391455e-01
2.436144e-01
7.512707e-02
7.512707e-02
5.473854e-02
5.473854e-02
7.722696e-03
7.285992e-02
7.722696e-03
7.285992e-02
5.143825e-02
5.143825e-02
4.945354e-03
4.945354e-03
1.055758e-02
-8.484488e-03
1.055758e-02
-8.484488e-03
2.389979e-03
2.389979e-03
-2.627467e-03
-2.627467e-03
-2.756886e-03
9.965150e-03
-2.756886e-03
9.965150e-03
-2.839184e-02
-2.839184e-02
-2.951981e-02
-2.951981e-02
-2.056691e-01
-1.322102e-01
-2.056691e-01
-1.322102e-01
9.547779e-02
9.547779e-02
2.559835e-01
2.559835e-01
1.118314e-01
-1.380293e-01
1.118314e-01
-1.380293e-01
2.493592e-01
2.493592e-01
1.955557e-01
1.955557e-01
2.047574e-01
1.997404e-01
2.047574e-01
1.997404e-01
9.582060e-02
9.582060e-02
-4.333563e-02
-4.333563e-02
-2.964383e-02
9.967025e-02
-2.964383e-02
9.967025e-02
-7.553660e-02
-7.553660e-02
-8.838451e-03
-8.838451e-03
-4.811909e-02
-8.051089e-02
-4.811909e-02
-8.051089e-02
-1.555322e-01
-1.555322e-01
-1.533382e-01
-1.533382e-01
6.191323e-01
4.849564e-01
6.191323e-01
4.849564e-01
2.112744e-01
2.112744e-01
3.489115e-01
3.489115e-01
5.244507e-01
6.439088e-01
5.244507e-01
6.439088e-01
4.710873e-01
4.710873e-01
-5.610013e-02
-5.610013e-02
7.544586e-02
3.481209e-01
7.544586e-02
3.481209e-01
-2.935344e-01
-2.935344e-01
2.920487e-01
2.920487e-01
7.181467e-01
2.657624e-01
7.181467e-01
2.657624e-01
1.679270e-01
1.679270e-01
-3.541334e-01
-3.541334e-01
-4.630885e-01
3.419784e-01
-4.630885e-01
3.419784e-01
-4.329680e-01
-4.329680e-01
-1.150484e-01
-1.150484e-01
-7.952519e-01
-4.496351e-01
-7.952519e-01
-4.496351e-01
-8.805932e-02
-8.805932e-02
1.817513e-01
1.817513e-01
7.483783e-01
-3.372943e-01
7.483783e-01
-3.372943e-01
4.426240e-01
4.426240e-01
3.149149e-01
3.149149e-01
2.801780e-01
1.984940e-01
2.801780e-01
1.984940e-01
1.253416e-02
1.253416e-02
-3.500221e-01
-3.500221e-01
-5.448575e-01
1.123855e-02
-5.448575e-01
1.123855e-02
-2.102707e-01
-2.102707e-01
4.735134e-02
4.735134e-02
2.385139e-01
-1.765489e-01
2.385139e-01
-1.765489e-01
-9.487996e-02
-9.487996e-02
-8.114161e-02
-8.114161e-02
-1.278058e-01
1.945925e-01
-1.278058e-01
1.945925e-01
1.347911e-01
1.347911e-01
-9.160896e-02
-9.160896e-02
-7.660810e-02
-3.268551e-02
-7.660810e-02
-3.268551e-02
-2.193300e-01
-2.193300e-01
-7.335246e-02
-7.335246e-02
-2.907831e-02
-1.588697e-01
-2.907831e-02
-1.588697e-01
-2.969023e-02
-2.969023e-02
-5.850440e-02
-5.850440e-02
3.263487e-02
-7.169340e-03
3.263487e-02
-7.169340e-03
-8.952408e-02
-8.952408e-02
-1.071266e-01
-1.071266e-01
-9.707399e-02
1.312276e-02
-9.707399e-02
1.312276e-02
-6.139541e-02
-6.139541e-02
4.834772e-02
4.834772e-02
5.244984e-02
-4.520109e-02
5.244984e-02
-4.520109e-02
1.014608e-01
1.014608e-01
9.468045e-02
9.468045e-02
2.372665e-03
4.435186e-02
2.372665e-03
4.435186e-02
3.425488e-02
3.425488e-02
3.860899e-02
3.860899e-02
4.735109e-02
1.448745e-02
4.735109e-02
1.448745e-02
1.941765e-01
1.941765e-01
1.494220e-01
1.494220e-01
1.030288e-01
1.889344e-01
1.030288e-01
1.889344e-01
7.031607e-03
7.031607e-03
2.027783e-02
2.027783e-02
-3.854933e-03
-5.165350e-02
-3.854933e-03
-5.165350e-02
4.865520e-03
4.865520e-03
-1.504186e-01
-1.504186e-01
-9.233485e-02
-1.786474e-02
-9.233485e-02
-1.786474e-02
-1.674299e-01
-1.674299e-01
-6.501341e-02
-6.501341e-02
9.365670e-02
-3.843054e-02
9.365670e-02
-3.843054e-02
9.167682e-01
9.167682e-01
7.707581e-01
7.707581e-01
7.161986e-01
8.874693e-01
7.161986e-01
8.874693e-01
7.338970e-01
7.338970e-01
6.677601e-01
6.677601e-01
5.848624e-01
4.119938e-01
5.848624e-01
4.119938e-01
7.443519e-01
7.443519e-01
5.740289e-01
5.740289e-01
7.165811e-01
8.016152e-01
7.165811e-01
8.016152e-01
4.458541e-01
4.458541e-01
4.720045e-01
4.720045e-01
5.026262e-01
5.740092e-01
5.026262e-01
5.740092e-01
2.259872e-01
2.259872e-01
-2.375689e-01
-2.375689e-01
1.316344e-01
7.189950e-01
1.316344e-01
7.189950e-01
-4.571658e-01
-4.571658e-01
-6.696922e-01
-6.696922e-01
-2.553191e-01
-5.060105e-01
-2.553191e-01
-5.060105e-01
-3.039452e-01
-3.039452e-01
3.465167e-01
3.465167e-01
-1.520682e-01
-3.241689e-01
-1.520682e-01
-3.241689e-01
2.385638e-01
2.385638e-01
2.707876e-01
2.707876e-01
-6.117626e-02
1.082096e-01
-6.117626e-02
1.082096e-01
-7.548788e-02
-7.548788e-02
-1.433296e-01
-1.433296e-01
2.571958e-02
6.007282e-03
2.571958e-02
6.007282e-03
3.274400e-01
3.274400e-01
5.698258e-02
5.698258e-02
3.898574e-03
1.531588e-02
3.898574e-03
1.531588e-02
-2.421685e-01
-2.421685e-01
-2.284870e-01
-2.284870e-01
-1.927393e-01
-1.635927e-01
-1.927393e-01
-1.635927e-01
-1.391005e-01
-1.391005e-01
-2.549958e-02
-2.549958e-02
-9.971980e-03
-8.642180e-02
-9.971980e-03
-8.642180e-02
-3.194730e-02
-3.194730e-02
-2.044425e-02
-2.044425e-02
-1.444333e-01
-3.817882e-02
-1.444333e-01
-3.817882e-02
-1.600237e-02
-1.600237e-02
1.298519e-02
1.298519e-02
-7.254215e-02
-1.446746e-01
-7.254215e-02
-1.446746e-01
6.627273e-02
6.627273e-02
6.383872e-03
6.383872e-03
8.577937e-02
6.124038e-02
8.577937e-02
6.124038e-02
-2.017834e-02
-2.017834e-02
1.389135e-02
1.389135e-02
-4.180309e-02
-4.820129e-02
-4.180309e-02
-4.820129e-02
5.913417e-03
5.913417e-03
-4.884711e-03
-4.884711e-03
5.566664e-03
-9.233931e-03
5.566664e-03
-9.233931e-03
-7.336795e-03
-7.336795e-03
1.956405e-02
1.956405e-02
-1.006652e-02
-1.133611e-03
-1.006652e-02
-1.133611e-03
7.394260e-02
7.394260e-02
7.964155e-02
7.964155e-02
6.337458e-02
3.038801e-02
6.337458e-02
3.038801e-02
2.272047e-03
2.272047e-03
-4.166342e-02
-4.166342e-02
-2.027052e-02
2.576380e-02
-2.027052e-02
2.576380e-02
-3.169433e-02
-3.169433e-02
-3.884072e-02
-3.884072e-02
-4.820764e-03
-3.108148e-02
-4.820764e-03
-3.108148e-02
4.427878e-02
4.427878e-02
1.364327e-01
1.364327e-01
9.874763e-02
6.510033e-02
9.874763e-02
6.510033e-02
7.734334e-01
7.734334e-01
7.875888e-01
7.875888e-01
7.452466e-01
4.429803e-01
7.452466e-01
4.429803e-01
5.511035e-01
5.511035e-01
5.939086e-01
5.939086e-01
6.963285e-01
7.390059e-01
6.963285e-01
7.390059e-01
6.366297e-01
6.366297e-01
4.991443e-01
4.991443e-01
5.244752e-01
5.200173e-01
5.244752e-01
5.200173e-01
7.128912e-01
7.128912e-01
8.493399e-01
8.493399e-01
9.042087e-02
5.260886e-01
9.042087e-02
5.260886e-01
6.204409e-01
6.204409e-01
7.028228e-02
7.028228e-02
-1.924102e-01
-1.301574e-01
-1.924102e-01
-1.301574e-01
-3.822514e-01
-3.822514e-01
-6.937223e-01
-6.937223e-01
-5.194593e-01
-3.940525e-01
-5.194593e-01
-3.940525e-01
-3.075889e-01
-3.075889e-01
3.574800e-01
3.574800e-01
1.550235e-01
3.666987e-02
1.550235e-01
3.666987e-02
1.295078e-01
1.295078e-01
-3.421161e-01
-3.421161e-01
4.575909e-02
-7.363944e-02
4.575909e-02
-7.363944e-02
7.229077e-02
7.229077e-02
2.521315e-01
2.521315e-01
4.968617e-02
1.270894e-01
4.968617e-02
1.270894e-01
-9.119889e-02
-9.119889e-02
-1.194055e-02
-1.194055e-02
-5.163149e-03
-1.411013e-02
-5.163149e-03
-1.411013e-02
-4.063999e-02
-4.063999e-02
-5.214907e-02
-5.214907e-02
-3.754104e-02
-4.951595e-02
-3.754104e-02
-4.951595e-02
-3.981775e-02
-3.981775e-02
-5.825538e-02
-5.825538e-02
-8.978814e-02
-9.550547e-02
-8.978814e-02
-9.550547e-02
-1.383824e-02
-1.383824e-02
-1.140884e-01
-1.140884e-01
1.495868e-03
-1.213599e-02
1.495868e-03
-1.213599e-02
-1.507730e-01
-1.507730e-01
-7.498433e-02
-7.498433e-02
-3.710975e-02
-2.162588e-02
-3.710975e-02
-2.162588e-02
1.288389e-02
1.288389e-02
8.216073e-02
8.216073e-02
4.120803e-02
-2.705173e-02
4.120803e-02
-2.705173e-02
6.174788e-03
6.174788e-03
-5.366548e-02
-5.366548e-02
2.073937e-02
7.351583e-02
2.073937e-02
7.351583e-02
-2.414233e-02
-2.414233e-02
-1.013970e-03
-1.013970e-03
2.267826e-02
1.908434e-02
2.267826e-02
1.908434e-02
5.367942e-03
5.367942e-03
5.870629e-04
5.870629e-04
-8.129632e-03
1.340836e-02
-8.129632e-03
1.340836e-02
1.012156e-02
1.012156e-02
4.612833e-02
4.612833e-02
1.636174e-02
-8.707003e-03
1.636174e-02
-8.707003e-03
2.768242e-02
2.768242e-02
-1.302870e-02
-1.302870e-02
-7.245928e-03
4.970194e-03
-7.245928e-03
4.970194e-03
-9.291046e-03
-9.291046e-03
1.486347e-02
1.486347e-02
-1.252772e-02
-1.946155e-03
-1.252772e-02
-1.946155e-03
2.261573e-02
2.261573e-02
9.025720e-03
9.025720e-03
5.259956e-03
-9.219974e-03
5.259956e-03
-9.219974e-03
5.583739e-01
5.583739e-01
8.399873e-01
8.399873e-01
2.989354e-01
2.655584e-01
2.989354e-01
2.655584e-01
7.251342e-01
7.251342e-01
4.004136e-01
4.004136e-01
-2.207615e-01
5.122694e-01
-2.207615e-01
5.122694e-01
3.525519e-01
3.525519e-01
4.295648e-01
4.295648e-01
7.408951e-01
4.342582e-01
7.408951e-01
4.342582e-01
8.884622e-02
8.884622e-02
-3.655625e-01
-3.655625e-01
-6.317774e-01
-4.286633e-01
-6.317774e-01
-4.286633e-01
-4.926475e-01
-4.926475e-01
-5.806827e-01
-5.806827e-01
-6.648021e-01
-5.759650e-01
-6.648021e-01
-5.759650e-01
-1.928320e-01
-1.928320e-01
-2.220916e-01
-2.220916e-01
-1.678912e-01
-4.728622e-01
-1.678912e-01
-4.728622e-01
-3.276141e-01
-3.276141e-01
4.711052e-03
4.711052e-03
4.029238e-01
2.261240e-01
4.029238e-01
2.261240e-01
1.630903e-01
1.630903e-01
2.486694e-01
2.486694e-01
2.537445e-01
4.503810e-01
2.537445e-01
4.503810e-01
2.682976e-02
2.682976e-02
1.398154e-02
1.398154e-02
2.838419e-01
1.509406e-02
2.838419e-01
1.509406e-02
1.012234e-02
1.012234e-02
-1.099223e-01
-1.099223e-01
-1.718508e-01
1.730600e-01
-1.718508e-01
1.730600e-01
-8.928488e-02
-8.928488e-02
-1.157589e-01
-1.157589e-01
-1.114122e-01
-1.395589e-01
-1.114122e-01
-1.395589e-01
-1.256451e-01
-1.256451e-01
-5.239185e-02
-5.239185e-02
-6.820458e-03
-7.741051e-02
-6.820458e-03
-7.741051e-02
-7.147633e-03
-7.147633e-03
8.656824e-03
8.656824e-03
5.684589e-03
1.289340e-02
5.684589e-03
1.289340e-02
-4.814585e-03
-4.814585e-03
-2.212236e-02
-2.212236e-02
-1.797988e-02
-4.450584e-03
-1.797988e-02
-4.450584e-03
-2.487714e-02
-2.487714e-02
-3.032473e-02
-3.032473e-02
-4.135792e-02
-2.252605e-02
-4.135792e-02
-2.252605e-02
5.160790e-03
5.160790e-03
4.157686e-02
4.157686e-02
3.498558e-02
-1.754255e-02
3.498558e-02
-1.754255e-02
2.128305e-02
2.128305e-02
-1.334592e-02
-1.334592e-02
7.934809e-03
2.766450e-02
7.934809e-03
2.766450e-02
-5.956681e-02
-5.956681e-02
-6.549431e-02
-6.549431e-02
-3.565344e-02
-3.352111e-02
-3.565344e-02
-3.352111e-02
-1.186861e-02
-1.186861e-02
9.659669e-03
9.659669e-03
-2.003711e-02
1.168746e-03
-2.003711e-02
1.168746e-03
-2.013068e-03
-2.013068e-03
2.560272e-02
2.560272e-02
2.609290e-02
-2.843799e-02
2.609290e-02
-2.843799e-02
1.598693e-02
1.598693e-02
-2.008907e-02
-2.008907e-02
5.261640e-03
4.935129e-02
5.261640e-03
4.935129e-02
3.276868e-02
3.276868e-02
8.044464e-02
8.044464e-02
9.361032e-02
3.472745e-02
9.361032e-02
3.472745e-02
-8.952318e-02
-8.952318e-02
-2.543249e-01
-2.543249e-01
-5.160952e-01
-8.245555e-02
-5.160952e-01
-8.245555e-02
-1.786815e-01
-1.786815e-01
-5.203618e-01
-5.203618e-01
-2.351330e-01
-7.135652e-02
-2.351330e-01
-7.135652e-02
1.131813e-01
1.131813e-01
2.967027e-01
2.967027e-01
-4.911270e-01
-6.692842e-01
-4.911270e-01
-6.692842e-01
-4.818128e-01
-4.818128e-01
-6.014799e-01
-6.014799e-01
-5.104309e-01
-4.736603e-01
-5.104309e-01
-4.736603e-01
-4.837220e-01
-4.837220e-01
-4.865450e-01
-4.865450e-01
-5.054228e-01
-5.448210e-01
-5.054228e-01
-5.448210e-01
-6.787230e-01
-6.787230e-01
8.372612e-02
8.372612e-02
2.420822e-01
-2.145446e-01
2.420822e-01
-2.145446e-01
5.620147e-01
5.620147e-01
4.456495e-01
4.456495e-01
5.374394e-02
2.598882e-01
5.374394e-02
2.598882e-01
5.720114e-01
5.720114e-01
3.263679e-01
3.263679e-01
5.006635e-01
3.057543e-01
5.006635e-01
3.057543e-01
3.463577e-01
3.463577e-01
2.973931e-01
2.973931e-01
1.699655e-01
3.163273e-01
1.699655e-01
3.163273e-01
4.025363e-02
4.025363e-02
-5.113616e-02
-5.113616e-02
1.094864e-02
8.840899e-02
1.094864e-02
8.840899e-02
-7.053032e-02
-7.053032e-02
-6.422448e-02
-6.422448e-02
-3.128126e-02
-4.232797e-02
-3.128126e-02
-4.232797e-02
-1.660085e-02
-1.660085e-02
3.427594e-02
3.427594e-02
4.361817e-02
2.018316e-02
4.361817e-02
2.018316e-02
2.561314e-02
2.561314e-02
5.388358e-04
5.388358e-04
-7.414716e-03
1.904554e-02
-7.414716e-03
1.904554e-02
-6.927664e-03
-6.927664e-03
-1.431498e-02
-1.431498e-02
1.953946e-03
-3.286192e-03
1.953946e-03
-3.286192e-03
-1.655837e-02
-1.655837e-02
1.125692e-03
1.125692e-03
8.335470e-03
2.046945e-03
8.335470e-03
2.046945e-03
2.446654e-02
2.446654e-02
2.944052e-02
2.944052e-02
-2.756046e-02
8.806821e-03
-2.756046e-02
8.806821e-03
1.332728e-02
1.332728e-02
2.950433e-02
2.950433e-02
-8.109545e-03
-6.206708e-02
-8.109545e-03
-6.206708e-02
5.198607e-02
5.198607e-02
3.077399e-02
3.077399e-02
6.455895e-02
6.479202e-02
6.455895e-02
6.479202e-02
1.013623e-02
1.013623e-02
7.893691e-03
7.893691e-03
6.839096e-02
6.587925e-02
6.839096e-02
6.587925e-02
2.869140e-03
2.869140e-03
1.007447e-03
1.007447e-03
7.001377e-03
3.280189e-02
7.001377e-03
3.280189e-02
4.200197e-02
4.200197e-02
3.844949e-02
3.844949e-02
3.243927e-02
8.024101e-03
3.243927e-02
8.024101e-03
3.227247e-02
3.227247e-02
6.491301e-02
6.491301e-02
3.524465e-02
5.051402e-02
3.524465e-02
5.051402e-02
-2.129414e-01
-2.129414e-01
-7.904648e-01
-7.904648e-01
5.035877e-02
5.035877e-02
-4.595174e-02
-4.595174e-02
-1.097361e+00
-1.097361e+00
-4.916328e-01
-4.916328e-01
4.960686e-02
4.960686e-02
-3.419713e-01
-3.419713e-01
-5.293790e-01
-5.293790e-01
-6.229798e-01
-6.229798e-01
-1.174105e-01
-1.174105e-01
3.420376e-01
3.420376e-01
-1.595334e-02
-1.595334e-02
-1.249705e-01
-1.249705e-01
3.551292e-01
3.551292e-01
3.108282e-01
3.108282e-01
4.091066e-02
4.091066e-02
1.223226e-01
1.223226e-01
1.048191e-01
1.048191e-01
-3.163680e-02
-3.163680e-02
-1.144594e-02
-1.144594e-02
2.744402e-02
2.744402e-02
4.349341e-02
4.349341e-02
3.047697e-02
3.047697e-02
-7.801598e-04
-7.801598e-04
-6.733634e-03
-6.733634e-03
-1.140929e-03
-1.140929e-03
-1.036604e-02
-1.036604e-02
-3.341019e-03
-3.341019e-03
5.569680e-03
5.569680e-03
-9.534434e-03
-9.534434e-03
-3.180773e-02
-3.180773e-02
-4.157040e-02
-4.157040e-02
7.934465e-04
7.934465e-04
4.359801e-02
4.359801e-02
6.282455e-02
6.282455e-02
4.715225e-02
4.715225e-02
5.652008e-03
5.652008e-03
1.541774e-03
1.541774e-03
9.027793e-03
9.027793e-03
-5.671061e-03
-5.671061e-03
-1.606133e-02
-1.606133e-02
1.519802e-03
-1.240328e-02
-2.415844e-02
-2.177629e-02
-6.546515e-03
8.469028e-03
-1.044018e-02
-5.666940e-03
-5.320776e-03
-1.088189e-02
2.809595e-04
1.257785e-02
-2.005067e-02
2.583466e-02
4.761191e-02
2.666587e-02
2.305003e-02
1.627213e-02
-3.948822e-02
8.675252e-02
1.249917e-01
5.058935e-02
4.084299e-02
1.749751e-02
-5.642159e-02
6.896908e-02
1.157963e-01
6.313578e-02
5.051527e-02
1.199184e-02
-6.409985e-02
-1.340781e-02
1.199131e-01
1.383269e-01
4.683542e-02
1.955903e-02
-2.414276e-02
-2.126617e-02
1.170998e-01
1.322605e-01
1.275236e-02
1.357277e-02
-1.086628e-02
-2.634398e-03
4.215993e-02
4.534789e-02
1.684104e-03
-8.605201e-03
-5.878857e-02
-2.921261e-02
1.622715e-02
2.925738e-02
8.803492e-03
-8.816818e-03
-2.932160e-02
-2.447853e-02
-3.585174e-03
1.425835e-02
9.858575e-03
3.665552e-03
8.855108e-03
4.883043e-03
-1.299422e-02
-5.581702e-03
1.530831e-02
1.488061e-02
1.429875e-02
3.959241e-05
-1.853281e-02
-1.832315e-02
6.581721e-03
2.696369e-02
-8.513907e-03
-9.992323e-03
-6.007773e-03
-1.103597e-04
5.771016e-03
1.121794e-02
-1.169486e-02
5.849277e-03
1.806766e-02
1.307455e-02
9.283225e-03
5.159236e-03
-6.838206e-03
5.013870e-02
4.998300e-02
1.214744e-02
2.252798e-02
1.361147e-02
-1.290019e-02
3.935220e-02
3.978696e-02
1.802671e-02
3.076571e-02
1.344734e-02
-4.648220e-02
-1.591012e-02
4.060969e-02
4.519950e-02
1.882090e-02
1.380021e-02
-2.215623e-02
-1.922612e-02
4.864669e-02
4.693309e-02
-1.459067e-02
-9.458125e-03
1.622046e-02
-6.715232e-03
-4.208875e-03
3.535193e-03
-1.457067e-02
-1.497855e-02
-3.143742e-02
-2.541433e-02
-1.622492e-02
4.441104e-03
1.051838e-02
-9.040594e-04
-4.068328e-02
-2.424249e-02
1.286569e-02
1.701901e-02
7.045144e-03
1.358535e-02
-3.051562e-02
-1.460458e-02
2.446351e-02
8.953820e-03
6.537322e-04
3.102038e-02
1.711299e-01
1.052398e-01
4.067910e-03
-2.070990e-02
3.101960e-02
7.224504e-02
9.112125e-02
5.222371e-02
6.295575e-03
-4.111308e-03
9.393965e-03
2.627553e-02
3.142632e-02
1.695865e-02
1.211837e-02
4.679362e-03
-9.186447e-03
-5.985871e-03
2.549822e-02
1.056264e-02
-3.726409e-03
-1.516539e-02
-1.094278e-02
5.365345e-03
1.097913e-02
-9.834317e-03
-1.263292e-02
-6.149473e-03
-8.007828e-03
1.665206e-03
4.164324e-02
3.583788e-02
1.779973e-02
-9.045074e-03
-1.345307e-02
-3.249061e-03
3.223768e-02
5.246137e-02
-2.173319e-02
-1.152770e-01
-7.064778e-02
-2.689304e-02
-8.188788e-04
1.456051e-04
-6.673608e-02
-1.147845e-01
-6.120155e-02
-2.741634e-02
-4.454637e-03
-1.296327e-02
-2.511272e-02
-1.011215e-02
4.467230e-03
4.052069e-04
-2.455245e-02
-1.106951e-02
1.415592e-02
9.062139e-03
5.626603e-03
1.902733e-02
-4.572413e-02
-2.308405e-02
2.623050e-02
6.340086e-03
-5.423624e-03
2.937756e-02
1.684882e-01
8.849396e-02
-1.581329e-02
-2.491069e-02
2.564276e-02
6.098061e-02
1.029952e-01
5.688214e-02
7.176447e-04
-9.978244e-03
-6.293250e-03
-1.963787e-03
2.821418e-03
9.792959e-03
2.088536e-02
1.211145e-02
-3.508343e-02
-6.938356e-02
-3.310775e-02
-1.740141e-02
1.150168e-02
-1.668055e-03
-5.583806e-02
-8.364158e-02
-3.413935e-02
-1.729231e-02
2.210574e-02
3.833412e-03
-5.667939e-02
-7.636887e-02
2.365931e-02
2.825136e-02
5.833089e-02
2.768679e-02
-3.260511e-02
-3.676543e-02
7.207634e-02
7.295795e-02
1.581830e-02
-7.738628e-02
-5.583575e-02
8.981020e-04
1.815967e-02
3.164973e-02
-3.955372e-02
-1.155132e-01
-5.230760e-02
2.164015e-03
-7.006922e-03
-6.549407e-03
-1.614363e-02
-2.067252e-02
-7.606129e-03
-6.258416e-05
-1.679848e-02
-7.516007e-03
1.330413e-03
5.232937e-03
8.876289e-03
8.181064e-03
-4.617521e-02
-2.258071e-02
-4.864439e-03
6.589722e-04
8.431182e-03
4.801762e-03
1.067328e-02
-1.154843e-02
-5.365461e-02
-4.930891e-02
-2.370790e-03
2.033716e-02
-3.565968e-03
2.501411e-04
-2.719880e-02
-3.625125e-02
-2.494855e-02
-3.585845e-02
-4.266807e-02
1.420651e-02
2.772857e-02
-9.110284e-03
-5.899667e-02
-1.153967e-01
-3.812308e-02
1.396274e-02
5.533661e-02
2.116090e-02
-7.397324e-02
-1.456436e-01
-4.173187e-02
1.332397e-02
6.360320e-02
3.147138e-02
-6.456081e-02
-1.332378e-01
-9.208283e-02
-1.022634e-03
6.707858e-02
1.445777e-02
-4.273808e-02
-7.027212e-02
3.094571e-02
3.244529e-02
2.952515e-02
4.857970e-03
-3.312336e-03
8.764822e-03
8.962562e-02
2.833064e-02
-2.394077e-02
-1.454160e-02
5.551340e-03
2.526868e-02
1.304007e-02
-8.601751e-03
-2.209412e-02
-1.573315e-02
-5.688200e-03
6.145239e-03
-1.842417e-02
-8.541968e-03
4.790361e-04
6.530597e-03
7.497321e-03
1.551287e-03
-5.498581e-02
-2.524175e-02
-3.616780e-04
9.049922e-03
1.026440e-02
-2.796712e-03
-4.477149e-04
-2.087563e-03
-5.463964e-02
-7.534622e-02
-1.369785e-02
1.774486e-02
-2.429225e-02
5.501119e-03
-3.654697e-02
-7.142980e-02
-2.978375e-02
-2.509632e-02
-2.478729e-02
5.688051e-02
4.939975e-02
-3.256798e-02
-6.171579e-02
-9.804444e-02
1.515396e-02
7.032871e-02
1.052428e-01
4.162158e-02
-6.236888e-02
-1.229988e-01
-2.384799e-02
3.182859e-02
9.395146e-02
7.005934e-02
-4.279464e-02
-1.253102e-01
-1.193332e-01
3.154021e-02
9.178855e-02
3.379700e-03
-3.797845e-02
-8.155287e-02
2.383785e-03
4.108348e-02
3.753727e-03
-2.767109e-02
5.684956e-03
-5.563623e-03
9.798694e-02
4.449078e-03
-5.166859e-02
1.065174e-02
2.414020e-02
1.272854e-02
3.527099e-02
-8.415176e-03
-1.344943e-02
1.002962e-02
5.370575e-04
6.217360e-03
-3.113351e-04
-1.844737e-04
-2.707457e-03
9.399276e-04
4.263557e-03
1.289956e-03
-3.918312e-02
-1.739797e-02
-4.547073e-04
5.972729e-03
6.820031e-03
-3.601997e-03
