# vtk DataFile Version 2.0
Test
ASCII
DATASET UNSTRUCTURED_GRID
POINTS 1812 float
4.302411e+01 3.355092e+02 -2.551255e+02
4.410494e+01 4.023812e+02 -2.489135e+02
6.086041e+01 4.155242e+02 -1.713160e+02
6.086094e+01 3.075254e+02 -1.677417e+02
4.400978e+01 3.355434e+02 -2.552907e+02
4.508716e+01 4.023290e+02 -2.490938e+02
6.157550e+01 4.152837e+02 -1.719723e+02
6.157497e+01 3.076699e+02 -1.684268e+02
1.414658e+01 3.236755e+02 -5.284918e+02
2.411862e+01 2.334404e+02 -5.164111e+02
2.146945e+01 2.359706e+02 -5.747418e+02
8.972524e+00 3.594791e+02 -6.258994e+02
1.514247e+01 3.237494e+02 -5.285442e+02
2.509829e+01 2.336347e+02 -5.164609e+02
2.244822e+01 2.361744e+02 -5.747636e+02
9.971201e+00 3.595232e+02 -6.259258e+02
6.403073e+00 4.502059e+02 -7.246987e+02
8.861762e+00 4.868125e+02 -6.324904e+02
9.715160e+00 4.371743e+02 -5.567893e+02
7.400000e+00 4.501276e+02 -7.246974e+02
9.857582e+00 4.867220e+02 -6.325029e+02
1.071339e+01 4.371363e+02 -5.568352e+02
6.091603e+01 7.082595e+02 -8.358051e+02
6.091269e+01 6.846827e+02 -7.090553e+02
1.653224e+01 5.781081e+02 -7.296752e+02
1.545987e+01 5.910899e+02 -8.680538e+02
6.151988e+01 7.074706e+02 -8.359197e+02
6.152323e+01 6.839084e+02 -7.092220e+02
1.750127e+01 5.778632e+02 -7.297063e+02
1.644419e+01 5.909145e+02 -8.680730e+02
2.119970e+01 5.652642e+02 -6.175256e+02
6.091610e+01 6.556286e+02 -5.955594e+02
2.216330e+01 5.650027e+02 -6.175813e+02
6.151981e+01 6.548614e+02 -5.957760e+02
6.092188e+01 7.219329e+02 -9.635008e+02
2.363081e+01 6.427953e+02 -9.843526e+02
6.151404e+01 7.211298e+02 -9.635671e+02
2.460230e+01 6.425583e+02 -9.843465e+02
3.304044e+01 3.825954e+02 -1.092163e+03
3.785179e+01 4.102873e+02 -1.143340e+03
2.822119e+01 4.955442e+02 -1.090006e+03
1.894944e+01 4.627537e+02 -9.855399e+02
3.403409e+01 3.826336e+02 -1.092057e+03
3.884457e+01 4.103248e+02 -1.143226e+03
2.921481e+01 4.955667e+02 -1.089896e+03
1.994704e+01 4.627821e+02 -9.854767e+02
4.002259e+01 6.568711e+02 -1.216935e+03
2.995980e+01 6.608398e+02 -1.096133e+03
2.765253e+01 5.964421e+02 -1.106961e+03
3.945789e+01 5.482363e+02 -1.196324e+03
4.101474e+01 6.567552e+02 -1.216888e+03
3.094398e+01 6.606641e+02 -1.096110e+03
2.864921e+01 5.964352e+02 -1.106879e+03
4.044965e+01 5.482595e+02 -1.196198e+03
6.090439e+01 5.702080e+02 -3.579349e+02
6.088208e+01 5.072399e+02 -2.435704e+02
3.519214e+01 4.399856e+02 -3.134615e+02
2.622188e+01 4.805239e+02 -4.087676e+02
6.153153e+01 5.695035e+02 -3.582671e+02
6.155384e+01 5.066713e+02 -2.440452e+02
3.617302e+01 4.398665e+02 -3.136153e+02
2.719841e+01 4.803436e+02 -4.088854e+02
1.685618e+01 3.704846e+02 -4.542574e+02
2.282552e+01 5.272275e+02 -5.110962e+02
1.785252e+01 3.705024e+02 -4.543410e+02
2.379539e+01 5.270028e+02 -5.111904e+02
2.929933e+01 3.516969e+02 -3.428550e+02
3.029117e+01 3.517188e+02 -3.429806e+02
2.837866e+01 2.428510e+02 -4.300948e+02
3.652952e+01 2.544929e+02 -3.369879e+02
2.935863e+01 2.430274e+02 -4.301870e+02
3.751254e+01 2.546390e+02 -3.370990e+02
6.089102e+01 1.610602e+02 -3.074071e+02
6.090875e+01 1.308950e+02 -4.165045e+02
6.154489e+01 1.617582e+02 -3.076991e+02
6.152717e+01 1.316551e+02 -4.167040e+02
6.082943e+01 1.068919e+02 -5.293103e+02
6.160648e+01 1.075100e+02 -5.294290e+02
6.074086e+01 1.091533e+02 -5.835982e+02
6.169506e+01 1.094510e+02 -5.836286e+02
9.868509e+00 4.863862e+02 -8.537739e+02
1.086821e+01 4.863663e+02 -8.537883e+02
4.742523e+01 4.300928e+02 -1.222156e+03
6.072177e+01 4.284524e+02 -1.313100e+03
6.072148e+01 5.515058e+02 -1.328676e+03
4.841664e+01 4.301238e+02 -1.222029e+03
6.171414e+01 4.284721e+02 -1.312978e+03
6.171443e+01 5.515262e+02 -1.328560e+03
6.071796e+01 1.361236e+02 -1.276028e+03
6.071849e+01 2.871073e+02 -1.295167e+03
5.183933e+01 3.002655e+02 -1.223566e+03
6.071911e+01 1.315153e+02 -1.157681e+03
6.171796e+01 1.361235e+02 -1.276029e+03
6.171742e+01 2.871131e+02 -1.295121e+03
5.283508e+01 3.003027e+02 -1.223482e+03
6.171680e+01 1.315611e+02 -1.157630e+03
6.071896e+01 6.555145e+02 -1.341796e+03
6.171695e+01 6.554591e+02 -1.341766e+03
6.088585e+01 7.373210e+02 -1.208597e+03
6.081265e+01 7.629522e+02 -1.355269e+03
6.155006e+01 7.365788e+02 -1.208687e+03
6.162326e+01 7.623897e+02 -1.355432e+03
6.090319e+01 7.287788e+02 -1.081719e+03
6.153272e+01 7.280034e+02 -1.081767e+03
1.632136e+01 5.342229e+02 -9.698861e+02
1.732052e+01 5.342211e+02 -9.698452e+02
2.144151e+01 5.663724e+02 -1.037510e+03
2.243856e+01 5.663532e+02 -1.037436e+03
4.634634e+01 3.131481e+02 -1.181095e+03
4.733887e+01 3.132082e+02 -1.180989e+03
6.091277e+01 6.164122e+02 -4.734637e+02
6.152314e+01 6.156668e+02 -4.737317e+02
4.463128e+01 2.687711e+02 -2.690260e+02
4.561604e+01 2.688812e+02 -2.691607e+02
4.596146e+01 2.646231e+02 -1.155028e+03
4.695390e+01 2.646924e+02 -1.154926e+03
6.086212e+01 2.123292e+02 -2.128546e+02
6.157379e+01 2.128141e+02 -2.133629e+02
6.083006e+01 6.498554e+02 -1.470349e+03
6.071799e+01 7.619104e+02 -1.492289e+03
6.182910e+01 6.498992e+02 -1.470350e+03
6.171792e+01 7.619074e+02 -1.492301e+03
8.115928e+01 5.350073e+02 -1.454215e+03
8.215722e+01 5.350341e+02 -1.454157e+03
6.900081e+01 4.105517e+02 -1.439152e+03
6.999742e+01 4.105211e+02 -1.439076e+03
6.046609e+01 2.760957e+02 -1.425447e+03
6.146587e+01 2.760823e+02 -1.425431e+03
6.071796e+01 1.359795e+02 -1.414860e+03
6.171796e+01 1.359802e+02 -1.414862e+03
6.094672e+01 6.455991e+02 -1.591936e+03
6.071910e+01 7.612401e+02 -1.606435e+03
6.194128e+01 6.457033e+02 -1.591939e+03
6.171682e+01 7.613075e+02 -1.606435e+03
9.019345e+01 5.265143e+02 -1.578359e+03
9.119240e+01 5.265544e+02 -1.578337e+03
6.885592e+01 4.013963e+02 -1.565160e+03
6.985104e+01 4.013005e+02 -1.565137e+03
6.022664e+01 2.702567e+02 -1.554268e+03
6.122616e+01 2.702257e+02 -1.554269e+03
6.071796e+01 1.358421e+02 -1.546637e+03
6.171795e+01 1.358447e+02 -1.546639e+03
6.101586e+01 6.428070e+02 -1.710413e+03
6.072047e+01 7.606161e+02 -1.715650e+03
6.200820e+01 6.429306e+02 -1.710415e+03
6.171544e+01 7.607162e+02 -1.715651e+03
9.181947e+01 5.227346e+02 -1.702073e+03
9.281887e+01 5.227689e+02 -1.702068e+03
6.783336e+01 3.967114e+02 -1.690732e+03
6.882617e+01 3.965917e+02 -1.690726e+03
6.011453e+01 2.671404e+02 -1.681695e+03
6.111410e+01 2.671110e+02 -1.681697e+03
6.071796e+01 1.357081e+02 -1.675351e+03
6.171795e+01 1.357122e+02 -1.675352e+03
6.106032e+01 6.408874e+02 -1.829576e+03
6.072146e+01 7.599786e+02 -1.828600e+03
6.205218e+01 6.410147e+02 -1.829578e+03
6.171446e+01 7.600967e+02 -1.828601e+03
9.271815e+01 5.192264e+02 -1.824344e+03
9.371772e+01 5.192559e+02 -1.824342e+03
6.717787e+01 3.937436e+02 -1.815698e+03
6.816998e+01 3.936183e+02 -1.815695e+03
6.005058e+01 2.652861e+02 -1.808339e+03
6.105023e+01 2.652598e+02 -1.808341e+03
6.071796e+01 1.355757e+02 -1.802892e+03
6.171795e+01 1.355805e+02 -1.802893e+03
6.109939e+01 6.392203e+02 -1.950487e+03
6.072155e+01 7.593216e+02 -1.946538e+03
6.209104e+01 6.393492e+02 -1.950489e+03
6.171436e+01 7.594413e+02 -1.946539e+03
9.293161e+01 5.179993e+02 -1.949350e+03
9.393126e+01 5.180261e+02 -1.949349e+03
6.685182e+01 3.920231e+02 -1.941332e+03
6.784360e+01 3.918952e+02 -1.941331e+03
6.001227e+01 2.641277e+02 -1.934922e+03
6.101196e+01 2.641031e+02 -1.934923e+03
6.071796e+01 1.354437e+02 -1.930137e+03
6.171795e+01 1.354490e+02 -1.930138e+03
6.111835e+01 6.381330e+02 -2.075112e+03
6.072143e+01 7.586400e+02 -2.069203e+03
6.210987e+01 6.382629e+02 -2.075113e+03
6.171448e+01 7.587577e+02 -2.069204e+03
9.323127e+01 5.164383e+02 -2.074469e+03
9.423094e+01 5.164640e+02 -2.074468e+03
6.661325e+01 3.906386e+02 -2.067245e+03
6.760489e+01 3.905096e+02 -2.067243e+03
5.998511e+01 2.632565e+02 -2.061482e+03
6.098483e+01 2.632329e+02 -2.061482e+03
6.071796e+01 1.353119e+02 -2.057244e+03
6.171795e+01 1.353175e+02 -2.057244e+03
6.114182e+01 6.369319e+02 -2.202985e+03
6.072116e+01 7.579086e+02 -2.201065e+03
6.213326e+01 6.370625e+02 -2.202986e+03
6.171475e+01 7.580217e+02 -2.201066e+03
9.366481e+01 5.143269e+02 -2.199456e+03
9.466452e+01 5.143506e+02 -2.199454e+03
6.637821e+01 3.892438e+02 -2.193051e+03
6.736960e+01 3.891129e+02 -2.193049e+03
5.996078e+01 2.624653e+02 -2.187779e+03
6.096053e+01 2.624426e+02 -2.187780e+03
6.071797e+01 1.351806e+02 -2.184010e+03
6.171795e+01 1.351864e+02 -2.184011e+03
6.114507e+01 6.362408e+02 -2.334149e+03
6.072012e+01 7.571364e+02 -2.341664e+03
6.213645e+01 6.363718e+02 -2.334150e+03
6.171580e+01 7.572292e+02 -2.341661e+03
9.389594e+01 5.129430e+02 -2.325950e+03
9.489570e+01 5.129645e+02 -2.325949e+03
6.619139e+01 3.880430e+02 -2.318768e+03
6.718254e+01 3.879102e+02 -2.318767e+03
5.993918e+01 2.617465e+02 -2.313612e+03
6.093894e+01 2.617245e+02 -2.313612e+03
6.071797e+01 1.350499e+02 -2.310176e+03
6.171795e+01 1.350559e+02 -2.310176e+03
6.116089e+01 6.352130e+02 -2.459258e+03
6.071935e+01 7.564525e+02 -2.466221e+03
6.215227e+01 6.353441e+02 -2.459259e+03
6.171656e+01 7.565270e+02 -2.466216e+03
9.395291e+01 5.116621e+02 -2.450524e+03
9.495271e+01 5.116820e+02 -2.450527e+03
6.600370e+01 3.869239e+02 -2.443432e+03
6.699471e+01 3.867901e+02 -2.443435e+03
5.992244e+01 2.610707e+02 -2.438629e+03
6.092221e+01 2.610493e+02 -2.438630e+03
6.071797e+01 1.349200e+02 -2.435554e+03
6.171795e+01 1.349262e+02 -2.435554e+03
6.117640e+01 6.336365e+02 -2.580573e+03
6.071921e+01 7.557648e+02 -2.590165e+03
6.216815e+01 6.337647e+02 -2.580575e+03
6.171670e+01 7.558355e+02 -2.590162e+03
9.238486e+01 5.102936e+02 -2.572889e+03
9.338459e+01 5.103116e+02 -2.572904e+03
6.557812e+01 3.858261e+02 -2.566761e+03
6.656928e+01 3.856944e+02 -2.566777e+03
5.994607e+01 2.604244e+02 -2.562701e+03
6.094586e+01 2.604042e+02 -2.562703e+03
6.071797e+01 1.347910e+02 -2.560122e+03
6.171795e+01 1.347972e+02 -2.560121e+03
6.111616e+01 6.324799e+02 -2.698932e+03
6.071914e+01 7.551266e+02 -2.705112e+03
6.210953e+01 6.325948e+02 -2.698934e+03
6.171677e+01 7.551945e+02 -2.705102e+03
8.699187e+01 5.090786e+02 -2.693444e+03
8.799120e+01 5.090936e+02 -2.693477e+03
6.463090e+01 3.848279e+02 -2.688922e+03
6.562316e+01 3.847091e+02 -2.688959e+03
6.006723e+01 2.598390e+02 -2.685911e+03
6.106706e+01 2.598214e+02 -2.685915e+03
6.071797e+01 1.346630e+02 -2.683961e+03
6.171795e+01 1.346687e+02 -2.683959e+03
6.096755e+01 6.315468e+02 -2.815960e+03
6.071901e+01 7.545002e+02 -2.818546e+03
6.196398e+01 6.316312e+02 -2.815961e+03
6.171691e+01 7.545585e+02 -2.818517e+03
7.666890e+01 5.080856e+02 -2.813029e+03
7.766783e+01 5.080961e+02 -2.813074e+03
6.303946e+01 3.840022e+02 -2.810336e+03
6.403439e+01 3.839148e+02 -2.810386e+03
6.031930e+01 2.593539e+02 -2.808473e+03
6.131920e+01 2.593413e+02 -2.808479e+03
6.071796e+01 1.345362e+02 -2.807210e+03
6.171795e+01 1.345404e+02 -2.807208e+03
6.079951e+01 6.308265e+02 -2.933065e+03
6.071916e+01 7.538863e+02 -2.931213e+03
6.179861e+01 6.308688e+02 -2.933066e+03
6.171675e+01 7.539188e+02 -2.931151e+03
6.579388e+01 5.073663e+02 -2.932502e+03
6.679329e+01 5.073715e+02 -2.932536e+03
6.144559e+01 3.834073e+02 -2.931452e+03
6.244392e+01 3.833635e+02 -2.931490e+03
6.059125e+01 2.590013e+02 -2.930630e+03
6.159122e+01 2.589952e+02 -2.930634e+03
6.071796e+01 1.344101e+02 -2.930024e+03
6.171795e+01 1.344122e+02 -2.930023e+03
6.071806e+01 6.303873e+02 -3.052590e+03
6.071974e+01 7.532197e+02 -3.052640e+03
6.171785e+01 6.304079e+02 -3.052590e+03
6.171617e+01 7.532341e+02 -3.052557e+03
6.071807e+01 5.070323e+02 -3.052571e+03
6.171784e+01 5.070349e+02 -3.052593e+03
6.071821e+01 3.831609e+02 -3.052561e+03
6.171770e+01 3.831397e+02 -3.052585e+03
6.071796e+01 2.588483e+02 -3.052563e+03
6.171795e+01 2.588453e+02 -3.052566e+03
6.071796e+01 1.342838e+02 -3.052557e+03
6.171796e+01 1.342848e+02 -3.052556e+03
1.037389e+02 1.177768e+03 -2.303373e+03
4.396359e+01 1.042153e+03 -2.325032e+03
4.949668e+01 1.048768e+03 -2.459435e+03
1.131015e+02 1.184231e+03 -2.434492e+03
1.043138e+02 1.176950e+03 -2.303381e+03
4.494093e+01 1.041947e+03 -2.324982e+03
5.046731e+01 1.048530e+03 -2.459405e+03
1.136732e+02 1.183411e+03 -2.434483e+03
3.915363e+01 8.977003e+02 -2.333586e+03
4.005200e+01 9.036300e+02 -2.468476e+03
4.014882e+01 8.977954e+02 -2.333562e+03
4.105070e+01 9.036773e+02 -2.468457e+03
5.183000e+01 1.050207e+03 -2.576903e+03
1.145203e+02 1.182769e+03 -2.552861e+03
5.279688e+01 1.049952e+03 -2.576892e+03
1.150879e+02 1.181946e+03 -2.552829e+03
4.014383e+01 9.059943e+02 -2.588756e+03
4.114329e+01 9.060265e+02 -2.588749e+03
5.138786e+01 1.047589e+03 -2.686708e+03
1.121341e+02 1.174358e+03 -2.673140e+03
5.235384e+01 1.047330e+03 -2.686699e+03
1.127005e+02 1.173537e+03 -2.673076e+03
4.098274e+01 9.057266e+02 -2.699277e+03
4.198231e+01 9.057545e+02 -2.699269e+03
5.018136e+01 1.040908e+03 -2.796017e+03
1.094915e+02 1.160571e+03 -2.793084e+03
5.114892e+01 1.040656e+03 -2.795999e+03
1.100547e+02 1.159751e+03 -2.792987e+03
4.506358e+01 9.028797e+02 -2.807382e+03
4.606281e+01 9.029094e+02 -2.807356e+03
4.937194e+01 1.029536e+03 -2.912487e+03
1.070087e+02 1.142388e+03 -2.913507e+03
5.033758e+01 1.029300e+03 -2.912378e+03
1.075684e+02 1.141569e+03 -2.913383e+03
5.459404e+01 8.964592e+02 -2.918883e+03
5.558371e+01 8.964875e+02 -2.918743e+03
9.048537e+01 1.007536e+03 -3.034411e+03
1.040072e+02 1.121694e+03 -3.026191e+03
9.144024e+01 1.007312e+03 -3.034216e+03
1.045654e+02 1.120876e+03 -3.026056e+03
7.590535e+01 8.828766e+02 -3.043392e+03
7.687542e+01 8.829017e+02 -3.043151e+03
5.267084e+01 8.080232e+02 -1.612472e+03
5.682315e+01 8.017582e+02 -1.529853e+03
5.366180e+01 8.081557e+02 -1.612492e+03
5.781956e+01 8.017066e+02 -1.529920e+03
4.684347e+01 8.208592e+02 -1.702620e+03
4.782388e+01 8.210557e+02 -1.702634e+03
4.155805e+01 8.378320e+02 -1.803846e+03
4.253442e+01 8.380480e+02 -1.803851e+03
3.799881e+01 8.555781e+02 -1.914959e+03
3.897813e+01 8.557804e+02 -1.914963e+03
3.434706e+01 8.699176e+02 -2.027197e+03
3.533030e+01 8.700999e+02 -2.027200e+03
3.328893e+01 8.846063e+02 -2.179585e+03
3.427708e+01 8.847594e+02 -2.179574e+03
4.341585e+01 8.591581e+02 -1.611093e+03
5.280108e+01 8.385803e+02 -1.551164e+03
4.439656e+01 8.590534e+02 -1.611258e+03
5.377438e+01 8.384138e+02 -1.551322e+03
3.124699e+01 8.939682e+02 -1.687523e+03
3.222763e+01 8.938649e+02 -1.687689e+03
2.444055e+01 9.277488e+02 -1.761749e+03
2.542459e+01 9.276331e+02 -1.761884e+03
2.089437e+01 9.723512e+02 -1.859533e+03
2.188285e+01 9.722363e+02 -1.859632e+03
1.811480e+01 1.006923e+03 -1.967970e+03
1.910567e+01 1.006794e+03 -1.968011e+03
2.498458e+01 1.027527e+03 -2.158035e+03
2.597002e+01 1.027359e+03 -2.158008e+03
8.506251e+01 1.162533e+03 -2.162110e+03
8.563709e+01 1.161716e+03 -2.162164e+03
6.092511e+01 1.140731e+03 -2.027320e+03
6.151080e+01 1.139951e+03 -2.027540e+03
6.093467e+01 1.064922e+03 -1.876772e+03
6.150125e+01 1.064185e+03 -1.877141e+03
6.094546e+01 1.004379e+03 -1.761900e+03
6.149045e+01 1.003650e+03 -1.762314e+03
6.094279e+01 9.500318e+02 -1.669852e+03
6.149313e+01 9.493371e+02 -1.670315e+03
6.092727e+01 8.969615e+02 -1.591803e+03
6.150864e+01 8.963054e+02 -1.592284e+03
6.090674e+01 8.492943e+02 -1.524444e+03
6.152917e+01 8.486491e+02 -1.524887e+03
6.087931e+01 8.060377e+02 -1.456261e+03
6.155660e+01 8.053887e+02 -1.456608e+03
1.714106e+03 7.291168e+02 -1.088323e+03
1.714110e+03 7.390233e+02 -1.225223e+03
1.733845e+03 6.529918e+02 -1.225957e+03
1.746400e+03 6.331526e+02 -1.108952e+03
1.713459e+03 7.283566e+02 -1.088384e+03
1.713454e+03 7.382744e+02 -1.225318e+03
1.732854e+03 6.528680e+02 -1.225904e+03
1.745410e+03 6.330163e+02 -1.108920e+03
1.741956e+03 3.825796e+02 -1.092186e+03
1.742956e+03 4.829958e+02 -1.119827e+03
1.728855e+03 4.358815e+02 -1.214307e+03
1.729037e+03 2.646180e+02 -1.155038e+03
1.740964e+03 3.826102e+02 -1.092066e+03
1.741963e+03 4.830217e+02 -1.119710e+03
1.727863e+03 4.359086e+02 -1.214181e+03
1.728045e+03 2.646728e+02 -1.154923e+03
1.758637e+03 5.763877e+02 -7.264551e+02
1.760206e+03 5.856305e+02 -8.514190e+02
1.765128e+03 4.864111e+02 -8.538472e+02
1.768597e+03 4.502240e+02 -7.247390e+02
1.757665e+03 5.761619e+02 -7.265135e+02
1.759225e+03 5.854368e+02 -8.514289e+02
1.764131e+03 4.863460e+02 -8.538174e+02
1.767599e+03 4.501720e+02 -7.247693e+02
1.766032e+03 3.595475e+02 -6.259453e+02
1.765699e+03 4.262127e+02 -5.616284e+02
1.766553e+03 4.820731e+02 -6.350598e+02
1.765032e+03 3.595814e+02 -6.259673e+02
1.764702e+03 4.261793e+02 -5.616868e+02
1.765557e+03 4.820022e+02 -6.351050e+02
1.754380e+03 5.627825e+02 -6.175634e+02
1.753048e+03 5.237186e+02 -5.125361e+02
1.753411e+03 5.625521e+02 -6.176495e+02
1.752077e+03 5.235154e+02 -5.126571e+02
1.748374e+03 3.531833e+02 -3.636669e+02
1.741400e+03 4.399997e+02 -3.235533e+02
1.749920e+03 4.797037e+02 -4.168822e+02
1.759476e+03 3.575985e+02 -4.767503e+02
1.747381e+03 3.532014e+02 -3.637856e+02
1.740417e+03 4.398943e+02 -3.237017e+02
1.748942e+03 4.795404e+02 -4.170162e+02
1.758480e+03 3.576235e+02 -4.768324e+02
1.714086e+03 6.839361e+02 -7.057306e+02
1.714089e+03 6.552922e+02 -5.944050e+02
1.713478e+03 6.831614e+02 -7.059032e+02
1.713475e+03 6.545362e+02 -5.946317e+02
1.756109e+03 5.746685e+02 -1.001836e+03
1.756046e+03 4.627614e+02 -9.855926e+02
1.755116e+03 5.745571e+02 -1.001794e+03
1.755051e+03 4.627446e+02 -9.854946e+02
1.714279e+03 4.284548e+02 -1.313098e+03
1.730314e+03 5.529322e+02 -1.232710e+03
1.714279e+03 5.515086e+02 -1.328677e+03
1.713286e+03 4.284697e+02 -1.312980e+03
1.729324e+03 5.529572e+02 -1.232572e+03
1.713286e+03 5.515234e+02 -1.328559e+03
1.714281e+03 2.753686e+02 -1.293695e+03
1.713284e+03 2.754007e+02 -1.293624e+03
1.714281e+03 1.360967e+02 -1.276057e+03
1.714276e+03 1.314846e+02 -1.157712e+03
1.713284e+03 1.361504e+02 -1.276001e+03
1.713288e+03 1.315918e+02 -1.157599e+03
1.714102e+03 5.704090e+02 -3.583918e+02
1.714121e+03 5.087081e+02 -2.456394e+02
1.713463e+03 5.697187e+02 -3.587316e+02
1.713443e+03 5.081488e+02 -2.461153e+02
1.714096e+03 6.161654e+02 -4.727943e+02
1.713468e+03 6.154409e+02 -4.730770e+02
1.753550e+03 2.360840e+02 -5.747529e+02
1.752562e+03 2.362365e+02 -5.747792e+02
1.714169e+03 1.068879e+02 -5.293181e+02
1.745299e+03 2.098783e+02 -4.956903e+02
1.714261e+03 1.091593e+02 -5.836189e+02
1.713396e+03 1.075140e+02 -5.294212e+02
1.744322e+03 2.100878e+02 -4.957392e+02
1.713303e+03 1.094450e+02 -5.836079e+02
1.714083e+03 1.314674e+02 -4.141386e+02
1.714104e+03 1.602728e+02 -3.098510e+02
1.730339e+03 2.073028e+02 -3.287936e+02
1.737397e+03 2.028562e+02 -4.066685e+02
1.713481e+03 1.322432e+02 -4.143270e+02
1.713460e+03 1.609813e+02 -3.101392e+02
1.729367e+03 2.075079e+02 -3.289076e+02
1.736427e+03 2.030844e+02 -4.067526e+02
1.745882e+03 2.784223e+02 -3.804442e+02
1.733799e+03 2.611822e+02 -2.966559e+02
1.744892e+03 2.785232e+02 -3.805476e+02
1.732815e+03 2.612919e+02 -2.967998e+02
1.752939e+03 2.862871e+02 -4.505848e+02
1.751947e+03 2.863858e+02 -4.506653e+02
1.732630e+03 4.006957e+02 -2.581319e+02
1.734284e+03 3.326840e+02 -2.694450e+02
1.714138e+03 3.113906e+02 -1.670124e+02
1.714140e+03 4.165682e+02 -1.716458e+02
1.731648e+03 4.006633e+02 -2.583155e+02
1.733300e+03 3.327198e+02 -2.696156e+02
1.713427e+03 3.115380e+02 -1.677001e+02
1.713424e+03 4.163395e+02 -1.723051e+02
1.714136e+03 2.056115e+02 -2.197090e+02
1.713429e+03 2.060949e+02 -2.202251e+02
1.714097e+03 7.073397e+02 -8.296968e+02
1.713467e+03 7.065715e+02 -8.298124e+02
1.714109e+03 7.218311e+02 -9.624469e+02
1.713455e+03 7.210783e+02 -9.625217e+02
1.714281e+03 6.547856e+02 -1.341705e+03
1.713283e+03 6.547349e+02 -1.341673e+03
1.714202e+03 7.629311e+02 -1.355272e+03
1.713362e+03 7.624109e+02 -1.355429e+03
1.741361e+03 5.540222e+02 -1.153892e+03
1.740368e+03 5.540455e+02 -1.153780e+03
1.714281e+03 7.618714e+02 -1.493102e+03
1.714166e+03 6.495914e+02 -1.470750e+03
1.713283e+03 7.619374e+02 -1.493112e+03
1.713167e+03 6.496354e+02 -1.470751e+03
1.714280e+03 7.612212e+02 -1.606855e+03
1.714052e+03 6.455560e+02 -1.592720e+03
1.713285e+03 7.613216e+02 -1.606872e+03
1.713058e+03 6.456606e+02 -1.592722e+03
1.714278e+03 7.605948e+02 -1.717657e+03
1.714021e+03 6.440458e+02 -1.713656e+03
1.713286e+03 7.607150e+02 -1.717667e+03
1.713029e+03 6.441688e+02 -1.713657e+03
1.714279e+03 7.599763e+02 -1.828883e+03
1.713971e+03 6.418396e+02 -1.831735e+03
1.713286e+03 7.600958e+02 -1.828884e+03
1.712979e+03 6.419657e+02 -1.831737e+03
1.714279e+03 7.593341e+02 -1.944515e+03
1.713924e+03 6.398593e+02 -1.951529e+03
1.713286e+03 7.594512e+02 -1.944514e+03
1.712932e+03 6.399873e+02 -1.951531e+03
1.714279e+03 7.586288e+02 -2.071697e+03
1.713910e+03 6.388793e+02 -2.077728e+03
1.713285e+03 7.587412e+02 -2.071694e+03
1.712918e+03 6.390084e+02 -2.077729e+03
1.714280e+03 7.579125e+02 -2.202296e+03
1.713866e+03 6.371404e+02 -2.203964e+03
1.713284e+03 7.580041e+02 -2.202280e+03
1.712875e+03 6.372704e+02 -2.203965e+03
1.714281e+03 7.571530e+02 -2.340088e+03
1.713865e+03 6.364943e+02 -2.334105e+03
1.713284e+03 7.572302e+02 -2.340076e+03
1.712873e+03 6.366251e+02 -2.334106e+03
1.714281e+03 7.564502e+02 -2.466617e+03
1.713843e+03 6.353125e+02 -2.458661e+03
1.713283e+03 7.565249e+02 -2.466618e+03
1.712852e+03 6.354434e+02 -2.458662e+03
1.714281e+03 7.557894e+02 -2.585725e+03
1.713838e+03 6.340068e+02 -2.579072e+03
1.713283e+03 7.558601e+02 -2.585726e+03
1.712846e+03 6.341348e+02 -2.579074e+03
1.714281e+03 7.551540e+02 -2.700133e+03
1.713885e+03 6.325868e+02 -2.696407e+03
1.713283e+03 7.552223e+02 -2.700133e+03
1.712891e+03 6.327018e+02 -2.696409e+03
1.714281e+03 7.545263e+02 -2.813678e+03
1.714029e+03 6.315823e+02 -2.813557e+03
1.713283e+03 7.545865e+02 -2.813678e+03
1.713033e+03 6.316671e+02 -2.813559e+03
1.714282e+03 7.538904e+02 -2.929980e+03
1.714199e+03 6.308453e+02 -2.931998e+03
1.713282e+03 7.539281e+02 -2.929980e+03
1.713200e+03 6.308881e+02 -2.931998e+03
1.714282e+03 7.532161e+02 -3.052599e+03
1.714282e+03 6.304107e+02 -3.052590e+03
1.713282e+03 7.532378e+02 -3.052599e+03
1.713282e+03 6.304315e+02 -3.052590e+03
1.693699e+03 5.346296e+02 -1.454580e+03
1.692701e+03 5.346558e+02 -1.454522e+03
1.684718e+03 5.262846e+02 -1.579230e+03
1.683719e+03 5.263239e+02 -1.579208e+03
1.683111e+03 5.225004e+02 -1.703594e+03
1.682111e+03 5.225336e+02 -1.703588e+03
1.682449e+03 5.198035e+02 -1.826476e+03
1.681449e+03 5.198322e+02 -1.826475e+03
1.682487e+03 5.194632e+02 -1.952402e+03
1.681488e+03 5.194910e+02 -1.952403e+03
1.682401e+03 5.186856e+02 -2.079561e+03
1.681401e+03 5.187143e+02 -2.079559e+03
1.681607e+03 5.153566e+02 -2.201882e+03
1.680607e+03 5.153830e+02 -2.201878e+03
1.681220e+03 5.134005e+02 -2.326557e+03
1.680220e+03 5.134232e+02 -2.326556e+03
1.681093e+03 5.118607e+02 -2.450146e+03
1.680093e+03 5.118810e+02 -2.450149e+03
1.682624e+03 5.104607e+02 -2.571874e+03
1.681624e+03 5.104788e+02 -2.571889e+03
1.687924e+03 5.091591e+02 -2.692000e+03
1.686925e+03 5.091742e+02 -2.692033e+03
1.698201e+03 5.081244e+02 -2.811667e+03
1.697202e+03 5.081350e+02 -2.811712e+03
1.709150e+03 5.073904e+02 -2.931753e+03
1.708151e+03 5.073957e+02 -2.931786e+03
1.714282e+03 5.070469e+02 -3.052571e+03
1.713282e+03 5.070495e+02 -3.052593e+03
1.706254e+03 4.094392e+02 -1.439743e+03
1.705257e+03 4.094083e+02 -1.439667e+03
1.706319e+03 4.007439e+02 -1.566381e+03
1.705324e+03 4.006479e+02 -1.566358e+03
1.707207e+03 3.965511e+02 -1.692446e+03
1.706214e+03 3.964311e+02 -1.692441e+03
1.707755e+03 3.940129e+02 -1.817631e+03
1.706763e+03 3.938877e+02 -1.817629e+03
1.707988e+03 3.926921e+02 -1.943454e+03
1.706996e+03 3.925657e+02 -1.943454e+03
1.708161e+03 3.916049e+02 -2.069595e+03
1.707169e+03 3.914789e+02 -2.069592e+03
1.708474e+03 3.898957e+02 -2.194215e+03
1.707483e+03 3.897674e+02 -2.194211e+03
1.708730e+03 3.884028e+02 -2.318722e+03
1.707738e+03 3.882711e+02 -2.318721e+03
1.708958e+03 3.871044e+02 -2.442615e+03
1.707967e+03 3.869710e+02 -2.442618e+03
1.709396e+03 3.859341e+02 -2.565559e+03
1.708405e+03 3.858025e+02 -2.565575e+03
1.710347e+03 3.848898e+02 -2.687657e+03
1.709355e+03 3.847708e+02 -2.687693e+03
1.711942e+03 3.840401e+02 -2.809238e+03
1.710947e+03 3.839523e+02 -2.809288e+03
1.713547e+03 3.834275e+02 -2.930814e+03
1.712549e+03 3.833833e+02 -2.930852e+03
1.714282e+03 3.831603e+02 -3.052561e+03
1.713282e+03 3.831390e+02 -3.052585e+03
1.714610e+03 2.726133e+02 -1.426121e+03
1.713610e+03 2.726006e+02 -1.426105e+03
1.714812e+03 2.691416e+02 -1.555507e+03
1.713812e+03 2.691117e+02 -1.555508e+03
1.714897e+03 2.668496e+02 -1.682440e+03
1.713897e+03 2.668207e+02 -1.682442e+03
1.714947e+03 2.653356e+02 -1.808321e+03
1.713948e+03 2.653092e+02 -1.808322e+03
1.714977e+03 2.643782e+02 -1.934440e+03
1.713977e+03 2.643532e+02 -1.934441e+03
1.714999e+03 2.636296e+02 -2.060555e+03
1.713999e+03 2.636053e+02 -2.060555e+03
1.715026e+03 2.627671e+02 -2.186029e+03
1.714026e+03 2.627437e+02 -2.186030e+03
1.715052e+03 2.619379e+02 -2.311074e+03
1.714053e+03 2.619155e+02 -2.311075e+03
1.715073e+03 2.611783e+02 -2.435735e+03
1.714073e+03 2.611567e+02 -2.435736e+03
1.715053e+03 2.604878e+02 -2.560049e+03
1.714053e+03 2.604674e+02 -2.560052e+03
1.714935e+03 2.598777e+02 -2.684007e+03
1.713935e+03 2.598600e+02 -2.684011e+03
1.714683e+03 2.593783e+02 -2.807143e+03
1.713684e+03 2.593656e+02 -2.807148e+03
1.714410e+03 2.590099e+02 -2.929883e+03
1.713410e+03 2.590036e+02 -2.929887e+03
1.714282e+03 2.588366e+02 -3.052563e+03
1.713282e+03 2.588336e+02 -3.052566e+03
1.714282e+03 1.359776e+02 -1.416501e+03
1.713282e+03 1.359786e+02 -1.416503e+03
1.714282e+03 1.358403e+02 -1.548073e+03
1.713282e+03 1.358434e+02 -1.548075e+03
1.714282e+03 1.357096e+02 -1.673763e+03
1.713282e+03 1.357139e+02 -1.673764e+03
1.714282e+03 1.355797e+02 -1.798984e+03
1.713282e+03 1.355846e+02 -1.798984e+03
1.714282e+03 1.354484e+02 -1.925663e+03
1.713282e+03 1.354536e+02 -1.925664e+03
1.714282e+03 1.353173e+02 -2.052107e+03
1.713282e+03 1.353228e+02 -2.052107e+03
1.714282e+03 1.351867e+02 -2.178193e+03
1.713282e+03 1.351924e+02 -2.178193e+03
1.714282e+03 1.350566e+02 -2.303748e+03
1.713282e+03 1.350625e+02 -2.303748e+03
1.714282e+03 1.349265e+02 -2.429244e+03
1.713282e+03 1.349327e+02 -2.429244e+03
1.714282e+03 1.347962e+02 -2.555068e+03
1.713282e+03 1.348024e+02 -2.555068e+03
1.714282e+03 1.346656e+02 -2.681452e+03
1.713282e+03 1.346713e+02 -2.681450e+03
1.714282e+03 1.345378e+02 -2.805592e+03
1.713282e+03 1.345421e+02 -2.805590e+03
1.714282e+03 1.344111e+02 -2.929002e+03
1.713282e+03 1.344133e+02 -2.929000e+03
1.714282e+03 1.342838e+02 -3.052557e+03
1.713282e+03 1.342848e+02 -3.052556e+03
2.222582e+02 1.172707e+03 -2.159543e+03
2.072602e+02 1.150469e+03 -2.022390e+03
2.223307e+02 1.171717e+03 -2.159668e+03
2.073331e+02 1.149518e+03 -2.022690e+03
2.354128e+02 1.187687e+03 -2.295029e+03
2.354889e+02 1.186692e+03 -2.295102e+03
2.426195e+02 1.194588e+03 -2.422818e+03
2.426975e+02 1.193592e+03 -2.422836e+03
2.438507e+02 1.193820e+03 -2.542444e+03
2.439295e+02 1.192824e+03 -2.542406e+03
2.419590e+02 1.186367e+03 -2.660796e+03
2.420390e+02 1.185374e+03 -2.660710e+03
2.399116e+02 1.173432e+03 -2.781455e+03
2.399940e+02 1.172444e+03 -2.781329e+03
2.384346e+02 1.155855e+03 -2.904586e+03
2.385206e+02 1.154871e+03 -2.904427e+03
2.370544e+02 1.134115e+03 -3.027736e+03
2.371425e+02 1.133134e+03 -3.027561e+03
3.569000e+02 1.182354e+03 -2.154953e+03
3.462017e+02 1.159650e+03 -2.017740e+03
3.569724e+02 1.181366e+03 -2.155083e+03
3.462745e+02 1.158699e+03 -2.018038e+03
3.664713e+02 1.197566e+03 -2.288268e+03
3.665475e+02 1.196572e+03 -2.288346e+03
3.718777e+02 1.204871e+03 -2.414493e+03
3.719562e+02 1.203874e+03 -2.414516e+03
3.728226e+02 1.204641e+03 -2.534258e+03
3.729021e+02 1.203645e+03 -2.534226e+03
3.713466e+02 1.197824e+03 -2.652701e+03
3.714273e+02 1.196830e+03 -2.652621e+03
3.698279e+02 1.185502e+03 -2.774513e+03
3.699108e+02 1.184513e+03 -2.774394e+03
3.689892e+02 1.168322e+03 -2.900545e+03
3.690756e+02 1.167337e+03 -2.900392e+03
3.682746e+02 1.146306e+03 -3.029240e+03
3.683631e+02 1.145325e+03 -3.029070e+03
4.900762e+02 1.191861e+03 -2.150228e+03
4.822333e+02 1.168639e+03 -2.013188e+03
4.901488e+02 1.190873e+03 -2.150364e+03
4.823061e+02 1.167687e+03 -2.013484e+03
4.970308e+02 1.207471e+03 -2.282621e+03
4.971071e+02 1.206477e+03 -2.282704e+03
5.009626e+02 1.215161e+03 -2.408163e+03
5.010414e+02 1.214165e+03 -2.408190e+03
5.016470e+02 1.215354e+03 -2.528210e+03
5.017269e+02 1.214358e+03 -2.528183e+03
5.005597e+02 1.208997e+03 -2.647428e+03
5.006409e+02 1.208003e+03 -2.647353e+03
4.994963e+02 1.197145e+03 -2.770591e+03
4.995796e+02 1.196155e+03 -2.770477e+03
4.990472e+02 1.180341e+03 -2.898895e+03
4.991340e+02 1.179356e+03 -2.898747e+03
4.986805e+02 1.158422e+03 -3.030735e+03
4.987692e+02 1.157440e+03 -3.030570e+03
6.225685e+02 1.201340e+03 -2.145751e+03
6.170046e+02 1.177545e+03 -2.008678e+03
6.226412e+02 1.200352e+03 -2.145891e+03
6.170774e+02 1.176592e+03 -2.008971e+03
6.272665e+02 1.217405e+03 -2.277822e+03
6.273430e+02 1.216412e+03 -2.277910e+03
6.298876e+02 1.225467e+03 -2.403274e+03
6.299666e+02 1.224470e+03 -2.403306e+03
6.303423e+02 1.225992e+03 -2.524023e+03
6.304227e+02 1.224995e+03 -2.523999e+03
6.296294e+02 1.219967e+03 -2.644430e+03
6.297110e+02 1.218973e+03 -2.644358e+03
6.289643e+02 1.208488e+03 -2.768967e+03
6.290481e+02 1.207497e+03 -2.768857e+03
6.287553e+02 1.192080e+03 -2.898831e+03
6.288424e+02 1.191095e+03 -2.898687e+03
6.286127e+02 1.170494e+03 -3.032225e+03
6.287017e+02 1.169511e+03 -3.032064e+03
7.548651e+02 1.210782e+03 -2.141191e+03
7.516595e+02 1.186443e+03 -2.004171e+03
7.549378e+02 1.209795e+03 -2.141336e+03
7.517323e+02 1.185489e+03 -2.004463e+03
7.573558e+02 1.227336e+03 -2.273242e+03
7.574322e+02 1.226343e+03 -2.273335e+03
7.587061e+02 1.235789e+03 -2.399377e+03
7.587852e+02 1.234793e+03 -2.399412e+03
7.589389e+02 1.236571e+03 -2.521697e+03
7.590196e+02 1.235575e+03 -2.521676e+03
7.585843e+02 1.230744e+03 -2.643929e+03
7.586664e+02 1.229750e+03 -2.643861e+03
7.582700e+02 1.219544e+03 -2.769831e+03
7.583543e+02 1.218553e+03 -2.769724e+03
7.582022e+02 1.203568e+03 -2.900356e+03
7.582897e+02 1.202582e+03 -2.900216e+03
7.582007e+02 1.182534e+03 -3.033711e+03
7.582900e+02 1.181550e+03 -3.033554e+03
8.875000e+02 1.220058e+03 -2.135473e+03
8.875000e+02 1.195418e+03 -1.999626e+03
8.875000e+02 1.219069e+03 -2.135621e+03
8.875000e+02 1.194462e+03 -1.999917e+03
8.875000e+02 1.237145e+03 -2.267546e+03
8.875000e+02 1.236150e+03 -2.267640e+03
8.875000e+02 1.246122e+03 -2.395970e+03
8.875000e+02 1.245123e+03 -2.396006e+03
8.875000e+02 1.247095e+03 -2.521773e+03
8.875000e+02 1.246095e+03 -2.521753e+03
8.875000e+02 1.241277e+03 -2.647092e+03
8.875000e+02 1.240279e+03 -2.647024e+03
8.875000e+02 1.230234e+03 -2.774246e+03
8.875000e+02 1.229239e+03 -2.774141e+03
8.875000e+02 1.214762e+03 -2.904034e+03
8.875000e+02 1.213772e+03 -2.903895e+03
8.875000e+02 1.194545e+03 -3.035195e+03
8.875000e+02 1.193557e+03 -3.035039e+03
1.671244e+03 1.177781e+03 -2.303541e+03
1.731189e+03 1.041823e+03 -2.322307e+03
1.750071e+03 1.027411e+03 -2.157686e+03
1.689929e+03 1.162541e+03 -2.162186e+03
1.670668e+03 1.176964e+03 -2.303554e+03
1.730216e+03 1.041596e+03 -2.322253e+03
1.749096e+03 1.027206e+03 -2.157602e+03
1.689353e+03 1.161724e+03 -2.162206e+03
1.756895e+03 1.006574e+03 -1.967536e+03
1.714073e+03 1.140734e+03 -2.027328e+03
1.755908e+03 1.006416e+03 -1.967545e+03
1.713491e+03 1.139947e+03 -2.027532e+03
1.753822e+03 9.681549e+02 -1.851284e+03
1.714062e+03 1.063683e+03 -1.874336e+03
1.752837e+03 9.680129e+02 -1.851382e+03
1.713503e+03 1.062946e+03 -1.874716e+03
1.750721e+03 9.294328e+02 -1.763292e+03
1.714055e+03 1.004312e+03 -1.761780e+03
1.749737e+03 9.292959e+02 -1.763411e+03
1.713509e+03 1.003581e+03 -1.762188e+03
1.744102e+03 8.956339e+02 -1.689929e+03
1.714059e+03 9.506372e+02 -1.670801e+03
1.743119e+03 8.955262e+02 -1.690080e+03
1.713506e+03 9.499333e+02 -1.671247e+03
1.731683e+03 8.594447e+02 -1.611651e+03
1.714074e+03 8.973710e+02 -1.592381e+03
1.730700e+03 8.593649e+02 -1.611815e+03
1.713490e+03 8.967036e+02 -1.592844e+03
1.722279e+03 8.374821e+02 -1.551400e+03
1.714124e+03 8.493924e+02 -1.524634e+03
1.721287e+03 8.374636e+02 -1.551526e+03
1.713440e+03 8.488052e+02 -1.525066e+03
1.735889e+03 8.976298e+02 -2.332477e+03
1.741717e+03 8.845464e+02 -2.179392e+03
1.734891e+03 8.976872e+02 -2.332436e+03
1.740723e+03 8.846395e+02 -2.179338e+03
1.740635e+03 8.697701e+02 -2.026968e+03
1.739647e+03 8.699221e+02 -2.026952e+03
1.736825e+03 8.547042e+02 -1.908875e+03
1.735841e+03 8.548817e+02 -1.908865e+03
1.733568e+03 8.383508e+02 -1.805075e+03
1.732588e+03 8.385491e+02 -1.805071e+03
1.728364e+03 8.214719e+02 -1.704398e+03
1.727389e+03 8.216914e+02 -1.704422e+03
1.722356e+03 8.080662e+02 -1.612909e+03
1.721377e+03 8.082650e+02 -1.612961e+03
1.718169e+03 8.015981e+02 -1.529941e+03
1.717179e+03 8.017288e+02 -1.529987e+03
1.714170e+03 8.061217e+02 -1.456518e+03
1.713394e+03 8.055864e+02 -1.456851e+03
1.734946e+03 9.036857e+02 -2.468453e+03
1.733947e+03 9.037342e+02 -2.468452e+03
1.725495e+03 1.048820e+03 -2.459514e+03
1.724523e+03 1.048583e+03 -2.459505e+03
1.661839e+03 1.184259e+03 -2.436076e+03
1.661266e+03 1.183439e+03 -2.436076e+03
1.734861e+03 9.059969e+02 -2.588011e+03
1.733862e+03 9.060291e+02 -2.588009e+03
1.723138e+03 1.050349e+03 -2.578711e+03
1.722171e+03 1.050094e+03 -2.578704e+03
1.660559e+03 1.182438e+03 -2.560336e+03
1.659991e+03 1.181615e+03 -2.560306e+03
1.734031e+03 9.058241e+02 -2.697949e+03
1.733031e+03 9.058513e+02 -2.697938e+03
1.723598e+03 1.047797e+03 -2.688154e+03
1.722632e+03 1.047538e+03 -2.688136e+03
1.663024e+03 1.173741e+03 -2.679558e+03
1.662457e+03 1.172919e+03 -2.679498e+03
1.730037e+03 9.033455e+02 -2.805756e+03
1.729038e+03 9.033746e+02 -2.805725e+03
1.724769e+03 1.041337e+03 -2.796588e+03
1.723803e+03 1.041082e+03 -2.796542e+03
1.665587e+03 1.160036e+03 -2.797073e+03
1.665024e+03 1.159215e+03 -2.796983e+03
1.720413e+03 8.975002e+02 -2.918204e+03
1.719416e+03 8.975341e+02 -2.918139e+03
1.725518e+03 1.030524e+03 -2.912467e+03
1.724558e+03 1.030296e+03 -2.912299e+03
1.668006e+03 1.142221e+03 -2.914522e+03
1.667461e+03 1.141408e+03 -2.914317e+03
1.698514e+03 8.879464e+02 -3.042949e+03
1.697518e+03 8.879832e+02 -3.042864e+03
1.684225e+03 1.009943e+03 -3.034276e+03
1.683284e+03 1.009740e+03 -3.034004e+03
1.670976e+03 1.121683e+03 -3.026275e+03
1.670452e+03 1.120887e+03 -3.025972e+03
1.567796e+03 1.150465e+03 -2.022392e+03
1.552759e+03 1.172720e+03 -2.159654e+03
1.567724e+03 1.149514e+03 -2.022692e+03
1.552686e+03 1.171730e+03 -2.159779e+03
1.428905e+03 1.159643e+03 -2.017744e+03
1.418146e+03 1.182364e+03 -2.155051e+03
1.428832e+03 1.158692e+03 -2.018042e+03
1.418074e+03 1.181375e+03 -2.155181e+03
1.292818e+03 1.168636e+03 -2.013190e+03
1.284932e+03 1.191874e+03 -2.150327e+03
1.292745e+03 1.167684e+03 -2.013485e+03
1.284860e+03 1.190886e+03 -2.150462e+03
1.158006e+03 1.177544e+03 -2.008678e+03
1.152416e+03 1.201356e+03 -2.145855e+03
1.157933e+03 1.176591e+03 -2.008972e+03
1.152343e+03 1.200369e+03 -2.145995e+03
1.023418e+03 1.186438e+03 -2.004174e+03
1.020137e+03 1.210791e+03 -2.141254e+03
1.023346e+03 1.185484e+03 -2.004465e+03
1.020064e+03 1.209804e+03 -2.141399e+03
1.539556e+03 1.187724e+03 -2.295478e+03
1.539480e+03 1.186729e+03 -2.295551e+03
1.408513e+03 1.197596e+03 -2.288618e+03
1.408437e+03 1.196602e+03 -2.288696e+03
1.277950e+03 1.207495e+03 -2.282884e+03
1.277873e+03 1.206501e+03 -2.282967e+03
1.147714e+03 1.217425e+03 -2.278023e+03
1.147637e+03 1.216432e+03 -2.278110e+03
1.017637e+03 1.227347e+03 -2.273347e+03
1.017561e+03 1.226354e+03 -2.273439e+03
1.532330e+03 1.194623e+03 -2.424265e+03
1.532252e+03 1.193626e+03 -2.424282e+03
1.403094e+03 1.204895e+03 -2.415361e+03
1.403015e+03 1.203899e+03 -2.415384e+03
1.274017e+03 1.215178e+03 -2.408669e+03
1.273938e+03 1.214181e+03 -2.408697e+03
1.145098e+03 1.225478e+03 -2.403571e+03
1.145019e+03 1.224481e+03 -2.403602e+03
1.016288e+03 1.235794e+03 -2.399513e+03
1.016209e+03 1.234798e+03 -2.399547e+03
1.531167e+03 1.193698e+03 -2.545755e+03
1.531088e+03 1.192702e+03 -2.545715e+03
1.402177e+03 1.204593e+03 -2.535804e+03
1.402098e+03 1.203597e+03 -2.535771e+03
1.273349e+03 1.215334e+03 -2.528971e+03
1.273269e+03 1.214338e+03 -2.528943e+03
1.144656e+03 1.225983e+03 -2.524401e+03
1.144575e+03 1.224986e+03 -2.524376e+03
1.016062e+03 1.236568e+03 -2.521857e+03
1.015982e+03 1.235571e+03 -2.521835e+03
1.533100e+03 1.186072e+03 -2.664155e+03
1.533021e+03 1.185079e+03 -2.664067e+03
1.403673e+03 1.197686e+03 -2.654390e+03
1.403593e+03 1.196693e+03 -2.654308e+03
1.274454e+03 1.208932e+03 -2.648264e+03
1.274373e+03 1.207939e+03 -2.648188e+03
1.145389e+03 1.219937e+03 -2.644829e+03
1.145308e+03 1.218943e+03 -2.644757e+03
1.016431e+03 1.230731e+03 -2.644096e+03
1.016349e+03 1.229737e+03 -2.644027e+03
1.535109e+03 1.173129e+03 -2.783876e+03
1.535027e+03 1.172140e+03 -2.783750e+03
1.405181e+03 1.185342e+03 -2.775860e+03
1.405099e+03 1.184353e+03 -2.775740e+03
1.275533e+03 1.197062e+03 -2.771292e+03
1.275450e+03 1.196072e+03 -2.771178e+03
1.146084e+03 1.208446e+03 -2.769313e+03
1.146000e+03 1.207455e+03 -2.769203e+03
1.016768e+03 1.219525e+03 -2.769978e+03
1.016684e+03 1.218534e+03 -2.769872e+03
1.536544e+03 1.155693e+03 -2.905620e+03
1.536458e+03 1.154709e+03 -2.905460e+03
1.406003e+03 1.168216e+03 -2.901240e+03
1.405917e+03 1.167232e+03 -2.901087e+03
1.275999e+03 1.180279e+03 -2.899293e+03
1.275912e+03 1.179293e+03 -2.899144e+03
1.146332e+03 1.192043e+03 -2.899038e+03
1.146245e+03 1.191057e+03 -2.898894e+03
1.016871e+03 1.203549e+03 -2.900447e+03
1.016783e+03 1.202563e+03 -2.900307e+03
1.537829e+03 1.134125e+03 -3.027737e+03
1.537741e+03 1.133145e+03 -3.027562e+03
1.406655e+03 1.146313e+03 -3.029241e+03
1.406567e+03 1.145331e+03 -3.029071e+03
1.276377e+03 1.158417e+03 -3.030735e+03
1.276289e+03 1.157435e+03 -3.030569e+03
1.146554e+03 1.170479e+03 -3.032223e+03
1.146465e+03 1.169496e+03 -3.032062e+03
1.016967e+03 1.182518e+03 -3.033709e+03
1.016878e+03 1.181535e+03 -3.033552e+03
2.025637e+02 1.082330e+03 -1.884252e+03
2.026424e+02 1.081441e+03 -1.884703e+03
3.414789e+02 1.095210e+03 -1.883734e+03
3.415579e+02 1.094315e+03 -1.884174e+03
4.785321e+02 1.106310e+03 -1.880042e+03
4.786112e+02 1.105411e+03 -1.880473e+03
6.145295e+02 1.116753e+03 -1.875202e+03
6.146087e+02 1.115850e+03 -1.875624e+03
7.502100e+02 1.125673e+03 -1.867011e+03
7.502895e+02 1.124766e+03 -1.867424e+03
8.874990e+02 1.131100e+03 -1.850568e+03
8.874990e+02 1.130188e+03 -1.850978e+03
2.004835e+02 1.021018e+03 -1.764201e+03
2.005724e+02 1.020144e+03 -1.764679e+03
3.388269e+02 1.034345e+03 -1.761066e+03
3.389164e+02 1.033464e+03 -1.761531e+03
4.761401e+02 1.046297e+03 -1.755615e+03
4.762298e+02 1.045410e+03 -1.756069e+03
6.127303e+02 1.057809e+03 -1.749482e+03
6.128202e+02 1.056917e+03 -1.749925e+03
7.489910e+02 1.068771e+03 -1.742279e+03
7.490809e+02 1.067874e+03 -1.742711e+03
8.874999e+02 1.078415e+03 -1.732167e+03
8.874998e+02 1.077511e+03 -1.732596e+03
1.994930e+02 9.630191e+02 -1.661873e+03
1.995945e+02 9.621733e+02 -1.662397e+03
3.373889e+02 9.747998e+02 -1.652241e+03
3.374908e+02 9.739436e+02 -1.652748e+03
4.747312e+02 9.862497e+02 -1.642144e+03
4.748331e+02 9.853842e+02 -1.642634e+03
6.116155e+02 9.981363e+02 -1.632919e+03
6.117171e+02 9.972624e+02 -1.633394e+03
7.482550e+02 1.010449e+03 -1.624595e+03
7.483555e+02 1.009567e+03 -1.625056e+03
8.874989e+02 1.024678e+03 -1.620194e+03
8.874989e+02 1.023788e+03 -1.620650e+03
1.990079e+02 9.064155e+02 -1.574111e+03
1.991265e+02 9.055911e+02 -1.574664e+03
3.366584e+02 9.157743e+02 -1.556009e+03
3.367766e+02 9.149338e+02 -1.556537e+03
4.740142e+02 9.258747e+02 -1.538748e+03
4.741318e+02 9.250199e+02 -1.539253e+03
6.110872e+02 9.372560e+02 -1.523510e+03
6.112038e+02 9.363886e+02 -1.523994e+03
7.479757e+02 9.502614e+02 -1.511304e+03
7.480901e+02 9.493828e+02 -1.511768e+03
8.875013e+02 9.647692e+02 -1.502305e+03
8.875014e+02 9.638798e+02 -1.502762e+03
1.987807e+02 8.539448e+02 -1.493956e+03
1.989168e+02 8.531087e+02 -1.494488e+03
3.363320e+02 8.612173e+02 -1.466121e+03
3.364667e+02 8.603580e+02 -1.466615e+03
4.737336e+02 8.704684e+02 -1.440625e+03
4.738668e+02 8.695902e+02 -1.441084e+03
6.109690e+02 8.814094e+02 -1.417741e+03
6.111007e+02 8.805159e+02 -1.418170e+03
7.481239e+02 8.936546e+02 -1.397347e+03
7.482531e+02 8.927483e+02 -1.397749e+03
8.875010e+02 9.086203e+02 -1.383354e+03
8.875012e+02 9.077008e+02 -1.383747e+03
1.986995e+02 8.082074e+02 -1.411190e+03
1.988424e+02 8.073164e+02 -1.411621e+03
3.362346e+02 8.163865e+02 -1.374612e+03
3.363761e+02 8.154720e+02 -1.374991e+03
4.736969e+02 8.271292e+02 -1.341984e+03
4.738363e+02 8.261984e+02 -1.342322e+03
6.111195e+02 8.387832e+02 -1.310253e+03
6.112563e+02 8.378400e+02 -1.310556e+03
7.485148e+02 8.511477e+02 -1.279387e+03
7.486492e+02 8.501946e+02 -1.279658e+03
8.875006e+02 8.661462e+02 -1.258050e+03
8.875008e+02 8.651801e+02 -1.258308e+03
1.986873e+02 7.736516e+02 -1.310429e+03
1.988245e+02 7.726955e+02 -1.310688e+03
3.362295e+02 7.864391e+02 -1.270957e+03
3.363669e+02 7.854732e+02 -1.271177e+03
4.737704e+02 7.999546e+02 -1.232098e+03
4.739060e+02 7.989820e+02 -1.232287e+03
6.113215e+02 8.137380e+02 -1.191643e+03
6.114546e+02 8.127604e+02 -1.191806e+03
7.489291e+02 8.272783e+02 -1.144660e+03
7.490609e+02 8.262969e+02 -1.144800e+03
8.875005e+02 8.434098e+02 -1.118795e+03
8.875005e+02 8.424183e+02 -1.118925e+03
1.986495e+02 7.544806e+02 -1.184898e+03
1.987826e+02 7.534962e+02 -1.185014e+03
3.361813e+02 7.703169e+02 -1.148515e+03
3.363150e+02 7.693317e+02 -1.148622e+03
4.737281e+02 7.858286e+02 -1.107529e+03
4.738618e+02 7.848426e+02 -1.107628e+03
6.112716e+02 8.012625e+02 -1.064588e+03
6.114056e+02 8.002760e+02 -1.064682e+03
7.487942e+02 8.166980e+02 -1.021141e+03
7.489287e+02 8.157114e+02 -1.021233e+03
8.874999e+02 8.328392e+02 -9.867743e+02
8.874998e+02 8.318434e+02 -9.868660e+02
1.984865e+02 7.452369e+02 -1.061185e+03
1.986176e+02 7.442478e+02 -1.061253e+03
3.359535e+02 7.603953e+02 -1.020516e+03
3.360868e+02 7.594073e+02 -1.020595e+03
4.734227e+02 7.750232e+02 -9.757232e+02
4.735589e+02 7.740366e+02 -9.758137e+02
6.108730e+02 7.892338e+02 -9.296629e+02
6.110125e+02 7.882490e+02 -9.297665e+02
7.482850e+02 8.029446e+02 -8.823206e+02
7.484267e+02 8.019617e+02 -8.824384e+02
8.875002e+02 8.156019e+02 -8.305718e+02
8.875002e+02 8.146100e+02 -8.306984e+02
1.982307e+02 7.364542e+02 -9.427626e+02
1.983567e+02 7.354660e+02 -9.428502e+02
3.355829e+02 7.484421e+02 -8.935586e+02
3.357139e+02 7.474562e+02 -8.936629e+02
4.728818e+02 7.598489e+02 -8.439944e+02
4.730172e+02 7.588661e+02 -8.441202e+02
6.101711e+02 7.709122e+02 -7.955220e+02
6.103105e+02 7.699329e+02 -7.956685e+02
7.474498e+02 7.819240e+02 -7.491917e+02
7.475918e+02 7.809481e+02 -7.493575e+02
8.875067e+02 7.918478e+02 -6.990995e+02
8.875067e+02 7.908637e+02 -6.992767e+02
1.981175e+02 7.221739e+02 -8.192389e+02
1.982416e+02 7.211924e+02 -8.193844e+02
3.352457e+02 7.305161e+02 -7.661954e+02
3.353759e+02 7.295374e+02 -7.663539e+02
4.723655e+02 7.383886e+02 -7.133814e+02
4.724999e+02 7.374142e+02 -7.135618e+02
6.094886e+02 7.465110e+02 -6.639225e+02
6.096265e+02 7.455411e+02 -6.641228e+02
7.466769e+02 7.556792e+02 -6.203514e+02
7.468163e+02 7.547131e+02 -6.205688e+02
8.875115e+02 7.660909e+02 -5.823255e+02
8.875116e+02 7.651171e+02 -5.825533e+02
1.980289e+02 6.995546e+02 -6.969426e+02
1.981566e+02 6.985861e+02 -6.971565e+02
3.349812e+02 7.042959e+02 -6.401098e+02
3.351161e+02 7.033309e+02 -6.403349e+02
4.719568e+02 7.087010e+02 -5.843194e+02
4.720961e+02 7.077420e+02 -5.845666e+02
6.089823e+02 7.137995e+02 -5.328721e+02
6.091254e+02 7.128467e+02 -5.331399e+02
7.461452e+02 7.207160e+02 -4.884614e+02
7.462894e+02 7.197686e+02 -4.887469e+02
8.875044e+02 7.302009e+02 -4.522981e+02
8.875046e+02 7.292460e+02 -4.525951e+02
1.980461e+02 6.685490e+02 -5.765304e+02
1.981789e+02 6.675971e+02 -5.768066e+02
3.348177e+02 6.690901e+02 -5.163644e+02
3.349579e+02 6.681435e+02 -5.166548e+02
4.717152e+02 6.693579e+02 -4.580181e+02
4.718604e+02 6.684201e+02 -4.583335e+02
6.088382e+02 6.701610e+02 -4.032238e+02
6.089882e+02 6.692324e+02 -4.035633e+02
7.461975e+02 6.726434e+02 -3.540909e+02
7.463494e+02 6.717236e+02 -3.544527e+02
8.874795e+02 6.772688e+02 -3.107326e+02
8.874798e+02 6.763423e+02 -3.111088e+02
1.982512e+02 6.299174e+02 -4.583884e+02
1.983868e+02 6.289860e+02 -4.587262e+02
3.348618e+02 6.255484e+02 -3.952525e+02
3.350056e+02 6.246247e+02 -3.956074e+02
4.719045e+02 6.209002e+02 -3.344401e+02
4.720549e+02 6.199901e+02 -3.348261e+02
6.093588e+02 6.160094e+02 -2.756929e+02
6.095164e+02 6.151153e+02 -2.761120e+02
7.472656e+02 6.117075e+02 -2.203285e+02
7.474297e+02 6.108322e+02 -2.207833e+02
8.874730e+02 6.096338e+02 -1.706684e+02
8.874725e+02 6.087558e+02 -1.711471e+02
1.978152e+02 5.834733e+02 -3.436251e+02
1.979597e+02 5.825827e+02 -3.440563e+02
3.346004e+02 5.757681e+02 -2.843744e+02
3.347636e+02 5.748973e+02 -2.848381e+02
4.715684e+02 5.663601e+02 -2.255751e+02
4.717464e+02 5.655240e+02 -2.260940e+02
6.088127e+02 5.549470e+02 -1.676319e+02
6.090091e+02 5.541602e+02 -1.682171e+02
7.465288e+02 5.412149e+02 -1.113637e+02
7.467431e+02 5.404965e+02 -1.120254e+02
8.874532e+02 5.270534e+02 -5.976851e+01
8.874525e+02 5.263581e+02 -6.048722e+01
1.976307e+02 5.005803e+02 -2.043345e+02
1.978119e+02 4.998545e+02 -2.049981e+02
3.341507e+02 4.898973e+02 -1.632826e+02
3.343571e+02 4.892408e+02 -1.640081e+02
4.708172e+02 4.752622e+02 -1.224985e+02
4.710418e+02 4.746990e+02 -1.232937e+02
6.078464e+02 4.559095e+02 -8.320703e+01
6.080870e+02 4.554578e+02 -8.406619e+01
7.455627e+02 4.311174e+02 -4.643579e+01
7.458111e+02 4.307908e+02 -4.734773e+01
8.874962e+02 4.031392e+02 -1.311204e+01
8.874963e+02 4.028703e+02 -1.407521e+01
1.979384e+02 4.033318e+02 -1.451635e+02
1.981434e+02 4.030363e+02 -1.460966e+02
3.348433e+02 3.834099e+02 -1.178972e+02
3.350613e+02 3.832078e+02 -1.188520e+02
4.719923e+02 3.570681e+02 -9.133808e+01
4.722185e+02 3.569752e+02 -9.230773e+01
6.094599e+02 3.254680e+02 -6.667846e+01
6.096901e+02 3.254888e+02 -6.765138e+01
7.479030e+02 2.931263e+02 -4.400394e+01
7.481296e+02 2.932603e+02 -4.496866e+01
8.875002e+02 2.718266e+02 -2.088158e+01
8.875006e+02 2.720213e+02 -2.186245e+01
1.981211e+02 2.885884e+02 -1.471740e+02
1.983204e+02 2.888193e+02 -1.481263e+02
3.351823e+02 2.638716e+02 -1.288462e+02
3.353937e+02 2.641818e+02 -1.297731e+02
4.725284e+02 2.358405e+02 -1.132182e+02
4.727480e+02 2.362540e+02 -1.141019e+02
6.101236e+02 2.069870e+02 -1.007740e+02
6.103463e+02 2.075126e+02 -1.015951e+02
7.480656e+02 1.781079e+02 -9.332475e+01
7.482816e+02 1.787508e+02 -9.405957e+01
8.874899e+02 1.490759e+02 -9.787649e+01
8.874896e+02 1.497912e+02 -9.857527e+01
1.980613e+02 1.985803e+02 -1.993273e+02
1.982345e+02 1.992864e+02 -2.000139e+02
3.348815e+02 1.812700e+02 -1.927664e+02
3.350554e+02 1.820383e+02 -1.933824e+02
4.721404e+02 1.650232e+02 -1.896125e+02
4.723070e+02 1.658595e+02 -1.901349e+02
6.098179e+02 1.512158e+02 -1.865769e+02
6.099730e+02 1.521101e+02 -1.869964e+02
7.473720e+02 1.360162e+02 -1.994392e+02
7.475101e+02 1.369572e+02 -1.997479e+02
8.874909e+02 1.235289e+02 -2.148567e+02
8.874902e+02 1.244962e+02 -2.151105e+02
1.981468e+02 1.542414e+02 -2.980001e+02
1.982464e+02 1.551749e+02 -2.983444e+02
3.351982e+02 1.459879e+02 -2.948664e+02
3.352927e+02 1.469416e+02 -2.951518e+02
4.724040e+02 1.364610e+02 -3.008518e+02
4.724881e+02 1.374320e+02 -3.010756e+02
6.097314e+02 1.270779e+02 -3.133995e+02
6.098055e+02 1.280609e+02 -3.135676e+02
7.471456e+02 1.186691e+02 -3.303927e+02
7.472093e+02 1.196600e+02 -3.305111e+02
8.874976e+02 1.118596e+02 -3.475927e+02
8.874973e+02 1.128551e+02 -3.476876e+02
1.982632e+02 1.245791e+02 -4.264384e+02
1.983086e+02 1.255542e+02 -4.266555e+02
3.354149e+02 1.184725e+02 -4.430895e+02
3.354560e+02 1.194561e+02 -4.432654e+02
4.726134e+02 1.139263e+02 -4.600901e+02
4.726492e+02 1.149165e+02 -4.602249e+02
6.098295e+02 1.108724e+02 -4.772233e+02
6.098596e+02 1.118674e+02 -4.773181e+02
7.470366e+02 1.092236e+02 -4.942982e+02
7.470685e+02 1.102207e+02 -4.943674e+02
8.875001e+02 1.088767e+02 -5.111618e+02
8.874999e+02 1.098751e+02 -5.112195e+02
1.986365e+02 1.071165e+02 -5.285430e+02
1.986628e+02 1.080982e+02 -5.287316e+02
3.358392e+02 1.075188e+02 -5.278320e+02
3.358594e+02 1.085075e+02 -5.279803e+02
4.729728e+02 1.079217e+02 -5.271212e+02
4.729868e+02 1.089157e+02 -5.272298e+02
6.100823e+02 1.083254e+02 -5.264096e+02
6.100906e+02 1.093229e+02 -5.264800e+02
7.471674e+02 1.087302e+02 -5.256885e+02
7.471729e+02 1.097289e+02 -5.257402e+02
1.572483e+03 1.082084e+03 -1.883765e+03
1.572404e+03 1.081196e+03 -1.884216e+03
1.574543e+03 1.021007e+03 -1.764186e+03
1.574454e+03 1.020133e+03 -1.764664e+03
1.575529e+03 9.633721e+02 -1.662457e+03
1.575428e+03 9.625261e+02 -1.662980e+03
1.576013e+03 9.068417e+02 -1.574756e+03
1.575895e+03 9.060172e+02 -1.575309e+03
1.576238e+03 8.543503e+02 -1.494612e+03
1.576102e+03 8.535144e+02 -1.495143e+03
1.576314e+03 8.086875e+02 -1.412225e+03
1.576172e+03 8.077971e+02 -1.412657e+03
1.576306e+03 7.740868e+02 -1.312275e+03
1.576167e+03 7.731318e+02 -1.312537e+03
1.576336e+03 7.549794e+02 -1.189989e+03
1.576203e+03 7.539956e+02 -1.190109e+03
1.576458e+03 7.451955e+02 -1.060446e+03
1.576327e+03 7.442065e+02 -1.060515e+03
1.576718e+03 7.360428e+02 -9.380633e+02
1.576592e+03 7.350547e+02 -9.381519e+02
1.576880e+03 7.217606e+02 -8.164738e+02
1.576756e+03 7.207793e+02 -8.166213e+02
1.576965e+03 6.989962e+02 -6.944232e+02
1.576837e+03 6.980280e+02 -6.946388e+02
1.576946e+03 6.678347e+02 -5.740972e+02
1.576813e+03 6.668832e+02 -5.743745e+02
1.576802e+03 6.289173e+02 -4.556522e+02
1.576666e+03 6.279863e+02 -4.559908e+02
1.577227e+03 5.818771e+02 -3.401472e+02
1.577083e+03 5.809867e+02 -3.405789e+02
1.577398e+03 5.007241e+02 -2.045034e+02
1.577216e+03 4.999963e+02 -2.051647e+02
1.577108e+03 4.040774e+02 -1.453440e+02
1.576903e+03 4.037759e+02 -1.462750e+02
1.577002e+03 2.894450e+02 -1.469829e+02
1.576800e+03 2.896787e+02 -1.479340e+02
1.576981e+03 1.967400e+02 -2.015766e+02
1.576813e+03 1.974572e+02 -2.022529e+02
1.576810e+03 1.553292e+02 -2.940934e+02
1.576717e+03 1.562660e+02 -2.944307e+02
1.576737e+03 1.245791e+02 -4.264382e+02
1.576691e+03 1.255541e+02 -4.266557e+02
1.576366e+03 1.071166e+02 -5.285428e+02
1.576339e+03 1.080982e+02 -5.287317e+02
1.433594e+03 1.095280e+03 -1.883895e+03
1.433515e+03 1.094386e+03 -1.884335e+03
1.436220e+03 1.034506e+03 -1.761389e+03
1.436131e+03 1.033625e+03 -1.761855e+03
1.437648e+03 9.751393e+02 -1.652829e+03
1.437546e+03 9.742829e+02 -1.653336e+03
1.438377e+03 9.162232e+02 -1.556734e+03
1.438259e+03 9.153827e+02 -1.557263e+03
1.438701e+03 8.616779e+02 -1.466942e+03
1.438566e+03 8.608189e+02 -1.467436e+03
1.438790e+03 8.168238e+02 -1.375718e+03
1.438649e+03 8.159101e+02 -1.376099e+03
1.438768e+03 7.867142e+02 -1.272356e+03
1.438630e+03 7.857489e+02 -1.272578e+03
1.438808e+03 7.704817e+02 -1.150345e+03
1.438674e+03 7.694966e+02 -1.150454e+03
1.439025e+03 7.603876e+02 -1.020382e+03
1.438892e+03 7.593997e+02 -1.020462e+03
1.439397e+03 7.482498e+02 -8.918376e+02
1.439266e+03 7.472640e+02 -8.919427e+02
1.439748e+03 7.302417e+02 -7.646007e+02
1.439618e+03 7.292632e+02 -7.647604e+02
1.440016e+03 7.039327e+02 -6.386292e+02
1.439881e+03 7.029680e+02 -6.388553e+02
1.440175e+03 6.686798e+02 -5.150920e+02
1.440035e+03 6.677335e+02 -5.153833e+02
1.440135e+03 6.251862e+02 -3.943429e+02
1.439991e+03 6.242628e+02 -3.946988e+02
1.440399e+03 5.757679e+02 -2.843739e+02
1.440237e+03 5.748975e+02 -2.848386e+02
1.440873e+03 4.900428e+02 -1.634133e+02
1.440667e+03 4.893857e+02 -1.641385e+02
1.440197e+03 3.840161e+02 -1.179814e+02
1.439979e+03 3.838113e+02 -1.189356e+02
1.439774e+03 2.648516e+02 -1.285065e+02
1.439563e+03 2.651569e+02 -1.294350e+02
1.439723e+03 1.840949e+02 -1.881149e+02
1.439551e+03 1.848591e+02 -1.887365e+02
1.439662e+03 1.468488e+02 -2.910946e+02
1.439568e+03 1.478015e+02 -2.913838e+02
1.439585e+03 1.184726e+02 -4.430892e+02
1.439544e+03 1.194560e+02 -4.432657e+02
1.439162e+03 1.075188e+02 -5.278320e+02
1.439142e+03 1.085075e+02 -5.279803e+02
1.296515e+03 1.106293e+03 -1.880015e+03
1.296436e+03 1.105394e+03 -1.880446e+03
1.298901e+03 1.046451e+03 -1.755933e+03
1.298811e+03 1.045564e+03 -1.756387e+03
1.300307e+03 9.865741e+02 -1.642729e+03
1.300205e+03 9.857085e+02 -1.643219e+03
1.301027e+03 9.263226e+02 -1.539518e+03
1.300910e+03 9.254678e+02 -1.540023e+03
1.301306e+03 8.708714e+02 -1.441411e+03
1.301173e+03 8.699936e+02 -1.441872e+03
1.301331e+03 8.273724e+02 -1.342697e+03
1.301191e+03 8.264421e+02 -1.343036e+03
1.301237e+03 8.000732e+02 -1.232823e+03
1.301101e+03 7.991008e+02 -1.233014e+03
1.301268e+03 7.858986e+02 -1.108373e+03
1.301135e+03 7.849127e+02 -1.108473e+03
1.301562e+03 7.750636e+02 -9.761321e+02
1.301426e+03 7.740771e+02 -9.762228e+02
1.302109e+03 7.598031e+02 -8.436528e+02
1.301974e+03 7.588204e+02 -8.437789e+02
1.302630e+03 7.382983e+02 -7.129125e+02
1.302495e+03 7.373240e+02 -7.130934e+02
1.303031e+03 7.086006e+02 -5.839402e+02
1.302891e+03 7.076418e+02 -5.841879e+02
1.303235e+03 6.692824e+02 -4.577827e+02
1.303089e+03 6.683447e+02 -4.580985e+02
1.303036e+03 6.209621e+02 -3.345606e+02
1.302886e+03 6.200520e+02 -3.349469e+02
1.303432e+03 5.663601e+02 -2.255750e+02
1.303254e+03 5.655240e+02 -2.260940e+02
1.304217e+03 4.751556e+02 -1.224411e+02
1.303992e+03 4.745922e+02 -1.232362e+02
1.303074e+03 3.566614e+02 -9.133930e+01
1.302847e+03 3.565670e+02 -9.230876e+01
1.302411e+03 2.370807e+02 -1.126226e+02
1.302193e+03 2.374814e+02 -1.135125e+02
1.302445e+03 1.681426e+02 -1.823140e+02
1.302277e+03 1.689677e+02 -1.828531e+02
1.302450e+03 1.372077e+02 -2.967059e+02
1.302363e+03 1.381767e+02 -2.969368e+02
1.302387e+03 1.139263e+02 -4.600898e+02
1.302350e+03 1.149165e+02 -4.602252e+02
1.302026e+03 1.079217e+02 -5.271211e+02
1.302012e+03 1.089157e+02 -5.272297e+02
1.160494e+03 1.116597e+03 -1.874864e+03
1.160415e+03 1.115694e+03 -1.875286e+03
1.162296e+03 1.057868e+03 -1.749610e+03
1.162206e+03 1.056976e+03 -1.750053e+03
1.163419e+03 9.984674e+02 -1.633538e+03
1.163317e+03 9.975935e+02 -1.634014e+03
1.163961e+03 9.377589e+02 -1.524425e+03
1.163845e+03 9.368915e+02 -1.524909e+03
1.164078e+03 8.817890e+02 -1.418545e+03
1.163947e+03 8.808958e+02 -1.418975e+03
1.163905e+03 8.389303e+02 -1.310749e+03
1.163768e+03 8.379873e+02 -1.311053e+03
1.163687e+03 8.137940e+02 -1.192060e+03
1.163554e+03 8.128165e+02 -1.192223e+03
1.163728e+03 8.012961e+02 -1.065016e+03
1.163594e+03 8.003096e+02 -1.065110e+03
1.164122e+03 7.892522e+02 -9.298231e+02
1.163983e+03 7.882674e+02 -9.299266e+02
1.164830e+03 7.708389e+02 -7.950660e+02
1.164691e+03 7.698596e+02 -7.952127e+02
1.165493e+03 7.463802e+02 -6.632953e+02
1.165355e+03 7.454102e+02 -6.634959e+02
1.165956e+03 7.135600e+02 -5.320199e+02
1.165813e+03 7.126073e+02 -5.322879e+02
1.166032e+03 6.702179e+02 -4.033201e+02
1.165882e+03 6.692894e+02 -4.036596e+02
1.165459e+03 6.167102e+02 -2.770960e+02
1.165302e+03 6.158158e+02 -2.775148e+02
1.166187e+03 5.549469e+02 -1.676319e+02
1.165991e+03 5.541602e+02 -1.682172e+02
1.167161e+03 4.554396e+02 -8.302644e+01
1.166920e+03 4.549890e+02 -8.388608e+01
1.165531e+03 3.244769e+02 -6.674130e+01
1.165302e+03 3.244970e+02 -6.771435e+01
1.164785e+03 2.088476e+02 -9.950245e+01
1.164564e+03 2.093611e+02 -1.003314e+02
1.165009e+03 1.524381e+02 -1.824247e+02
1.164851e+03 1.533247e+02 -1.828593e+02
1.165227e+03 1.271920e+02 -3.125509e+02
1.165150e+03 1.281740e+02 -3.127233e+02
1.165171e+03 1.108724e+02 -4.772231e+02
1.165140e+03 1.118674e+02 -4.773182e+02
1.164915e+03 1.083254e+02 -5.264096e+02
1.164907e+03 1.093229e+02 -5.264800e+02
1.024833e+03 1.125892e+03 -1.867514e+03
1.024754e+03 1.124985e+03 -1.867926e+03
1.026028e+03 1.068794e+03 -1.742332e+03
1.025938e+03 1.067896e+03 -1.742764e+03
1.026769e+03 1.010895e+03 -1.625457e+03
1.026668e+03 1.010013e+03 -1.625917e+03
1.027071e+03 9.508586e+02 -1.512446e+03
1.026957e+03 9.499801e+02 -1.512910e+03
1.026908e+03 8.939947e+02 -1.398116e+03
1.026779e+03 8.930886e+02 -1.398519e+03
1.026495e+03 8.512008e+02 -1.279591e+03
1.026360e+03 8.502478e+02 -1.279863e+03
1.026071e+03 8.272783e+02 -1.144660e+03
1.025939e+03 8.262969e+02 -1.144800e+03
1.026205e+03 8.167098e+02 -1.021291e+03
1.026071e+03 8.157231e+02 -1.021383e+03
1.026713e+03 8.029415e+02 -8.822946e+02
1.026571e+03 8.019586e+02 -8.824125e+02
1.027550e+03 7.817106e+02 -7.480187e+02
1.027408e+03 7.807347e+02 -7.481849e+02
1.028307e+03 7.552364e+02 -6.184001e+02
1.028168e+03 7.542704e+02 -6.186180e+02
1.028786e+03 7.201597e+02 -4.866282e+02
1.028642e+03 7.192124e+02 -4.869143e+02
1.028602e+03 6.725902e+02 -3.538800e+02
1.028451e+03 6.716702e+02 -3.542414e+02
1.027204e+03 6.145316e+02 -2.255919e+02
1.027040e+03 6.136554e+02 -2.260450e+02
1.028471e+03 5.412151e+02 -1.113639e+02
1.028257e+03 5.404964e+02 -1.120252e+02
1.029428e+03 4.303410e+02 -4.627241e+01
1.029180e+03 4.300161e+02 -4.718494e+01
1.027102e+03 2.927691e+02 -4.405684e+01
1.026876e+03 2.929024e+02 -4.502188e+01
1.026910e+03 1.789275e+02 -9.244298e+01
1.026693e+03 1.795634e+02 -9.318378e+01
1.027580e+03 1.365265e+02 -1.966635e+02
1.027439e+03 1.374646e+02 -1.969801e+02
1.027833e+03 1.187877e+02 -3.291341e+02
1.027768e+03 1.197784e+02 -3.292538e+02
1.027963e+03 1.092236e+02 -4.942981e+02
1.027931e+03 1.102207e+02 -4.943675e+02
1.027829e+03 1.087303e+02 -5.256885e+02
1.027824e+03 1.097289e+02 -5.257402e+02
3.000000e+02 0.000000e+00 -3.000000e+01
3.000000e+02 0.000000e+00 7.000000e+01
3.000000e+02 0.000000e+00 1.700000e+02
3.000000e+02 0.000000e+00 2.700000e+02
3.000000e+02 0.000000e+00 3.700000e+02
3.000000e+02 0.000000e+00 4.700000e+02
3.000000e+02 1.000000e+02 -3.000000e+01
3.000000e+02 1.000000e+02 7.000000e+01
3.000000e+02 1.000000e+02 1.700000e+02
3.000000e+02 1.000000e+02 2.700000e+02
3.000000e+02 1.000000e+02 3.700000e+02
3.000000e+02 1.000000e+02 4.700000e+02
3.000000e+02 2.000000e+02 -3.000000e+01
3.000000e+02 2.000000e+02 7.000000e+01
3.000000e+02 2.000000e+02 1.700000e+02
3.000000e+02 2.000000e+02 2.700000e+02
3.000000e+02 2.000000e+02 3.700000e+02
3.000000e+02 2.000000e+02 4.700000e+02
3.000000e+02 3.000000e+02 -3.000000e+01
3.000000e+02 3.000000e+02 7.000000e+01
3.000000e+02 3.000000e+02 1.700000e+02
3.000000e+02 3.000000e+02 2.700000e+02
3.000000e+02 3.000000e+02 3.700000e+02
3.000000e+02 3.000000e+02 4.700000e+02
3.000000e+02 4.000000e+02 -3.000000e+01
3.000000e+02 4.000000e+02 7.000000e+01
3.000000e+02 4.000000e+02 1.700000e+02
3.000000e+02 4.000000e+02 2.700000e+02
3.000000e+02 4.000000e+02 3.700000e+02
3.000000e+02 4.000000e+02 4.700000e+02
3.000000e+02 5.000000e+02 -3.000000e+01
3.000000e+02 5.000000e+02 7.000000e+01
3.000000e+02 5.000000e+02 1.700000e+02
3.000000e+02 5.000000e+02 2.700000e+02
3.000000e+02 5.000000e+02 3.700000e+02
3.000000e+02 5.000000e+02 4.700000e+02
3.000000e+02 6.000000e+02 -3.000000e+01
3.000000e+02 6.000000e+02 7.000000e+01
3.000000e+02 6.000000e+02 1.700000e+02
3.000000e+02 6.000000e+02 2.700000e+02
3.000000e+02 6.000000e+02 3.700000e+02
3.000000e+02 6.000000e+02 4.700000e+02
3.000000e+02 7.000000e+02 -3.000000e+01
3.000000e+02 7.000000e+02 7.000000e+01
3.000000e+02 7.000000e+02 1.700000e+02
3.000000e+02 7.000000e+02 2.700000e+02
3.000000e+02 7.000000e+02 3.700000e+02
3.000000e+02 7.000000e+02 4.700000e+02
3.000000e+02 8.000000e+02 -3.000000e+01
3.000000e+02 8.000000e+02 7.000000e+01
3.000000e+02 8.000000e+02 1.700000e+02
3.000000e+02 8.000000e+02 2.700000e+02
3.000000e+02 8.000000e+02 3.700000e+02
3.000000e+02 8.000000e+02 4.700000e+02
3.000000e+02 9.000000e+02 -3.000000e+01
3.000000e+02 9.000000e+02 7.000000e+01
3.000000e+02 9.000000e+02 1.700000e+02
3.000000e+02 9.000000e+02 2.700000e+02
3.000000e+02 9.000000e+02 3.700000e+02
3.000000e+02 9.000000e+02 4.700000e+02
3.000000e+02 1.000000e+03 -3.000000e+01
3.000000e+02 1.000000e+03 7.000000e+01
3.000000e+02 1.000000e+03 1.700000e+02
3.000000e+02 1.000000e+03 2.700000e+02
3.000000e+02 1.000000e+03 3.700000e+02
3.000000e+02 1.000000e+03 4.700000e+02
4.000000e+02 0.000000e+00 -3.000000e+01
4.000000e+02 0.000000e+00 7.000000e+01
4.000000e+02 0.000000e+00 1.700000e+02
4.000000e+02 0.000000e+00 2.700000e+02
4.000000e+02 0.000000e+00 3.700000e+02
4.000000e+02 0.000000e+00 4.700000e+02
4.000000e+02 1.000000e+02 -3.000000e+01
4.000000e+02 1.000000e+02 7.000000e+01
4.000000e+02 1.000000e+02 1.700000e+02
4.000000e+02 1.000000e+02 2.700000e+02
4.000000e+02 1.000000e+02 3.700000e+02
4.000000e+02 1.000000e+02 4.700000e+02
4.000000e+02 2.000000e+02 -3.000000e+01
4.000000e+02 2.000000e+02 7.000000e+01
4.000000e+02 2.000000e+02 1.700000e+02
4.000000e+02 2.000000e+02 2.700000e+02
4.000000e+02 2.000000e+02 3.700000e+02
4.000000e+02 2.000000e+02 4.700000e+02
4.000000e+02 3.000000e+02 -3.000000e+01
4.000000e+02 3.000000e+02 7.000000e+01
4.000000e+02 3.000000e+02 1.700000e+02
4.000000e+02 3.000000e+02 2.700000e+02
4.000000e+02 3.000000e+02 3.700000e+02
4.000000e+02 3.000000e+02 4.700000e+02
4.000000e+02 4.000000e+02 -3.000000e+01
4.000000e+02 4.000000e+02 7.000000e+01
4.000000e+02 4.000000e+02 1.700000e+02
4.000000e+02 4.000000e+02 2.700000e+02
4.000000e+02 4.000000e+02 3.700000e+02
4.000000e+02 4.000000e+02 4.700000e+02
4.000000e+02 5.000000e+02 -3.000000e+01
4.000000e+02 5.000000e+02 7.000000e+01
4.000000e+02 5.000000e+02 1.700000e+02
4.000000e+02 5.000000e+02 2.700000e+02
4.000000e+02 5.000000e+02 3.700000e+02
4.000000e+02 5.000000e+02 4.700000e+02
4.000000e+02 6.000000e+02 -3.000000e+01
4.000000e+02 6.000000e+02 7.000000e+01
4.000000e+02 6.000000e+02 1.700000e+02
4.000000e+02 6.000000e+02 2.700000e+02
4.000000e+02 6.000000e+02 3.700000e+02
4.000000e+02 6.000000e+02 4.700000e+02
4.000000e+02 7.000000e+02 -3.000000e+01
4.000000e+02 7.000000e+02 7.000000e+01
4.000000e+02 7.000000e+02 1.700000e+02
4.000000e+02 7.000000e+02 2.700000e+02
4.000000e+02 7.000000e+02 3.700000e+02
4.000000e+02 7.000000e+02 4.700000e+02
4.000000e+02 8.000000e+02 -3.000000e+01
4.000000e+02 8.000000e+02 7.000000e+01
4.000000e+02 8.000000e+02 1.700000e+02
4.000000e+02 8.000000e+02 2.700000e+02
4.000000e+02 8.000000e+02 3.700000e+02
4.000000e+02 8.000000e+02 4.700000e+02
4.000000e+02 9.000000e+02 -3.000000e+01
4.000000e+02 9.000000e+02 7.000000e+01
4.000000e+02 9.000000e+02 1.700000e+02
4.000000e+02 9.000000e+02 2.700000e+02
4.000000e+02 9.000000e+02 3.700000e+02
4.000000e+02 9.000000e+02 4.700000e+02
4.000000e+02 1.000000e+03 -3.000000e+01
4.000000e+02 1.000000e+03 7.000000e+01
4.000000e+02 1.000000e+03 1.700000e+02
4.000000e+02 1.000000e+03 2.700000e+02
4.000000e+02 1.000000e+03 3.700000e+02
4.000000e+02 1.000000e+03 4.700000e+02
5.000000e+02 0.000000e+00 -3.000000e+01
5.000000e+02 0.000000e+00 7.000000e+01
5.000000e+02 0.000000e+00 1.700000e+02
5.000000e+02 0.000000e+00 2.700000e+02
5.000000e+02 0.000000e+00 3.700000e+02
5.000000e+02 0.000000e+00 4.700000e+02
5.000000e+02 1.000000e+02 -3.000000e+01
5.000000e+02 1.000000e+02 7.000000e+01
5.000000e+02 1.000000e+02 1.700000e+02
5.000000e+02 1.000000e+02 2.700000e+02
5.000000e+02 1.000000e+02 3.700000e+02
5.000000e+02 1.000000e+02 4.700000e+02
5.000000e+02 2.000000e+02 -3.000000e+01
5.000000e+02 2.000000e+02 7.000000e+01
5.000000e+02 2.000000e+02 1.700000e+02
5.000000e+02 2.000000e+02 2.700000e+02
5.000000e+02 2.000000e+02 3.700000e+02
5.000000e+02 2.000000e+02 4.700000e+02
5.000000e+02 3.000000e+02 -3.000000e+01
5.000000e+02 3.000000e+02 7.000000e+01
5.000000e+02 3.000000e+02 1.700000e+02
5.000000e+02 3.000000e+02 2.700000e+02
5.000000e+02 3.000000e+02 3.700000e+02
5.000000e+02 3.000000e+02 4.700000e+02
5.000000e+02 4.000000e+02 -3.000000e+01
5.000000e+02 4.000000e+02 7.000000e+01
5.000000e+02 4.000000e+02 1.700000e+02
5.000000e+02 4.000000e+02 2.700000e+02
5.000000e+02 4.000000e+02 3.700000e+02
5.000000e+02 4.000000e+02 4.700000e+02
5.000000e+02 5.000000e+02 -3.000000e+01
5.000000e+02 5.000000e+02 7.000000e+01
5.000000e+02 5.000000e+02 1.700000e+02
5.000000e+02 5.000000e+02 2.700000e+02
5.000000e+02 5.000000e+02 3.700000e+02
5.000000e+02 5.000000e+02 4.700000e+02
5.000000e+02 6.000000e+02 -3.000000e+01
5.000000e+02 6.000000e+02 7.000000e+01
5.000000e+02 6.000000e+02 1.700000e+02
5.000000e+02 6.000000e+02 2.700000e+02
5.000000e+02 6.000000e+02 3.700000e+02
5.000000e+02 6.000000e+02 4.700000e+02
5.000000e+02 7.000000e+02 -3.000000e+01
5.000000e+02 7.000000e+02 7.000000e+01
5.000000e+02 7.000000e+02 1.700000e+02
5.000000e+02 7.000000e+02 2.700000e+02
5.000000e+02 7.000000e+02 3.700000e+02
5.000000e+02 7.000000e+02 4.700000e+02
5.000000e+02 8.000000e+02 -3.000000e+01
5.000000e+02 8.000000e+02 7.000000e+01
5.000000e+02 8.000000e+02 1.700000e+02
5.000000e+02 8.000000e+02 2.700000e+02
5.000000e+02 8.000000e+02 3.700000e+02
5.000000e+02 8.000000e+02 4.700000e+02
5.000000e+02 9.000000e+02 -3.000000e+01
5.000000e+02 9.000000e+02 7.000000e+01
5.000000e+02 9.000000e+02 1.700000e+02
5.000000e+02 9.000000e+02 2.700000e+02
5.000000e+02 9.000000e+02 3.700000e+02
5.000000e+02 9.000000e+02 4.700000e+02
5.000000e+02 1.000000e+03 -3.000000e+01
5.000000e+02 1.000000e+03 7.000000e+01
5.000000e+02 1.000000e+03 1.700000e+02
5.000000e+02 1.000000e+03 2.700000e+02
5.000000e+02 1.000000e+03 3.700000e+02
5.000000e+02 1.000000e+03 4.700000e+02
6.000000e+02 0.000000e+00 -3.000000e+01
6.000000e+02 0.000000e+00 7.000000e+01
6.000000e+02 0.000000e+00 1.700000e+02
6.000000e+02 0.000000e+00 2.700000e+02
6.000000e+02 0.000000e+00 3.700000e+02
6.000000e+02 0.000000e+00 4.700000e+02
6.000000e+02 1.000000e+02 -3.000000e+01
6.000000e+02 1.000000e+02 7.000000e+01
6.000000e+02 1.000000e+02 1.700000e+02
6.000000e+02 1.000000e+02 2.700000e+02
6.000000e+02 1.000000e+02 3.700000e+02
6.000000e+02 1.000000e+02 4.700000e+02
6.000000e+02 2.000000e+02 -3.000000e+01
6.000000e+02 2.000000e+02 7.000000e+01
6.000000e+02 2.000000e+02 1.700000e+02
6.000000e+02 2.000000e+02 2.700000e+02
6.000000e+02 2.000000e+02 3.700000e+02
6.000000e+02 2.000000e+02 4.700000e+02
6.000000e+02 3.000000e+02 -3.000000e+01
6.000000e+02 3.000000e+02 7.000000e+01
6.000000e+02 3.000000e+02 1.700000e+02
6.000000e+02 3.000000e+02 2.700000e+02
6.000000e+02 3.000000e+02 3.700000e+02
6.000000e+02 3.000000e+02 4.700000e+02
6.000000e+02 4.000000e+02 -3.000000e+01
6.000000e+02 4.000000e+02 7.000000e+01
6.000000e+02 4.000000e+02 1.700000e+02
6.000000e+02 4.000000e+02 2.700000e+02
6.000000e+02 4.000000e+02 3.700000e+02
6.000000e+02 4.000000e+02 4.700000e+02
6.000000e+02 5.000000e+02 -3.000000e+01
6.000000e+02 5.000000e+02 7.000000e+01
6.000000e+02 5.000000e+02 1.700000e+02
6.000000e+02 5.000000e+02 2.700000e+02
6.000000e+02 5.000000e+02 3.700000e+02
6.000000e+02 5.000000e+02 4.700000e+02
6.000000e+02 6.000000e+02 -3.000000e+01
6.000000e+02 6.000000e+02 7.000000e+01
6.000000e+02 6.000000e+02 1.700000e+02
6.000000e+02 6.000000e+02 2.700000e+02
6.000000e+02 6.000000e+02 3.700000e+02
6.000000e+02 6.000000e+02 4.700000e+02
6.000000e+02 7.000000e+02 -3.000000e+01
6.000000e+02 7.000000e+02 7.000000e+01
6.000000e+02 7.000000e+02 1.700000e+02
6.000000e+02 7.000000e+02 2.700000e+02
6.000000e+02 7.000000e+02 3.700000e+02
6.000000e+02 7.000000e+02 4.700000e+02
6.000000e+02 8.000000e+02 -3.000000e+01
6.000000e+02 8.000000e+02 7.000000e+01
6.000000e+02 8.000000e+02 1.700000e+02
6.000000e+02 8.000000e+02 2.700000e+02
6.000000e+02 8.000000e+02 3.700000e+02
6.000000e+02 8.000000e+02 4.700000e+02
6.000000e+02 9.000000e+02 -3.000000e+01
6.000000e+02 9.000000e+02 7.000000e+01
6.000000e+02 9.000000e+02 1.700000e+02
6.000000e+02 9.000000e+02 2.700000e+02
6.000000e+02 9.000000e+02 3.700000e+02
6.000000e+02 9.000000e+02 4.700000e+02
6.000000e+02 1.000000e+03 -3.000000e+01
6.000000e+02 1.000000e+03 7.000000e+01
6.000000e+02 1.000000e+03 1.700000e+02
6.000000e+02 1.000000e+03 2.700000e+02
6.000000e+02 1.000000e+03 3.700000e+02
6.000000e+02 1.000000e+03 4.700000e+02
7.000000e+02 0.000000e+00 -3.000000e+01
7.000000e+02 0.000000e+00 7.000000e+01
7.000000e+02 0.000000e+00 1.700000e+02
7.000000e+02 0.000000e+00 2.700000e+02
7.000000e+02 0.000000e+00 3.700000e+02
7.000000e+02 0.000000e+00 4.700000e+02
7.000000e+02 1.000000e+02 -3.000000e+01
7.000000e+02 1.000000e+02 7.000000e+01
7.000000e+02 1.000000e+02 1.700000e+02
7.000000e+02 1.000000e+02 2.700000e+02
7.000000e+02 1.000000e+02 3.700000e+02
7.000000e+02 1.000000e+02 4.700000e+02
7.000000e+02 2.000000e+02 -3.000000e+01
7.000000e+02 2.000000e+02 7.000000e+01
7.000000e+02 2.000000e+02 1.700000e+02
7.000000e+02 2.000000e+02 2.700000e+02
7.000000e+02 2.000000e+02 3.700000e+02
7.000000e+02 2.000000e+02 4.700000e+02
7.000000e+02 3.000000e+02 -3.000000e+01
7.000000e+02 3.000000e+02 7.000000e+01
7.000000e+02 3.000000e+02 1.700000e+02
7.000000e+02 3.000000e+02 2.700000e+02
7.000000e+02 3.000000e+02 3.700000e+02
7.000000e+02 3.000000e+02 4.700000e+02
7.000000e+02 4.000000e+02 -3.000000e+01
7.000000e+02 4.000000e+02 7.000000e+01
7.000000e+02 4.000000e+02 1.700000e+02
7.000000e+02 4.000000e+02 2.700000e+02
7.000000e+02 4.000000e+02 3.700000e+02
7.000000e+02 4.000000e+02 4.700000e+02
7.000000e+02 5.000000e+02 -3.000000e+01
7.000000e+02 5.000000e+02 7.000000e+01
7.000000e+02 5.000000e+02 1.700000e+02
7.000000e+02 5.000000e+02 2.700000e+02
7.000000e+02 5.000000e+02 3.700000e+02
7.000000e+02 5.000000e+02 4.700000e+02
7.000000e+02 6.000000e+02 -3.000000e+01
7.000000e+02 6.000000e+02 7.000000e+01
7.000000e+02 6.000000e+02 1.700000e+02
7.000000e+02 6.000000e+02 2.700000e+02
7.000000e+02 6.000000e+02 3.700000e+02
7.000000e+02 6.000000e+02 4.700000e+02
7.000000e+02 7.000000e+02 -3.000000e+01
7.000000e+02 7.000000e+02 7.000000e+01
7.000000e+02 7.000000e+02 1.700000e+02
7.000000e+02 7.000000e+02 2.700000e+02
7.000000e+02 7.000000e+02 3.700000e+02
7.000000e+02 7.000000e+02 4.700000e+02
7.000000e+02 8.000000e+02 -3.000000e+01
7.000000e+02 8.000000e+02 7.000000e+01
7.000000e+02 8.000000e+02 1.700000e+02
7.000000e+02 8.000000e+02 2.700000e+02
7.000000e+02 8.000000e+02 3.700000e+02
7.000000e+02 8.000000e+02 4.700000e+02
7.000000e+02 9.000000e+02 -3.000000e+01
7.000000e+02 9.000000e+02 7.000000e+01
7.000000e+02 9.000000e+02 1.700000e+02
7.000000e+02 9.000000e+02 2.700000e+02
7.000000e+02 9.000000e+02 3.700000e+02
7.000000e+02 9.000000e+02 4.700000e+02
7.000000e+02 1.000000e+03 -3.000000e+01
7.000000e+02 1.000000e+03 7.000000e+01
7.000000e+02 1.000000e+03 1.700000e+02
7.000000e+02 1.000000e+03 2.700000e+02
7.000000e+02 1.000000e+03 3.700000e+02
7.000000e+02 1.000000e+03 4.700000e+02
8.000000e+02 0.000000e+00 -3.000000e+01
8.000000e+02 0.000000e+00 7.000000e+01
8.000000e+02 0.000000e+00 1.700000e+02
8.000000e+02 0.000000e+00 2.700000e+02
8.000000e+02 0.000000e+00 3.700000e+02
8.000000e+02 0.000000e+00 4.700000e+02
8.000000e+02 1.000000e+02 -3.000000e+01
8.000000e+02 1.000000e+02 7.000000e+01
8.000000e+02 1.000000e+02 1.700000e+02
8.000000e+02 1.000000e+02 2.700000e+02
8.000000e+02 1.000000e+02 3.700000e+02
8.000000e+02 1.000000e+02 4.700000e+02
8.000000e+02 2.000000e+02 -3.000000e+01
8.000000e+02 2.000000e+02 7.000000e+01
8.000000e+02 2.000000e+02 1.700000e+02
8.000000e+02 2.000000e+02 2.700000e+02
8.000000e+02 2.000000e+02 3.700000e+02
8.000000e+02 2.000000e+02 4.700000e+02
8.000000e+02 3.000000e+02 -3.000000e+01
8.000000e+02 3.000000e+02 7.000000e+01
8.000000e+02 3.000000e+02 1.700000e+02
8.000000e+02 3.000000e+02 2.700000e+02
8.000000e+02 3.000000e+02 3.700000e+02
8.000000e+02 3.000000e+02 4.700000e+02
8.000000e+02 4.000000e+02 -3.000000e+01
8.000000e+02 4.000000e+02 7.000000e+01
8.000000e+02 4.000000e+02 1.700000e+02
8.000000e+02 4.000000e+02 2.700000e+02
8.000000e+02 4.000000e+02 3.700000e+02
8.000000e+02 4.000000e+02 4.700000e+02
8.000000e+02 5.000000e+02 -3.000000e+01
8.000000e+02 5.000000e+02 7.000000e+01
8.000000e+02 5.000000e+02 1.700000e+02
8.000000e+02 5.000000e+02 2.700000e+02
8.000000e+02 5.000000e+02 3.700000e+02
8.000000e+02 5.000000e+02 4.700000e+02
8.000000e+02 6.000000e+02 -3.000000e+01
8.000000e+02 6.000000e+02 7.000000e+01
8.000000e+02 6.000000e+02 1.700000e+02
8.000000e+02 6.000000e+02 2.700000e+02
8.000000e+02 6.000000e+02 3.700000e+02
8.000000e+02 6.000000e+02 4.700000e+02
8.000000e+02 7.000000e+02 -3.000000e+01
8.000000e+02 7.000000e+02 7.000000e+01
8.000000e+02 7.000000e+02 1.700000e+02
8.000000e+02 7.000000e+02 2.700000e+02
8.000000e+02 7.000000e+02 3.700000e+02
8.000000e+02 7.000000e+02 4.700000e+02
8.000000e+02 8.000000e+02 -3.000000e+01
8.000000e+02 8.000000e+02 7.000000e+01
8.000000e+02 8.000000e+02 1.700000e+02
8.000000e+02 8.000000e+02 2.700000e+02
8.000000e+02 8.000000e+02 3.700000e+02
8.000000e+02 8.000000e+02 4.700000e+02
8.000000e+02 9.000000e+02 -3.000000e+01
8.000000e+02 9.000000e+02 7.000000e+01
8.000000e+02 9.000000e+02 1.700000e+02
8.000000e+02 9.000000e+02 2.700000e+02
8.000000e+02 9.000000e+02 3.700000e+02
8.000000e+02 9.000000e+02 4.700000e+02
8.000000e+02 1.000000e+03 -3.000000e+01
8.000000e+02 1.000000e+03 7.000000e+01
8.000000e+02 1.000000e+03 1.700000e+02
8.000000e+02 1.000000e+03 2.700000e+02
8.000000e+02 1.000000e+03 3.700000e+02
8.000000e+02 1.000000e+03 4.700000e+02
CELLS 912 8208
8 0 1 2 3 4 5 6 7
8 8 9 10 11 12 13 14 15
8 11 16 17 18 15 19 20 21
8 22 23 24 25 26 27 28 29
8 30 24 23 31 32 28 27 33
8 34 22 25 35 36 26 29 37
8 38 39 40 41 42 43 44 45
8 46 47 48 49 50 51 52 53
8 54 55 56 57 58 59 60 61
8 57 62 18 63 61 64 21 65
8 8 11 18 62 12 15 21 64
8 66 56 1 0 67 60 5 4
8 68 62 66 69 70 64 67 71
8 62 57 56 66 64 61 60 67
8 8 62 68 9 12 64 70 13
8 68 69 72 73 70 71 74 75
8 73 76 9 68 75 77 13 70
8 10 9 76 78 14 13 77 79
8 24 16 80 25 28 19 81 29
8 82 83 84 49 85 86 87 53
8 88 89 90 91 92 93 94 95
8 46 49 84 96 50 53 87 97
8 98 46 96 99 100 50 97 101
8 102 34 35 47 103 36 37 51
8 104 25 80 41 105 29 81 45
8 98 102 47 46 100 103 51 50
8 63 18 17 30 65 21 20 32
8 41 40 106 104 45 44 107 105
8 40 49 48 106 44 53 52 107
8 108 90 82 39 109 94 85 43
8 110 54 57 63 111 58 61 65
8 17 16 24 30 20 19 28 32
8 25 104 106 35 29 105 107 37
8 69 66 0 112 71 67 4 113
8 31 110 63 30 33 111 65 32
8 90 108 114 91 94 109 115 95
8 89 83 82 90 93 86 85 94
8 116 72 69 112 117 74 71 113
8 108 39 38 114 109 43 42 115
8 3 116 112 0 7 117 113 4
8 2 1 56 55 6 5 60 59
8 47 35 106 48 51 37 107 52
8 39 82 49 40 43 85 53 44
8 99 96 118 119 101 97 120 121
8 96 84 122 118 97 87 123 120
8 84 83 124 122 87 86 125 123
8 83 89 126 124 86 93 127 125
8 89 88 128 126 93 92 129 127
8 119 118 130 131 121 120 132 133
8 118 122 134 130 120 123 135 132
8 122 124 136 134 123 125 137 135
8 124 126 138 136 125 127 139 137
8 126 128 140 138 127 129 141 139
8 131 130 142 143 133 132 144 145
8 130 134 146 142 132 135 147 144
8 134 136 148 146 135 137 149 147
8 136 138 150 148 137 139 151 149
8 138 140 152 150 139 141 153 151
8 143 142 154 155 145 144 156 157
8 142 146 158 154 144 147 159 156
8 146 148 160 158 147 149 161 159
8 148 150 162 160 149 151 163 161
8 150 152 164 162 151 153 165 163
8 155 154 166 167 157 156 168 169
8 154 158 170 166 156 159 171 168
8 158 160 172 170 159 161 173 171
8 160 162 174 172 161 163 175 173
8 162 164 176 174 163 165 177 175
8 167 166 178 179 169 168 180 181
8 166 170 182 178 168 171 183 180
8 170 172 184 182 171 173 185 183
8 172 174 186 184 173 175 187 185
8 174 176 188 186 175 177 189 187
8 179 178 190 191 181 180 192 193
8 178 182 194 190 180 183 195 192
8 182 184 196 194 183 185 197 195
8 184 186 198 196 185 187 199 197
8 186 188 200 198 187 189 201 199
8 191 190 202 203 193 192 204 205
8 190 194 206 202 192 195 207 204
8 194 196 208 206 195 197 209 207
8 196 198 210 208 197 199 211 209
8 198 200 212 210 199 201 213 211
8 203 202 214 215 205 204 216 217
8 202 206 218 214 204 207 219 216
8 206 208 220 218 207 209 221 219
8 208 210 222 220 209 211 223 221
8 210 212 224 222 211 213 225 223
8 215 214 226 227 217 216 228 229
8 214 218 230 226 216 219 231 228
8 218 220 232 230 219 221 233 231
8 220 222 234 232 221 223 235 233
8 222 224 236 234 223 225 237 235
8 227 226 238 239 229 228 240 241
8 226 230 242 238 228 231 243 240
8 230 232 244 242 231 233 245 243
8 232 234 246 244 233 235 247 245
8 234 236 248 246 235 237 249 247
8 239 238 250 251 241 240 252 253
8 238 242 254 250 240 243 255 252
8 242 244 256 254 243 245 257 255
8 244 246 258 256 245 247 259 257
8 246 248 260 258 247 249 261 259
8 251 250 262 263 253 252 264 265
8 250 254 266 262 252 255 267 264
8 254 256 268 266 255 257 269 267
8 256 258 270 268 257 259 271 269
8 258 260 272 270 259 261 273 271
8 263 262 274 275 265 264 276 277
8 262 266 278 274 264 267 279 276
8 266 268 280 278 267 269 281 279
8 268 270 282 280 269 271 283 281
8 270 272 284 282 271 273 285 283
8 286 287 288 289 290 291 292 293
8 287 294 295 288 291 296 297 292
8 294 203 215 295 296 205 217 297
8 289 288 298 299 293 292 300 301
8 288 295 302 298 292 297 303 300
8 295 215 227 302 297 217 229 303
8 299 298 304 305 301 300 306 307
8 298 302 308 304 300 303 309 306
8 302 227 239 308 303 229 241 309
8 305 304 310 311 307 306 312 313
8 304 308 314 310 306 309 315 312
8 308 239 251 314 309 241 253 315
8 311 310 316 317 313 312 318 319
8 310 314 320 316 312 315 321 318
8 314 251 263 320 315 253 265 321
8 317 316 322 323 319 318 324 325
8 316 320 326 322 318 321 327 324
8 320 263 275 326 321 265 277 327
8 119 131 328 329 121 133 330 331
8 131 143 332 328 133 145 333 330
8 143 155 334 332 145 157 335 333
8 155 167 336 334 157 169 337 335
8 167 179 338 336 169 181 339 337
8 179 191 340 338 181 193 341 339
8 191 203 294 340 193 205 296 341
8 329 328 342 343 331 330 344 345
8 328 332 346 342 330 333 347 344
8 332 334 348 346 333 335 349 347
8 334 336 350 348 335 337 351 349
8 336 338 352 350 337 339 353 351
8 338 340 354 352 339 341 355 353
8 340 294 287 354 341 296 291 355
8 287 286 356 354 291 290 357 355
8 354 356 358 352 355 357 359 353
8 352 358 360 350 353 359 361 351
8 350 360 362 348 351 361 363 349
8 348 362 364 346 349 363 365 347
8 346 364 366 342 347 365 367 344
8 342 366 368 343 344 367 369 345
8 368 370 329 343 369 371 331 345
8 370 99 119 329 371 101 121 331
8 372 373 374 375 376 377 378 379
8 380 381 382 383 384 385 386 387
8 388 389 390 391 392 393 394 395
8 391 396 397 398 395 399 400 401
8 402 398 397 403 404 401 400 405
8 406 407 408 409 410 411 412 413
8 414 388 402 415 416 392 404 417
8 390 389 418 419 394 393 420 421
8 422 382 423 424 425 386 426 427
8 428 383 382 422 429 387 386 425
8 383 428 430 431 387 429 432 433
8 434 408 407 435 436 412 411 437
8 408 434 438 403 412 436 439 405
8 409 397 396 440 413 400 399 441
8 442 443 440 444 445 446 441 447
8 448 449 450 451 452 453 454 455
8 456 451 450 457 458 455 454 459
8 440 443 460 409 441 446 461 413
8 462 463 464 465 466 467 468 469
8 406 409 460 456 410 413 461 458
8 443 442 448 451 446 445 452 455
8 457 450 449 470 459 454 453 471
8 451 456 460 443 455 458 461 446
8 462 465 435 407 466 469 437 411
8 414 472 389 388 416 473 393 392
8 474 418 389 472 475 420 393 473
8 418 474 372 375 420 475 376 379
8 424 423 374 476 427 426 378 477
8 373 478 476 374 377 479 477 378
8 403 438 415 402 405 439 417 404
8 397 409 408 403 400 413 412 405
8 388 391 398 402 392 395 401 404
8 382 381 480 423 386 385 481 426
8 457 470 464 463 459 471 468 467
8 456 457 463 406 458 459 467 410
8 406 463 462 407 410 467 466 411
8 419 418 381 380 421 420 385 384
8 375 480 381 418 379 481 385 420
8 374 423 480 375 378 426 481 379
8 478 482 483 476 479 484 485 477
8 482 486 487 483 484 488 489 485
8 486 490 491 487 488 492 493 489
8 490 494 495 491 492 496 497 493
8 494 498 499 495 496 500 501 497
8 498 502 503 499 500 504 505 501
8 502 506 507 503 504 508 509 505
8 506 510 511 507 508 512 513 509
8 510 514 515 511 512 516 517 513
8 514 518 519 515 516 520 521 517
8 518 522 523 519 520 524 525 521
8 522 526 527 523 524 528 529 525
8 526 530 531 527 528 532 533 529
8 530 534 535 531 532 536 537 533
8 476 483 538 424 477 485 539 427
8 483 487 540 538 485 489 541 539
8 487 491 542 540 489 493 543 541
8 491 495 544 542 493 497 545 543
8 495 499 546 544 497 501 547 545
8 499 503 548 546 501 505 549 547
8 503 507 550 548 505 509 551 549
8 507 511 552 550 509 513 553 551
8 511 515 554 552 513 517 555 553
8 515 519 556 554 517 521 557 555
8 519 523 558 556 521 525 559 557
8 523 527 560 558 525 529 561 559
8 527 531 562 560 529 533 563 561
8 531 535 564 562 533 537 565 563
8 424 538 566 422 427 539 567 425
8 538 540 568 566 539 541 569 567
8 540 542 570 568 541 543 571 569
8 542 544 572 570 543 545 573 571
8 544 546 574 572 545 547 575 573
8 546 548 576 574 547 549 577 575
8 548 550 578 576 549 551 579 577
8 550 552 580 578 551 553 581 579
8 552 554 582 580 553 555 583 581
8 554 556 584 582 555 557 585 583
8 556 558 586 584 557 559 587 585
8 558 560 588 586 559 561 589 587
8 560 562 590 588 561 563 591 589
8 562 564 592 590 563 565 593 591
8 422 566 594 428 425 567 595 429
8 566 568 596 594 567 569 597 595
8 568 570 598 596 569 571 599 597
8 570 572 600 598 571 573 601 599
8 572 574 602 600 573 575 603 601
8 574 576 604 602 575 577 605 603
8 576 578 606 604 577 579 607 605
8 578 580 608 606 579 581 609 607
8 580 582 610 608 581 583 611 609
8 582 584 612 610 583 585 613 611
8 584 586 614 612 585 587 615 613
8 586 588 616 614 587 589 617 615
8 588 590 618 616 589 591 619 617
8 590 592 620 618 591 593 621 619
8 428 594 622 430 429 595 623 432
8 594 596 624 622 595 597 625 623
8 596 598 626 624 597 599 627 625
8 598 600 628 626 599 601 629 627
8 600 602 630 628 601 603 631 629
8 602 604 632 630 603 605 633 631
8 604 606 634 632 605 607 635 633
8 606 608 636 634 607 609 637 635
8 608 610 638 636 609 611 639 637
8 610 612 640 638 611 613 641 639
8 612 614 642 640 613 615 643 641
8 614 616 644 642 615 617 645 643
8 616 618 646 644 617 619 647 645
8 618 620 648 646 619 621 649 647
8 358 356 650 651 359 357 652 653
8 356 286 654 650 357 290 655 652
8 286 289 656 654 290 293 657 655
8 289 299 658 656 293 301 659 657
8 299 305 660 658 301 307 661 659
8 305 311 662 660 307 313 663 661
8 311 317 664 662 313 319 665 663
8 317 323 666 664 319 325 667 665
8 651 650 668 669 653 652 670 671
8 650 654 672 668 652 655 673 670
8 654 656 674 672 655 657 675 673
8 656 658 676 674 657 659 677 675
8 658 660 678 676 659 661 679 677
8 660 662 680 678 661 663 681 679
8 662 664 682 680 663 665 683 681
8 664 666 684 682 665 667 685 683
8 669 668 686 687 671 670 688 689
8 668 672 690 686 670 673 691 688
8 672 674 692 690 673 675 693 691
8 674 676 694 692 675 677 695 693
8 676 678 696 694 677 679 697 695
8 678 680 698 696 679 681 699 697
8 680 682 700 698 681 683 701 699
8 682 684 702 700 683 685 703 701
8 687 686 704 705 689 688 706 707
8 686 690 708 704 688 691 709 706
8 690 692 710 708 691 693 711 709
8 692 694 712 710 693 695 713 711
8 694 696 714 712 695 697 715 713
8 696 698 716 714 697 699 717 715
8 698 700 718 716 699 701 719 717
8 700 702 720 718 701 703 721 719
8 705 704 722 723 707 706 724 725
8 704 708 726 722 706 709 727 724
8 708 710 728 726 709 711 729 727
8 710 712 730 728 711 713 731 729
8 712 714 732 730 713 715 733 731
8 714 716 734 732 715 717 735 733
8 716 718 736 734 717 719 737 735
8 718 720 738 736 719 721 739 737
8 723 722 740 741 725 724 742 743
8 722 726 744 740 724 727 745 742
8 726 728 746 744 727 729 747 745
8 728 730 748 746 729 731 749 747
8 730 732 750 748 731 733 751 749
8 732 734 752 750 733 735 753 751
8 734 736 754 752 735 737 755 753
8 736 738 756 754 737 739 757 755
8 758 759 760 761 762 763 764 765
8 761 760 766 767 765 764 768 769
8 767 766 770 771 769 768 772 773
8 771 770 774 775 773 772 776 777
8 775 774 778 779 777 776 780 781
8 779 778 782 783 781 780 784 785
8 783 782 786 787 785 784 788 789
8 759 790 791 760 763 792 793 764
8 790 510 506 791 792 512 508 793
8 760 791 794 766 764 793 795 768
8 791 506 502 794 793 508 504 795
8 766 794 796 770 768 795 797 772
8 794 502 498 796 795 504 500 797
8 770 796 798 774 772 797 799 776
8 796 498 494 798 797 500 496 799
8 774 798 800 778 776 799 801 780
8 798 494 490 800 799 496 492 801
8 778 800 802 782 780 801 803 784
8 800 490 486 802 801 492 488 803
8 782 802 804 786 784 803 805 788
8 802 486 482 804 803 488 484 805
8 482 478 806 804 484 479 807 805
8 804 806 787 786 805 807 789 788
8 510 790 808 514 512 792 809 516
8 790 759 810 808 792 763 811 809
8 759 758 812 810 763 762 813 811
8 514 808 814 518 516 809 815 520
8 808 810 816 814 809 811 817 815
8 810 812 818 816 811 813 819 817
8 518 814 820 522 520 815 821 524
8 814 816 822 820 815 817 823 821
8 816 818 824 822 817 819 825 823
8 522 820 826 526 524 821 827 528
8 820 822 828 826 821 823 829 827
8 822 824 830 828 823 825 831 829
8 526 826 832 530 528 827 833 532
8 826 828 834 832 827 829 835 833
8 828 830 836 834 829 831 837 835
8 530 832 838 534 532 833 839 536
8 832 834 840 838 833 835 841 839
8 834 836 842 840 835 837 843 841
8 767 844 845 761 769 846 847 765
8 844 848 849 845 846 850 851 847
8 848 852 853 849 850 854 855 851
8 852 856 857 853 854 858 859 855
8 856 860 861 857 858 862 863 859
8 860 741 740 861 862 743 742 863
8 761 845 864 758 765 847 865 762
8 845 849 866 864 847 851 867 865
8 849 853 868 866 851 855 869 867
8 853 857 870 868 855 859 871 869
8 857 861 872 870 859 863 873 871
8 861 740 744 872 863 742 745 873
8 758 864 874 812 762 865 875 813
8 864 866 876 874 865 867 877 875
8 866 868 878 876 867 869 879 877
8 868 870 880 878 869 871 881 879
8 870 872 882 880 871 873 883 881
8 872 744 746 882 873 745 747 883
8 812 874 884 818 813 875 885 819
8 874 876 886 884 875 877 887 885
8 876 878 888 886 877 879 889 887
8 878 880 890 888 879 881 891 889
8 880 882 892 890 881 883 893 891
8 882 746 748 892 883 747 749 893
8 818 884 894 824 819 885 895 825
8 884 886 896 894 885 887 897 895
8 886 888 898 896 887 889 899 897
8 888 890 900 898 889 891 901 899
8 890 892 902 900 891 893 903 901
8 892 748 750 902 893 749 751 903
8 824 894 904 830 825 895 905 831
8 894 896 906 904 895 897 907 905
8 896 898 908 906 897 899 909 907
8 898 900 910 908 899 901 911 909
8 900 902 912 910 901 903 913 911
8 902 750 752 912 903 751 753 913
8 830 904 914 836 831 905 915 837
8 904 906 916 914 905 907 917 915
8 906 908 918 916 907 909 919 917
8 908 910 920 918 909 911 921 919
8 910 912 922 920 911 913 923 921
8 912 752 754 922 913 753 755 923
8 836 914 924 842 837 915 925 843
8 914 916 926 924 915 917 927 925
8 916 918 928 926 917 919 929 927
8 918 920 930 928 919 921 931 929
8 920 922 932 930 921 923 933 931
8 922 754 756 932 923 755 757 933
8 358 651 934 360 359 653 935 361
8 651 669 936 934 653 671 937 935
8 669 687 938 936 671 689 939 937
8 687 705 940 938 689 707 941 939
8 705 723 942 940 707 725 943 941
8 723 741 944 942 725 743 945 943
8 360 934 946 362 361 935 947 363
8 934 936 948 946 935 937 949 947
8 936 938 950 948 937 939 951 949
8 938 940 952 950 939 941 953 951
8 940 942 954 952 941 943 955 953
8 942 944 956 954 943 945 957 955
8 362 946 958 364 363 947 959 365
8 946 948 960 958 947 949 961 959
8 948 950 962 960 949 951 963 961
8 950 952 964 962 951 953 965 963
8 952 954 966 964 953 955 967 965
8 954 956 968 966 955 957 969 967
8 364 958 970 366 365 959 971 367
8 958 960 972 970 959 961 973 971
8 960 962 974 972 961 963 975 973
8 962 964 976 974 963 965 977 975
8 964 966 978 976 965 967 979 977
8 966 968 980 978 967 969 981 979
8 366 970 982 368 367 971 983 369
8 970 972 984 982 971 973 985 983
8 972 974 986 984 973 975 987 985
8 974 976 988 986 975 977 989 987
8 976 978 990 988 977 979 991 989
8 978 980 992 990 979 981 993 991
8 368 982 994 370 369 983 995 371
8 982 984 996 994 983 985 997 995
8 984 986 998 996 985 987 999 997
8 986 988 1000 998 987 989 1001 999
8 988 990 1002 1000 989 991 1003 1001
8 990 992 1004 1002 991 993 1005 1003
8 370 994 1006 99 371 995 1007 101
8 994 996 1008 1006 995 997 1009 1007
8 996 998 1010 1008 997 999 1011 1009
8 998 1000 1012 1010 999 1001 1013 1011
8 1000 1002 1014 1012 1001 1003 1015 1013
8 1002 1004 1016 1014 1003 1005 1017 1015
8 99 1006 1018 98 101 1007 1019 100
8 1006 1008 1020 1018 1007 1009 1021 1019
8 1008 1010 1022 1020 1009 1011 1023 1021
8 1010 1012 1024 1022 1011 1013 1025 1023
8 1012 1014 1026 1024 1013 1015 1027 1025
8 1014 1016 1028 1026 1015 1017 1029 1027
8 98 1018 1030 102 100 1019 1031 103
8 1018 1020 1032 1030 1019 1021 1033 1031
8 1020 1022 1034 1032 1021 1023 1035 1033
8 1022 1024 1036 1034 1023 1025 1037 1035
8 1024 1026 1038 1036 1025 1027 1039 1037
8 1026 1028 1040 1038 1027 1029 1041 1039
8 102 1030 1042 34 103 1031 1043 36
8 1030 1032 1044 1042 1031 1033 1045 1043
8 1032 1034 1046 1044 1033 1035 1047 1045
8 1034 1036 1048 1046 1035 1037 1049 1047
8 1036 1038 1050 1048 1037 1039 1051 1049
8 1038 1040 1052 1050 1039 1041 1053 1051
8 34 1042 1054 22 36 1043 1055 26
8 1042 1044 1056 1054 1043 1045 1057 1055
8 1044 1046 1058 1056 1045 1047 1059 1057
8 1046 1048 1060 1058 1047 1049 1061 1059
8 1048 1050 1062 1060 1049 1051 1063 1061
8 1050 1052 1064 1062 1051 1053 1065 1063
8 22 1054 1066 23 26 1055 1067 27
8 1054 1056 1068 1066 1055 1057 1069 1067
8 1056 1058 1070 1068 1057 1059 1071 1069
8 1058 1060 1072 1070 1059 1061 1073 1071
8 1060 1062 1074 1072 1061 1063 1075 1073
8 1062 1064 1076 1074 1063 1065 1077 1075
8 23 1066 1078 31 27 1067 1079 33
8 1066 1068 1080 1078 1067 1069 1081 1079
8 1068 1070 1082 1080 1069 1071 1083 1081
8 1070 1072 1084 1082 1071 1073 1085 1083
8 1072 1074 1086 1084 1073 1075 1087 1085
8 1074 1076 1088 1086 1075 1077 1089 1087
8 31 1078 1090 110 33 1079 1091 111
8 1078 1080 1092 1090 1079 1081 1093 1091
8 1080 1082 1094 1092 1081 1083 1095 1093
8 1082 1084 1096 1094 1083 1085 1097 1095
8 1084 1086 1098 1096 1085 1087 1099 1097
8 1086 1088 1100 1098 1087 1089 1101 1099
8 110 1090 1102 54 111 1091 1103 58
8 1090 1092 1104 1102 1091 1093 1105 1103
8 1092 1094 1106 1104 1093 1095 1107 1105
8 1094 1096 1108 1106 1095 1097 1109 1107
8 1096 1098 1110 1108 1097 1099 1111 1109
8 1098 1100 1112 1110 1099 1101 1113 1111
8 54 1102 1114 55 58 1103 1115 59
8 1102 1104 1116 1114 1103 1105 1117 1115
8 1104 1106 1118 1116 1105 1107 1119 1117
8 1106 1108 1120 1118 1107 1109 1121 1119
8 1108 1110 1122 1120 1109 1111 1123 1121
8 1110 1112 1124 1122 1111 1113 1125 1123
8 55 1114 1126 2 59 1115 1127 6
8 1114 1116 1128 1126 1115 1117 1129 1127
8 1116 1118 1130 1128 1117 1119 1131 1129
8 1118 1120 1132 1130 1119 1121 1133 1131
8 1120 1122 1134 1132 1121 1123 1135 1133
8 1122 1124 1136 1134 1123 1125 1137 1135
8 2 1126 1138 3 6 1127 1139 7
8 1126 1128 1140 1138 1127 1129 1141 1139
8 1128 1130 1142 1140 1129 1131 1143 1141
8 1130 1132 1144 1142 1131 1133 1145 1143
8 1132 1134 1146 1144 1133 1135 1147 1145
8 1134 1136 1148 1146 1135 1137 1149 1147
8 3 1138 1150 116 7 1139 1151 117
8 1138 1140 1152 1150 1139 1141 1153 1151
8 1140 1142 1154 1152 1141 1143 1155 1153
8 1142 1144 1156 1154 1143 1145 1157 1155
8 1144 1146 1158 1156 1145 1147 1159 1157
8 1146 1148 1160 1158 1147 1149 1161 1159
8 116 1150 1162 72 117 1151 1163 74
8 1150 1152 1164 1162 1151 1153 1165 1163
8 1152 1154 1166 1164 1153 1155 1167 1165
8 1154 1156 1168 1166 1155 1157 1169 1167
8 1156 1158 1170 1168 1157 1159 1171 1169
8 1158 1160 1172 1170 1159 1161 1173 1171
8 72 1162 1174 73 74 1163 1175 75
8 1162 1164 1176 1174 1163 1165 1177 1175
8 1164 1166 1178 1176 1165 1167 1179 1177
8 1166 1168 1180 1178 1167 1169 1181 1179
8 1168 1170 1182 1180 1169 1171 1183 1181
8 1170 1172 1184 1182 1171 1173 1185 1183
8 73 1174 1186 76 75 1175 1187 77
8 1174 1176 1188 1186 1175 1177 1189 1187
8 1176 1178 1190 1188 1177 1179 1191 1189
8 1178 1180 1192 1190 1179 1181 1193 1191
8 1180 1182 1194 1192 1181 1183 1195 1193
8 767 771 1196 844 769 773 1197 846
8 771 775 1198 1196 773 777 1199 1197
8 775 779 1200 1198 777 781 1201 1199
8 779 783 1202 1200 781 785 1203 1201
8 783 787 1204 1202 785 789 1205 1203
8 787 806 1206 1204 789 807 1207 1205
8 806 478 1208 1206 807 479 1209 1207
8 478 373 1210 1208 479 377 1211 1209
8 373 372 1212 1210 377 376 1213 1211
8 372 474 1214 1212 376 475 1215 1213
8 474 472 1216 1214 475 473 1217 1215
8 472 414 1218 1216 473 416 1219 1217
8 414 415 1220 1218 416 417 1221 1219
8 415 438 1222 1220 417 439 1223 1221
8 438 434 1224 1222 439 436 1225 1223
8 434 435 1226 1224 436 437 1227 1225
8 435 465 1228 1226 437 469 1229 1227
8 465 464 1230 1228 469 468 1231 1229
8 464 470 1232 1230 468 471 1233 1231
8 470 449 1234 1232 471 453 1235 1233
8 449 448 1236 1234 453 452 1237 1235
8 448 442 1238 1236 452 445 1239 1237
8 844 1196 1240 848 846 1197 1241 850
8 1196 1198 1242 1240 1197 1199 1243 1241
8 1198 1200 1244 1242 1199 1201 1245 1243
8 1200 1202 1246 1244 1201 1203 1247 1245
8 1202 1204 1248 1246 1203 1205 1249 1247
8 1204 1206 1250 1248 1205 1207 1251 1249
8 1206 1208 1252 1250 1207 1209 1253 1251
8 1208 1210 1254 1252 1209 1211 1255 1253
8 1210 1212 1256 1254 1211 1213 1257 1255
8 1212 1214 1258 1256 1213 1215 1259 1257
8 1214 1216 1260 1258 1215 1217 1261 1259
8 1216 1218 1262 1260 1217 1219 1263 1261
8 1218 1220 1264 1262 1219 1221 1265 1263
8 1220 1222 1266 1264 1221 1223 1267 1265
8 1222 1224 1268 1266 1223 1225 1269 1267
8 1224 1226 1270 1268 1225 1227 1271 1269
8 1226 1228 1272 1270 1227 1229 1273 1271
8 1228 1230 1274 1272 1229 1231 1275 1273
8 1230 1232 1276 1274 1231 1233 1277 1275
8 1232 1234 1278 1276 1233 1235 1279 1277
8 1234 1236 1280 1278 1235 1237 1281 1279
8 1236 1238 1282 1280 1237 1239 1283 1281
8 848 1240 1284 852 850 1241 1285 854
8 1240 1242 1286 1284 1241 1243 1287 1285
8 1242 1244 1288 1286 1243 1245 1289 1287
8 1244 1246 1290 1288 1245 1247 1291 1289
8 1246 1248 1292 1290 1247 1249 1293 1291
8 1248 1250 1294 1292 1249 1251 1295 1293
8 1250 1252 1296 1294 1251 1253 1297 1295
8 1252 1254 1298 1296 1253 1255 1299 1297
8 1254 1256 1300 1298 1255 1257 1301 1299
8 1256 1258 1302 1300 1257 1259 1303 1301
8 1258 1260 1304 1302 1259 1261 1305 1303
8 1260 1262 1306 1304 1261 1263 1307 1305
8 1262 1264 1308 1306 1263 1265 1309 1307
8 1264 1266 1310 1308 1265 1267 1311 1309
8 1266 1268 1312 1310 1267 1269 1313 1311
8 1268 1270 1314 1312 1269 1271 1315 1313
8 1270 1272 1316 1314 1271 1273 1317 1315
8 1272 1274 1318 1316 1273 1275 1319 1317
8 1274 1276 1320 1318 1275 1277 1321 1319
8 1276 1278 1322 1320 1277 1279 1323 1321
8 1278 1280 1324 1322 1279 1281 1325 1323
8 1280 1282 1326 1324 1281 1283 1327 1325
8 852 1284 1328 856 854 1285 1329 858
8 1284 1286 1330 1328 1285 1287 1331 1329
8 1286 1288 1332 1330 1287 1289 1333 1331
8 1288 1290 1334 1332 1289 1291 1335 1333
8 1290 1292 1336 1334 1291 1293 1337 1335
8 1292 1294 1338 1336 1293 1295 1339 1337
8 1294 1296 1340 1338 1295 1297 1341 1339
8 1296 1298 1342 1340 1297 1299 1343 1341
8 1298 1300 1344 1342 1299 1301 1345 1343
8 1300 1302 1346 1344 1301 1303 1347 1345
8 1302 1304 1348 1346 1303 1305 1349 1347
8 1304 1306 1350 1348 1305 1307 1351 1349
8 1306 1308 1352 1350 1307 1309 1353 1351
8 1308 1310 1354 1352 1309 1311 1355 1353
8 1310 1312 1356 1354 1311 1313 1357 1355
8 1312 1314 1358 1356 1313 1315 1359 1357
8 1314 1316 1360 1358 1315 1317 1361 1359
8 1316 1318 1362 1360 1317 1319 1363 1361
8 1318 1320 1364 1362 1319 1321 1365 1363
8 1320 1322 1366 1364 1321 1323 1367 1365
8 1322 1324 1368 1366 1323 1325 1369 1367
8 1324 1326 1370 1368 1325 1327 1371 1369
8 856 1328 1372 860 858 1329 1373 862
8 1328 1330 1374 1372 1329 1331 1375 1373
8 1330 1332 1376 1374 1331 1333 1377 1375
8 1332 1334 1378 1376 1333 1335 1379 1377
8 1334 1336 1380 1378 1335 1337 1381 1379
8 1336 1338 1382 1380 1337 1339 1383 1381
8 1338 1340 1384 1382 1339 1341 1385 1383
8 1340 1342 1386 1384 1341 1343 1387 1385
8 1342 1344 1388 1386 1343 1345 1389 1387
8 1344 1346 1390 1388 1345 1347 1391 1389
8 1346 1348 1392 1390 1347 1349 1393 1391
8 1348 1350 1394 1392 1349 1351 1395 1393
8 1350 1352 1396 1394 1351 1353 1397 1395
8 1352 1354 1398 1396 1353 1355 1399 1397
8 1354 1356 1400 1398 1355 1357 1401 1399
8 1356 1358 1402 1400 1357 1359 1403 1401
8 1358 1360 1404 1402 1359 1361 1405 1403
8 1360 1362 1406 1404 1361 1363 1407 1405
8 1362 1364 1408 1406 1363 1365 1409 1407
8 1364 1366 1410 1408 1365 1367 1411 1409
8 1366 1368 1412 1410 1367 1369 1413 1411
8 1368 1370 1414 1412 1369 1371 1415 1413
8 860 1372 944 741 862 1373 945 743
8 1372 1374 956 944 1373 1375 957 945
8 1374 1376 968 956 1375 1377 969 957
8 1376 1378 980 968 1377 1379 981 969
8 1378 1380 992 980 1379 1381 993 981
8 1380 1382 1004 992 1381 1383 1005 993
8 1382 1384 1016 1004 1383 1385 1017 1005
8 1384 1386 1028 1016 1385 1387 1029 1017
8 1386 1388 1040 1028 1387 1389 1041 1029
8 1388 1390 1052 1040 1389 1391 1053 1041
8 1390 1392 1064 1052 1391 1393 1065 1053
8 1392 1394 1076 1064 1393 1395 1077 1065
8 1394 1396 1088 1076 1395 1397 1089 1077
8 1396 1398 1100 1088 1397 1399 1101 1089
8 1398 1400 1112 1100 1399 1401 1113 1101
8 1400 1402 1124 1112 1401 1403 1125 1113
8 1402 1404 1136 1124 1403 1405 1137 1125
8 1404 1406 1148 1136 1405 1407 1149 1137
8 1406 1408 1160 1148 1407 1409 1161 1149
8 1408 1410 1172 1160 1409 1411 1173 1161
8 1410 1412 1184 1172 1411 1413 1185 1173
8 1416 1482 1488 1422 1417 1483 1489 1423
8 1417 1483 1489 1423 1418 1484 1490 1424
8 1418 1484 1490 1424 1419 1485 1491 1425
8 1419 1485 1491 1425 1420 1486 1492 1426
8 1420 1486 1492 1426 1421 1487 1493 1427
8 1422 1488 1494 1428 1423 1489 1495 1429
8 1423 1489 1495 1429 1424 1490 1496 1430
8 1424 1490 1496 1430 1425 1491 1497 1431
8 1425 1491 1497 1431 1426 1492 1498 1432
8 1426 1492 1498 1432 1427 1493 1499 1433
8 1428 1494 1500 1434 1429 1495 1501 1435
8 1429 1495 1501 1435 1430 1496 1502 1436
8 1430 1496 1502 1436 1431 1497 1503 1437
8 1431 1497 1503 1437 1432 1498 1504 1438
8 1432 1498 1504 1438 1433 1499 1505 1439
8 1434 1500 1506 1440 1435 1501 1507 1441
8 1435 1501 1507 1441 1436 1502 1508 1442
8 1436 1502 1508 1442 1437 1503 1509 1443
8 1437 1503 1509 1443 1438 1504 1510 1444
8 1438 1504 1510 1444 1439 1505 1511 1445
8 1440 1506 1512 1446 1441 1507 1513 1447
8 1441 1507 1513 1447 1442 1508 1514 1448
8 1442 1508 1514 1448 1443 1509 1515 1449
8 1443 1509 1515 1449 1444 1510 1516 1450
8 1444 1510 1516 1450 1445 1511 1517 1451
8 1446 1512 1518 1452 1447 1513 1519 1453
8 1447 1513 1519 1453 1448 1514 1520 1454
8 1448 1514 1520 1454 1449 1515 1521 1455
8 1449 1515 1521 1455 1450 1516 1522 1456
8 1450 1516 1522 1456 1451 1517 1523 1457
8 1452 1518 1524 1458 1453 1519 1525 1459
8 1453 1519 1525 1459 1454 1520 1526 1460
8 1454 1520 1526 1460 1455 1521 1527 1461
8 1455 1521 1527 1461 1456 1522 1528 1462
8 1456 1522 1528 1462 1457 1523 1529 1463
8 1458 1524 1530 1464 1459 1525 1531 1465
8 1459 1525 1531 1465 1460 1526 1532 1466
8 1460 1526 1532 1466 1461 1527 1533 1467
8 1461 1527 1533 1467 1462 1528 1534 1468
8 1462 1528 1534 1468 1463 1529 1535 1469
8 1464 1530 1536 1470 1465 1531 1537 1471
8 1465 1531 1537 1471 1466 1532 1538 1472
8 1466 1532 1538 1472 1467 1533 1539 1473
8 1467 1533 1539 1473 1468 1534 1540 1474
8 1468 1534 1540 1474 1469 1535 1541 1475
8 1470 1536 1542 1476 1471 1537 1543 1477
8 1471 1537 1543 1477 1472 1538 1544 1478
8 1472 1538 1544 1478 1473 1539 1545 1479
8 1473 1539 1545 1479 1474 1540 1546 1480
8 1474 1540 1546 1480 1475 1541 1547 1481
8 1482 1548 1554 1488 1483 1549 1555 1489
8 1483 1549 1555 1489 1484 1550 1556 1490
8 1484 1550 1556 1490 1485 1551 1557 1491
8 1485 1551 1557 1491 1486 1552 1558 1492
8 1486 1552 1558 1492 1487 1553 1559 1493
8 1488 1554 1560 1494 1489 1555 1561 1495
8 1489 1555 1561 1495 1490 1556 1562 1496
8 1490 1556 1562 1496 1491 1557 1563 1497
8 1491 1557 1563 1497 1492 1558 1564 1498
8 1492 1558 1564 1498 1493 1559 1565 1499
8 1494 1560 1566 1500 1495 1561 1567 1501
8 1495 1561 1567 1501 1496 1562 1568 1502
8 1496 1562 1568 1502 1497 1563 1569 1503
8 1497 1563 1569 1503 1498 1564 1570 1504
8 1498 1564 1570 1504 1499 1565 1571 1505
8 1500 1566 1572 1506 1501 1567 1573 1507
8 1501 1567 1573 1507 1502 1568 1574 1508
8 1502 1568 1574 1508 1503 1569 1575 1509
8 1503 1569 1575 1509 1504 1570 1576 1510
8 1504 1570 1576 1510 1505 1571 1577 1511
8 1506 1572 1578 1512 1507 1573 1579 1513
8 1507 1573 1579 1513 1508 1574 1580 1514
8 1508 1574 1580 1514 1509 1575 1581 1515
8 1509 1575 1581 1515 1510 1576 1582 1516
8 1510 1576 1582 1516 1511 1577 1583 1517
8 1512 1578 1584 1518 1513 1579 1585 1519
8 1513 1579 1585 1519 1514 1580 1586 1520
8 1514 1580 1586 1520 1515 1581 1587 1521
8 1515 1581 1587 1521 1516 1582 1588 1522
8 1516 1582 1588 1522 1517 1583 1589 1523
8 1518 1584 1590 1524 1519 1585 1591 1525
8 1519 1585 1591 1525 1520 1586 1592 1526
8 1520 1586 1592 1526 1521 1587 1593 1527
8 1521 1587 1593 1527 1522 1588 1594 1528
8 1522 1588 1594 1528 1523 1589 1595 1529
8 1524 1590 1596 1530 1525 1591 1597 1531
8 1525 1591 1597 1531 1526 1592 1598 1532
8 1526 1592 1598 1532 1527 1593 1599 1533
8 1527 1593 1599 1533 1528 1594 1600 1534
8 1528 1594 1600 1534 1529 1595 1601 1535
8 1530 1596 1602 1536 1531 1597 1603 1537
8 1531 1597 1603 1537 1532 1598 1604 1538
8 1532 1598 1604 1538 1533 1599 1605 1539
8 1533 1599 1605 1539 1534 1600 1606 1540
8 1534 1600 1606 1540 1535 1601 1607 1541
8 1536 1602 1608 1542 1537 1603 1609 1543
8 1537 1603 1609 1543 1538 1604 1610 1544
8 1538 1604 1610 1544 1539 1605 1611 1545
8 1539 1605 1611 1545 1540 1606 1612 1546
8 1540 1606 1612 1546 1541 1607 1613 1547
8 1548 1614 1620 1554 1549 1615 1621 1555
8 1549 1615 1621 1555 1550 1616 1622 1556
8 1550 1616 1622 1556 1551 1617 1623 1557
8 1551 1617 1623 1557 1552 1618 1624 1558
8 1552 1618 1624 1558 1553 1619 1625 1559
8 1554 1620 1626 1560 1555 1621 1627 1561
8 1555 1621 1627 1561 1556 1622 1628 1562
8 1556 1622 1628 1562 1557 1623 1629 1563
8 1557 1623 1629 1563 1558 1624 1630 1564
8 1558 1624 1630 1564 1559 1625 1631 1565
8 1560 1626 1632 1566 1561 1627 1633 1567
8 1561 1627 1633 1567 1562 1628 1634 1568
8 1562 1628 1634 1568 1563 1629 1635 1569
8 1563 1629 1635 1569 1564 1630 1636 1570
8 1564 1630 1636 1570 1565 1631 1637 1571
8 1566 1632 1638 1572 1567 1633 1639 1573
8 1567 1633 1639 1573 1568 1634 1640 1574
8 1568 1634 1640 1574 1569 1635 1641 1575
8 1569 1635 1641 1575 1570 1636 1642 1576
8 1570 1636 1642 1576 1571 1637 1643 1577
8 1572 1638 1644 1578 1573 1639 1645 1579
8 1573 1639 1645 1579 1574 1640 1646 1580
8 1574 1640 1646 1580 1575 1641 1647 1581
8 1575 1641 1647 1581 1576 1642 1648 1582
8 1576 1642 1648 1582 1577 1643 1649 1583
8 1578 1644 1650 1584 1579 1645 1651 1585
8 1579 1645 1651 1585 1580 1646 1652 1586
8 1580 1646 1652 1586 1581 1647 1653 1587
8 1581 1647 1653 1587 1582 1648 1654 1588
8 1582 1648 1654 1588 1583 1649 1655 1589
8 1584 1650 1656 1590 1585 1651 1657 1591
8 1585 1651 1657 1591 1586 1652 1658 1592
8 1586 1652 1658 1592 1587 1653 1659 1593
8 1587 1653 1659 1593 1588 1654 1660 1594
8 1588 1654 1660 1594 1589 1655 1661 1595
8 1590 1656 1662 1596 1591 1657 1663 1597
8 1591 1657 1663 1597 1592 1658 1664 1598
8 1592 1658 1664 1598 1593 1659 1665 1599
8 1593 1659 1665 1599 1594 1660 1666 1600
8 1594 1660 1666 1600 1595 1661 1667 1601
8 1596 1662 1668 1602 1597 1663 1669 1603
8 1597 1663 1669 1603 1598 1664 1670 1604
8 1598 1664 1670 1604 1599 1665 1671 1605
8 1599 1665 1671 1605 1600 1666 1672 1606
8 1600 1666 1672 1606 1601 1667 1673 1607
8 1602 1668 1674 1608 1603 1669 1675 1609
8 1603 1669 1675 1609 1604 1670 1676 1610
8 1604 1670 1676 1610 1605 1671 1677 1611
8 1605 1671 1677 1611 1606 1672 1678 1612
8 1606 1672 1678 1612 1607 1673 1679 1613
8 1614 1680 1686 1620 1615 1681 1687 1621
8 1615 1681 1687 1621 1616 1682 1688 1622
8 1616 1682 1688 1622 1617 1683 1689 1623
8 1617 1683 1689 1623 1618 1684 1690 1624
8 1618 1684 1690 1624 1619 1685 1691 1625
8 1620 1686 1692 1626 1621 1687 1693 1627
8 1621 1687 1693 1627 1622 1688 1694 1628
8 1622 1688 1694 1628 1623 1689 1695 1629
8 1623 1689 1695 1629 1624 1690 1696 1630
8 1624 1690 1696 1630 1625 1691 1697 1631
8 1626 1692 1698 1632 1627 1693 1699 1633
8 1627 1693 1699 1633 1628 1694 1700 1634
8 1628 1694 1700 1634 1629 1695 1701 1635
8 1629 1695 1701 1635 1630 1696 1702 1636
8 1630 1696 1702 1636 1631 1697 1703 1637
8 1632 1698 1704 1638 1633 1699 1705 1639
8 1633 1699 1705 1639 1634 1700 1706 1640
8 1634 1700 1706 1640 1635 1701 1707 1641
8 1635 1701 1707 1641 1636 1702 1708 1642
8 1636 1702 1708 1642 1637 1703 1709 1643
8 1638 1704 1710 1644 1639 1705 1711 1645
8 1639 1705 1711 1645 1640 1706 1712 1646
8 1640 1706 1712 1646 1641 1707 1713 1647
8 1641 1707 1713 1647 1642 1708 1714 1648
8 1642 1708 1714 1648 1643 1709 1715 1649
8 1644 1710 1716 1650 1645 1711 1717 1651
8 1645 1711 1717 1651 1646 1712 1718 1652
8 1646 1712 1718 1652 1647 1713 1719 1653
8 1647 1713 1719 1653 1648 1714 1720 1654
8 1648 1714 1720 1654 1649 1715 1721 1655
8 1650 1716 1722 1656 1651 1717 1723 1657
8 1651 1717 1723 1657 1652 1718 1724 1658
8 1652 1718 1724 1658 1653 1719 1725 1659
8 1653 1719 1725 1659 1654 1720 1726 1660
8 1654 1720 1726 1660 1655 1721 1727 1661
8 1656 1722 1728 1662 1657 1723 1729 1663
8 1657 1723 1729 1663 1658 1724 1730 1664
8 1658 1724 1730 1664 1659 1725 1731 1665
8 1659 1725 1731 1665 1660 1726 1732 1666
8 1660 1726 1732 1666 1661 1727 1733 1667
8 1662 1728 1734 1668 1663 1729 1735 1669
8 1663 1729 1735 1669 1664 1730 1736 1670
8 1664 1730 1736 1670 1665 1731 1737 1671
8 1665 1731 1737 1671 1666 1732 1738 1672
8 1666 1732 1738 1672 1667 1733 1739 1673
8 1668 1734 1740 1674 1669 1735 1741 1675
8 1669 1735 1741 1675 1670 1736 1742 1676
8 1670 1736 1742 1676 1671 1737 1743 1677
8 1671 1737 1743 1677 1672 1738 1744 1678
8 1672 1738 1744 1678 1673 1739 1745 1679
8 1680 1746 1752 1686 1681 1747 1753 1687
8 1681 1747 1753 1687 1682 1748 1754 1688
8 1682 1748 1754 1688 1683 1749 1755 1689
8 1683 1749 1755 1689 1684 1750 1756 1690
8 1684 1750 1756 1690 1685 1751 1757 1691
8 1686 1752 1758 1692 1687 1753 1759 1693
8 1687 1753 1759 1693 1688 1754 1760 1694
8 1688 1754 1760 1694 1689 1755 1761 1695
8 1689 1755 1761 1695 1690 1756 1762 1696
8 1690 1756 1762 1696 1691 1757 1763 1697
8 1692 1758 1764 1698 1693 1759 1765 1699
8 1693 1759 1765 1699 1694 1760 1766 1700
8 1694 1760 1766 1700 1695 1761 1767 1701
8 1695 1761 1767 1701 1696 1762 1768 1702
8 1696 1762 1768 1702 1697 1763 1769 1703
8 1698 1764 1770 1704 1699 1765 1771 1705
8 1699 1765 1771 1705 1700 1766 1772 1706
8 1700 1766 1772 1706 1701 1767 1773 1707
8 1701 1767 1773 1707 1702 1768 1774 1708
8 1702 1768 1774 1708 1703 1769 1775 1709
8 1704 1770 1776 1710 1705 1771 1777 1711
8 1705 1771 1777 1711 1706 1772 1778 1712
8 1706 1772 1778 1712 1707 1773 1779 1713
8 1707 1773 1779 1713 1708 1774 1780 1714
8 1708 1774 1780 1714 1709 1775 1781 1715
8 1710 1776 1782 1716 1711 1777 1783 1717
8 1711 1777 1783 1717 1712 1778 1784 1718
8 1712 1778 1784 1718 1713 1779 1785 1719
8 1713 1779 1785 1719 1714 1780 1786 1720
8 1714 1780 1786 1720 1715 1781 1787 1721
8 1716 1782 1788 1722 1717 1783 1789 1723
8 1717 1783 1789 1723 1718 1784 1790 1724
8 1718 1784 1790 1724 1719 1785 1791 1725
8 1719 1785 1791 1725 1720 1786 1792 1726
8 1720 1786 1792 1726 1721 1787 1793 1727
8 1722 1788 1794 1728 1723 1789 1795 1729
8 1723 1789 1795 1729 1724 1790 1796 1730
8 1724 1790 1796 1730 1725 1791 1797 1731
8 1725 1791 1797 1731 1726 1792 1798 1732
8 1726 1792 1798 1732 1727 1793 1799 1733
8 1728 1794 1800 1734 1729 1795 1801 1735
8 1729 1795 1801 1735 1730 1796 1802 1736
8 1730 1796 1802 1736 1731 1797 1803 1737
8 1731 1797 1803 1737 1732 1798 1804 1738
8 1732 1798 1804 1738 1733 1799 1805 1739
8 1734 1800 1806 1740 1735 1801 1807 1741
8 1735 1801 1807 1741 1736 1802 1808 1742
8 1736 1802 1808 1742 1737 1803 1809 1743
8 1737 1803 1809 1743 1738 1804 1810 1744
8 1738 1804 1810 1744 1739 1805 1811 1745
CELL_TYPES 912
12
12
12
12
12
12
12
12
12
12
12
12
12
12
12
12
12
12
12
12
12
12
12
12
12
12
12
12
12
12
12
12
12
12
12
12
12
12
12
12
12
12
12
12
12
12
12
12
12
12
12
12
12
12
12
12
12
12
12
12
12
12
12
12
12
12
12
12
12
12
12
12
12
12
12
12
12
12
12
12
12
12
12
12
12
12
12
12
12
12
12
12
12
12
12
12
12
12
12
12
12
12
12
12
12
12
12
12
12
12
12
12
12
12
12
12
12
12
12
12
12
12
12
12
12
12
12
12
12
12
12
12
12
12
12
12
12
12
12
12
12
12
12
12
12
12
12
12
12
12
12
12
12
12
12
12
12
12
12
12
12
12
12
12
12
12
12
12
12
12
12
12
12
12
12
12
12
12
12
12
12
12
12
12
12
12
12
12
12
12
12
12
12
12
12
12
12
12
12
12
12
12
12
12
12
12
12
12
12
12
12
12
12
12
12
12
12
12
12
12
12
12
12
12
12
12
12
12
12
12
12
12
12
12
12
12
12
12
12
12
12
12
12
12
12
12
12
12
12
12
12
12
12
12
12
12
12
12
12
12
12
12
12
12
12
12
12
12
12
12
12
12
12
12
12
12
12
12
12
12
12
12
12
12
12
12
12
12
12
12
12
12
12
12
12
12
12
12
12
12
12
12
12
12
12
12
12
12
12
12
12
12
12
12
12
12
12
12
12
12
12
12
12
12
12
12
12
12
12
12
12
12
12
12
12
12
12
12
12
12
12
12
12
12
12
12
12
12
12
12
12
12
12
12
12
12
12
12
12
12
12
12
12
12
12
12
12
12
12
12
12
12
12
12
12
12
12
12
12
12
12
12
12
12
12
12
12
12
12
12
12
12
12
12
12
12
12
12
12
12
12
12
12
12
12
12
12
12
12
12
12
12
12
12
12
12
12
12
12
12
12
12
12
12
12
12
12
12
12
12
12
12
12
12
12
12
12
12
12
12
12
12
12
12
12
12
12
12
12
12
12
12
12
12
12
12
12
12
12
12
12
12
12
12
12
12
12
12
12
12
12
12
12
12
12
12
12
12
12
12
12
12
12
12
12
12
12
12
12
12
12
12
12
12
12
12
12
12
12
12
12
12
12
12
12
12
12
12
12
12
12
12
12
12
12
12
12
12
12
12
12
12
12
12
12
12
12
12
12
12
12
12
12
12
12
12
12
12
12
12
12
12
12
12
12
12
12
12
12
12
12
12
12
12
12
12
12
12
12
12
12
12
12
12
12
12
12
12
12
12
12
12
12
12
12
12
12
12
12
12
12
12
12
12
12
12
12
12
12
12
12
12
12
12
12
12
12
12
12
12
12
12
12
12
12
12
12
12
12
12
12
12
12
12
12
12
12
12
12
12
12
12
12
12
12
12
12
12
12
12
12
12
12
12
12
12
12
12
12
12
12
12
12
12
12
12
12
12
12
12
12
12
12
12
12
12
12
12
12
12
12
12
12
12
12
12
12
12
12
12
12
12
12
12
12
12
12
12
12
12
12
12
12
12
12
12
12
12
12
12
12
12
12
12
12
12
12
12
12
12
12
12
12
12
12
12
12
12
12
12
12
12
12
12
12
12
12
12
12
12
12
12
12
12
12
12
12
12
12
12
12
12
12
12
12
12
12
12
12
12
12
12
12
12
12
12
12
12
12
12
12
12
12
12
12
12
12
12
12
12
12
12
12
12
12
12
12
12
12
12
12
12
12
12
12
12
12
12
12
12
12
12
12
12
12
12
12
12
12
12
12
12
12
12
12
12
12
12
12
12
12
12
12
12
12
12
12
12
12
12
12
12
12
12
12
12
12
12
12
12
12
12
12
12
12
12
12
12
12
12
12
12
12
12
12
12
12
12
12
12
12
12
12
12
12
12
12
12
12
12
12
12
12
12
12
12
12
12
12
12
12
12
12
12
12
12
12
12
12
12
12
12
12
12
12
12
12
12
12
12
12
12
12
12
12
12
12
12
12
12
12
12
12
12
12
12
12
12
12
12
12
12
12
12
12
12
12
12
12
12
12
12
POINT_DATA 1812
VECTORS DISPLACEMENT float
3.037407e-01 -2.389469e-02 2.810419e+01
3.504792e-01 -2.443990e-02 2.811876e+01
4.361786e-01 -7.958311e-02 2.810951e+01
3.854221e-01 -6.601219e-02 2.808498e+01
3.038023e-01 -2.406963e-02 2.810348e+01
3.505553e-01 -2.486174e-02 2.811742e+01
4.354274e-01 -7.897580e-02 2.810847e+01
3.851183e-01 -6.661387e-02 2.808451e+01
1.526764e-01 -2.069709e-02 2.804247e+01
1.502539e-01 -7.804689e-02 2.803093e+01
9.738979e-02 -6.597311e-02 2.801137e+01
1.323074e-01 1.702562e-03 2.801876e+01
1.530585e-01 -2.104532e-02 2.804199e+01
1.505269e-01 -7.794019e-02 2.803008e+01
9.793181e-02 -6.637466e-02 2.801055e+01
1.326271e-01 1.255496e-03 2.801847e+01
1.335396e-01 3.417522e-02 2.802232e+01
1.392905e-01 3.794688e-02 2.803579e+01
1.788693e-01 3.021334e-02 2.804829e+01
1.336725e-01 3.422636e-02 2.802218e+01
1.395137e-01 3.813585e-02 2.803556e+01
1.791017e-01 3.012266e-02 2.804787e+01
1.384353e-01 7.268827e-02 2.801474e+01
1.533634e-01 6.836075e-02 2.801291e+01
1.308577e-01 4.738017e-02 2.802401e+01
9.685090e-02 4.305792e-02 2.802036e+01
1.383403e-01 7.260228e-02 2.801466e+01
1.534309e-01 6.839631e-02 2.801280e+01
1.309128e-01 4.724092e-02 2.802379e+01
9.692499e-02 4.291502e-02 2.802016e+01
1.487602e-01 4.782039e-02 2.803879e+01
1.815001e-01 7.095977e-02 2.801867e+01
1.488805e-01 4.755312e-02 2.803844e+01
1.814442e-01 7.084091e-02 2.801873e+01
1.067372e-01 5.648681e-02 2.800718e+01
8.452098e-02 4.207565e-02 2.801409e+01
1.066724e-01 5.647639e-02 2.800720e+01
8.465557e-02 4.197170e-02 2.801402e+01
5.366118e-03 -7.727105e-03 2.800484e+01
5.657824e-03 -3.950792e-03 2.800268e+01
5.472329e-02 4.739748e-03 2.800993e+01
7.776872e-02 8.208201e-03 2.802254e+01
5.417897e-03 -8.030792e-03 2.800459e+01
5.681019e-03 -4.235629e-03 2.800254e+01
5.481956e-02 4.287689e-03 2.800955e+01
7.786484e-02 7.826652e-03 2.802225e+01
7.150900e-02 4.759757e-04 2.801159e+01
7.752963e-02 1.958861e-02 2.800943e+01
6.120766e-02 7.986365e-03 2.800937e+01
4.845421e-02 -7.208740e-03 2.800582e+01
7.152967e-02 3.640196e-04 2.801136e+01
7.753317e-02 1.934633e-02 2.800947e+01
6.130696e-02 7.942005e-03 2.800917e+01
4.849648e-02 -7.527020e-03 2.800573e+01
2.713319e-01 5.931763e-02 2.809014e+01
3.473606e-01 4.387376e-02 2.812252e+01
2.706458e-01 5.087288e-03 2.812035e+01
2.544459e-01 3.032136e-03 2.809501e+01
2.713458e-01 5.917740e-02 2.808980e+01
3.466117e-01 4.346742e-02 2.812152e+01
2.709226e-01 5.168527e-03 2.811987e+01
2.547379e-01 2.980120e-03 2.809470e+01
2.152146e-01 4.572603e-03 2.806860e+01
1.951877e-01 3.141042e-02 2.806730e+01
2.154579e-01 4.347874e-03 2.806788e+01
1.954796e-01 3.156476e-02 2.806673e+01
2.872268e-01 -2.476070e-02 2.809229e+01
2.874658e-01 -2.436801e-02 2.809198e+01
2.117846e-01 -6.464146e-02 2.804726e+01
2.860308e-01 -4.157693e-02 2.806440e+01
2.120622e-01 -6.485010e-02 2.804648e+01
2.863090e-01 -4.209540e-02 2.806383e+01
2.091339e-01 -7.984469e-02 2.805512e+01
1.874013e-01 -1.248365e-01 2.803502e+01
2.101463e-01 -8.054936e-02 2.805505e+01
1.876996e-01 -1.249432e-01 2.803487e+01
1.419483e-01 -1.220619e-01 2.800504e+01
1.423421e-01 -1.223319e-01 2.800496e+01
9.349541e-02 -1.265630e-01 2.797979e+01
9.365842e-02 -1.261460e-01 2.797849e+01
9.844039e-02 3.386300e-02 2.802859e+01
9.852042e-02 3.394487e-02 2.802838e+01
4.361707e-03 -7.051450e-03 2.799976e+01
1.546471e-02 -3.330240e-03 2.799981e+01
2.987561e-02 6.087337e-03 2.800282e+01
4.366616e-03 -7.265937e-03 2.799973e+01
1.546828e-02 -3.440062e-03 2.799989e+01
2.990743e-02 6.013851e-03 2.800264e+01
5.922717e-03 -1.557010e-03 2.799803e+01
7.224934e-03 -1.273466e-03 2.799858e+01
4.878805e-03 -5.452565e-03 2.799838e+01
1.834071e-03 -1.977584e-03 2.799644e+01
5.908322e-03 -1.570331e-03 2.799803e+01
7.230575e-03 -1.289003e-03 2.799861e+01
4.855629e-03 -5.397012e-03 2.799845e+01
1.836226e-03 -2.025665e-03 2.799647e+01
2.990361e-02 1.041360e-02 2.800649e+01
2.993462e-02 1.031269e-02 2.800616e+01
7.296037e-02 1.161440e-02 2.800928e+01
3.482921e-02 8.157709e-03 2.801211e+01
7.297931e-02 1.170850e-02 2.800925e+01
3.475582e-02 8.220639e-03 2.801195e+01
8.898841e-02 3.064615e-02 2.800598e+01
8.900053e-02 3.072273e-02 2.800610e+01
9.565849e-02 2.291134e-02 2.801877e+01
9.574500e-02 2.287569e-02 2.801886e+01
8.796591e-02 2.049872e-02 2.801411e+01
8.805481e-02 2.065763e-02 2.801381e+01
2.046733e-03 -4.957635e-03 2.799842e+01
2.021544e-03 -4.906177e-03 2.799852e+01
2.168209e-01 9.282647e-02 2.805248e+01
2.166845e-01 9.249674e-02 2.805226e+01
3.051201e-01 -4.445313e-02 2.808394e+01
3.053326e-01 -4.457482e-02 2.808389e+01
2.662143e-03 -7.451805e-03 2.799746e+01
2.648549e-03 -7.336176e-03 2.799744e+01
2.862761e-01 -1.027519e-01 2.808296e+01
2.866152e-01 -1.029281e-01 2.808278e+01
8.222229e-03 8.652147e-03 2.800375e+01
2.256540e-03 8.800646e-03 2.800469e+01
8.234994e-03 8.716703e-03 2.800365e+01
2.281305e-03 8.652083e-03 2.800454e+01
8.049107e-03 8.076582e-03 2.800010e+01
8.096737e-03 8.069836e-03 2.800000e+01
1.142290e-02 5.466699e-03 2.799978e+01
1.145224e-02 5.464630e-03 2.799972e+01
8.566117e-03 9.906554e-04 2.799944e+01
8.567277e-03 9.507835e-04 2.799941e+01
5.460306e-03 5.732286e-04 2.799871e+01
5.470321e-03 5.751977e-04 2.799873e+01
-1.123906e-04 6.868271e-03 2.800125e+01
-3.196593e-04 4.264754e-03 2.800149e+01
-8.724994e-05 6.893090e-03 2.800122e+01
-2.952465e-04 4.269257e-03 2.800155e+01
3.618024e-03 6.129664e-03 2.799963e+01
3.644652e-03 6.148387e-03 2.799961e+01
3.466946e-03 4.043891e-03 2.799990e+01
3.483958e-03 4.053540e-03 2.799989e+01
5.542903e-03 3.106780e-03 2.799987e+01
5.554060e-03 3.122143e-03 2.799983e+01
5.323983e-03 1.780727e-03 2.799933e+01
5.322309e-03 1.764753e-03 2.799932e+01
-2.205261e-04 4.359106e-03 2.800033e+01
-2.578750e-03 4.166339e-03 2.800057e+01
-2.211879e-04 4.367252e-03 2.800033e+01
-2.559227e-03 4.123843e-03 2.800057e+01
1.630684e-04 4.445142e-03 2.799975e+01
1.638415e-04 4.463137e-03 2.799972e+01
2.659748e-03 3.323373e-03 2.799994e+01
2.656252e-03 3.320759e-03 2.799992e+01
2.703906e-03 1.712216e-03 2.799999e+01
2.710963e-03 1.720426e-03 2.799998e+01
4.066587e-03 2.021933e-03 2.800000e+01
4.072559e-03 2.037657e-03 2.800000e+01
-1.750955e-03 3.078821e-03 2.800014e+01
-2.805457e-03 1.997724e-03 2.800046e+01
-1.761216e-03 3.127966e-03 2.800012e+01
-2.787888e-03 1.966764e-03 2.800049e+01
5.308536e-04 3.033546e-03 2.799988e+01
5.267716e-04 3.030632e-03 2.799992e+01
8.736793e-04 1.968773e-03 2.800001e+01
8.733934e-04 1.980685e-03 2.799998e+01
2.281591e-03 1.607190e-03 2.800004e+01
2.273307e-03 1.611854e-03 2.800003e+01
2.135529e-03 8.781596e-04 2.800026e+01
2.153998e-03 8.688963e-04 2.800026e+01
-9.401056e-04 1.534635e-03 2.800004e+01
-2.041645e-03 1.392899e-03 2.800039e+01
-9.403386e-04 1.524033e-03 2.800003e+01
-2.055586e-03 1.408015e-03 2.800042e+01
-4.010952e-04 1.786494e-03 2.799997e+01
-3.913065e-04 1.797977e-03 2.799994e+01
9.825278e-04 1.394074e-03 2.799999e+01
9.910904e-04 1.409588e-03 2.800002e+01
1.001557e-03 8.076708e-04 2.800008e+01
1.000996e-03 8.055215e-04 2.800006e+01
1.793490e-03 1.002428e-03 2.800021e+01
1.789123e-03 1.006205e-03 2.800020e+01
-6.713549e-04 9.486877e-04 2.799997e+01
-9.475121e-04 5.721179e-04 2.800017e+01
-6.535658e-04 9.739983e-04 2.800000e+01
-9.318782e-04 5.337596e-04 2.800017e+01
9.667863e-05 9.713183e-04 2.799996e+01
1.152486e-04 9.626303e-04 2.800000e+01
1.758356e-04 7.154892e-04 2.800002e+01
1.722763e-04 7.231098e-04 2.800000e+01
8.810564e-04 7.084931e-04 2.800003e+01
8.848960e-04 7.018257e-04 2.800006e+01
9.452131e-04 3.322634e-04 2.800024e+01
9.256455e-04 3.268689e-04 2.800019e+01
-2.320209e-04 3.585639e-04 2.799996e+01
-4.545622e-04 4.143850e-04 2.800003e+01
-1.932671e-04 3.718008e-04 2.800001e+01
-4.308569e-04 4.019349e-04 2.800006e+01
-2.047508e-04 5.540781e-04 2.799998e+01
-1.935551e-04 5.509143e-04 2.799998e+01
3.281120e-04 4.860823e-04 2.800001e+01
3.196424e-04 4.737119e-04 2.800001e+01
3.911041e-04 2.487144e-04 2.800006e+01
3.589534e-04 2.686850e-04 2.800003e+01
7.503704e-04 4.129464e-04 2.800011e+01
7.557088e-04 4.199349e-04 2.800012e+01
-2.505278e-04 2.515695e-04 2.799998e+01
-2.288375e-04 5.317754e-05 2.800000e+01
-2.340499e-04 2.320164e-04 2.799998e+01
-2.005189e-04 6.656906e-05 2.800002e+01
2.963517e-05 2.848904e-04 2.800000e+01
2.460430e-05 3.016775e-04 2.800000e+01
4.174623e-05 2.611863e-04 2.800002e+01
1.048972e-05 2.578219e-04 2.799999e+01
3.793759e-04 3.077666e-04 2.800003e+01
3.632319e-04 3.166788e-04 2.800001e+01
3.912155e-04 9.341594e-05 2.800009e+01
3.668697e-04 8.346594e-05 2.800010e+01
-3.498681e-05 1.244172e-04 2.799999e+01
-7.194301e-05 1.559301e-04 2.799999e+01
-3.717478e-05 1.132079e-04 2.799998e+01
-6.120978e-05 1.488144e-04 2.800000e+01
-7.516477e-05 2.078452e-04 2.800001e+01
-8.733882e-05 2.122250e-04 2.799998e+01
1.649438e-04 2.456926e-04 2.800000e+01
1.617220e-04 2.543466e-04 2.800000e+01
1.236189e-04 1.385171e-04 2.800002e+01
1.216609e-04 1.301671e-04 2.800002e+01
2.866964e-04 1.908967e-04 2.800004e+01
2.775232e-04 2.265004e-04 2.800004e+01
-6.845291e-05 1.524511e-04 2.799998e+01
-1.324724e-05 5.149938e-05 2.800000e+01
-7.043642e-05 1.542653e-04 2.800001e+01
-3.258301e-06 7.761282e-05 2.799999e+01
8.737965e-05 1.724689e-04 2.800001e+01
7.672321e-05 1.814420e-04 2.799998e+01
1.752242e-05 1.320461e-04 2.799999e+01
2.837307e-05 1.505869e-04 2.800001e+01
1.021163e-04 1.581744e-04 2.800000e+01
1.130720e-04 1.436538e-04 2.800001e+01
8.033764e-05 3.647403e-05 2.800003e+01
8.428848e-05 2.147739e-05 2.800003e+01
6.572566e-05 8.045431e-05 2.800000e+01
-4.603664e-05 7.057904e-05 2.799999e+01
7.067228e-05 9.049658e-05 2.799999e+01
-5.123788e-05 4.798067e-05 2.800001e+01
-2.271942e-05 1.324956e-04 2.799999e+01
-6.561443e-06 1.347906e-04 2.800001e+01
6.293732e-05 1.161336e-04 2.800000e+01
8.185324e-05 1.165675e-04 2.800000e+01
-1.919180e-05 5.901796e-05 2.800000e+01
-6.456520e-06 4.346237e-05 2.800001e+01
4.114627e-05 7.849076e-05 2.800001e+01
3.769434e-05 1.047210e-04 2.800001e+01
4.390612e-06 6.593055e-05 2.800000e+01
5.288317e-05 3.617581e-05 2.800001e+01
1.952511e-05 6.859812e-05 2.800000e+01
4.335815e-05 4.925052e-05 2.799999e+01
4.033055e-05 3.371806e-05 2.799999e+01
6.689832e-05 5.414104e-05 2.800001e+01
-3.018449e-05 4.683800e-05 2.799999e+01
-1.292213e-05 2.739699e-05 2.800001e+01
-1.177129e-05 4.813199e-05 2.799999e+01
1.107588e-05 4.429740e-05 2.800001e+01
-4.438391e-05 8.723785e-06 2.800000e+01
-3.571480e-05 4.551635e-08 2.800002e+01
3.992551e-05 -5.475448e-06 2.800000e+01
1.292029e-06 4.437913e-05 2.799999e+01
5.239035e-05 7.206225e-06 2.800000e+01
1.409446e-05 3.459126e-05 2.800001e+01
-2.050246e-05 4.654998e-06 2.799999e+01
-6.002580e-06 -1.446667e-05 2.800001e+01
6.636940e-06 -2.688569e-05 2.799999e+01
3.062098e-05 -8.760517e-06 2.800000e+01
-3.930885e-05 -1.733066e-05 2.800000e+01
-3.335174e-05 -1.509398e-05 2.800000e+01
-1.656399e-05 1.969194e-05 2.800000e+01
-1.111527e-05 5.743707e-07 2.800000e+01
-1.185696e-05 -3.847501e-05 2.799999e+01
1.060494e-05 -1.005705e-05 2.799999e+01
7.796953e-07 -3.194259e-05 2.800001e+01
2.046649e-05 -2.753598e-05 2.800002e+01
1.593350e-05 -6.570712e-05 2.800000e+01
4.176159e-05 -5.325080e-05 2.799999e+01
-4.072842e-05 -3.823672e-05 2.800000e+01
-3.433202e-05 -6.136240e-05 2.799999e+01
-2.428885e-06 -1.350493e-05 2.799999e+01
2.425279e-06 -2.302170e-05 2.799999e+01
-3.254764e-05 -1.955177e-05 2.799999e+01
-2.448144e-05 -7.003250e-06 2.800000e+01
-1.176970e-04 2.270846e-04 2.799985e+01
1.623362e-04 2.376351e-04 2.800002e+01
-2.185102e-05 1.451929e-04 2.799999e+01
3.419302e-05 -8.985776e-05 2.799992e+01
-1.095511e-04 2.184020e-04 2.799985e+01
1.763967e-04 2.334551e-04 2.800002e+01
7.425622e-06 1.400580e-04 2.800001e+01
4.398000e-05 -9.836618e-05 2.799994e+01
9.661897e-05 8.189589e-05 2.800003e+01
-5.607152e-05 1.076912e-04 2.799999e+01
1.087167e-04 7.062026e-05 2.800003e+01
-2.640421e-05 1.109019e-04 2.800003e+01
-5.525897e-06 1.329335e-05 2.799997e+01
3.075992e-05 -5.355573e-05 2.800000e+01
2.993374e-05 1.301914e-05 2.800001e+01
3.822761e-05 -4.452653e-05 2.799998e+01
-8.200573e-05 6.204909e-05 2.800000e+01
-6.340960e-05 6.185082e-05 2.800000e+01
-2.690293e-05 -9.376604e-06 2.799999e+01
4.996559e-06 -4.951625e-05 2.800000e+01
-2.400014e-05 -5.541779e-06 2.800000e+01
5.305596e-06 -4.995315e-05 2.799999e+01
3.167180e-07 -5.122617e-06 2.800001e+01
8.767176e-06 -5.662231e-06 2.799999e+01
1.165359e-05 -2.533767e-06 2.800000e+01
-2.707123e-05 -3.253679e-05 2.800000e+01
-3.896777e-06 1.134805e-06 2.799999e+01
-3.128852e-05 -2.836791e-05 2.799999e+01
-5.715547e-06 3.395708e-05 2.800000e+01
-1.375669e-05 3.209660e-05 2.800000e+01
2.872235e-06 3.344674e-05 2.800001e+01
-1.976434e-05 9.695626e-06 2.799999e+01
-1.298020e-06 4.153160e-05 2.799998e+01
-3.472570e-05 9.141163e-06 2.800000e+01
2.996264e-05 4.639562e-05 2.800000e+01
2.678941e-05 3.575118e-05 2.800000e+01
3.940190e-06 6.254532e-05 2.800000e+01
3.901227e-07 -1.506840e-06 2.800000e+01
-9.525450e-06 2.214784e-05 2.800002e+01
4.071115e-06 1.459751e-05 2.800000e+01
1.513300e-05 3.152702e-06 2.800002e+01
3.469054e-05 3.279999e-05 2.800000e+01
8.751598e-03 8.335336e-03 2.800123e+01
1.235644e-02 1.076286e-02 2.800320e+01
8.807755e-03 8.066700e-03 2.800110e+01
1.239785e-02 1.029375e-02 2.800313e+01
5.213240e-03 5.874975e-03 2.800095e+01
5.274854e-03 5.730761e-03 2.800094e+01
2.759415e-03 2.976645e-03 2.800096e+01
2.806147e-03 2.869036e-03 2.800090e+01
1.203032e-03 1.279074e-03 2.800074e+01
1.219100e-03 1.254951e-03 2.800072e+01
3.902086e-04 4.107083e-04 2.800053e+01
3.894616e-04 4.152491e-04 2.800051e+01
2.238180e-04 2.021922e-04 2.800018e+01
2.255209e-04 2.005178e-04 2.800017e+01
1.821042e-02 1.046517e-02 2.800089e+01
1.762601e-02 1.134975e-02 2.800130e+01
1.819166e-02 1.040333e-02 2.800091e+01
1.767404e-02 1.130027e-02 2.800124e+01
1.587895e-02 9.359439e-03 2.800098e+01
1.584355e-02 9.331770e-03 2.800090e+01
1.142310e-02 6.099261e-03 2.800148e+01
1.143462e-02 6.071970e-03 2.800146e+01
6.670165e-03 4.333410e-03 2.800150e+01
6.672740e-03 4.316281e-03 2.800145e+01
2.790863e-03 2.093114e-03 2.800108e+01
2.804424e-03 2.061103e-03 2.800107e+01
7.830549e-04 7.457781e-04 2.800024e+01
7.928049e-04 7.420673e-04 2.800024e+01
-1.787308e-04 8.333013e-04 2.799990e+01
-1.446159e-04 8.358820e-04 2.799992e+01
1.240452e-03 1.737088e-03 2.800011e+01
1.256538e-03 1.728966e-03 2.800013e+01
4.527607e-03 3.042376e-03 2.800052e+01
4.560453e-03 3.035417e-03 2.800055e+01
9.269834e-03 5.415160e-03 2.800049e+01
9.279998e-03 5.422284e-03 2.800048e+01
1.321278e-02 7.093208e-03 2.800008e+01
1.324830e-02 7.100021e-03 2.800010e+01
1.689436e-02 1.000199e-02 2.800127e+01
1.692786e-02 1.003559e-02 2.800129e+01
1.883422e-02 9.680474e-03 2.800139e+01
1.883804e-02 9.716649e-03 2.800141e+01
2.384551e-02 1.250675e-02 2.800727e+01
2.383858e-02 1.252491e-02 2.800727e+01
1.161718e-02 1.073977e-02 2.799565e+01
8.909795e-04 3.107722e-03 2.799757e+01
7.196050e-03 5.563682e-03 2.799862e+01
-1.890542e-03 1.007185e-02 2.799915e+01
1.159786e-02 1.074167e-02 2.799571e+01
9.221374e-04 3.094121e-03 2.799759e+01
7.208002e-03 5.571023e-03 2.799863e+01
-1.905179e-03 1.016691e-02 2.799913e+01
-6.802622e-03 7.489838e-03 2.800327e+01
-2.825537e-03 8.511982e-03 2.800127e+01
-1.425094e-03 5.793079e-03 2.800087e+01
-3.698765e-03 4.060467e-03 2.800252e+01
-6.803526e-03 7.535510e-03 2.800325e+01
-2.844437e-03 8.518871e-03 2.800121e+01
-1.432238e-03 5.787932e-03 2.800091e+01
-3.722694e-03 4.054649e-03 2.800244e+01
5.696716e-03 1.982167e-02 2.799973e+01
6.848357e-03 1.841948e-02 2.799791e+01
-3.768426e-04 1.805675e-02 2.800055e+01
5.625495e-04 1.995068e-02 2.799975e+01
5.683692e-03 1.987828e-02 2.799974e+01
6.840492e-03 1.842973e-02 2.799792e+01
-3.697491e-04 1.818495e-02 2.800055e+01
5.567207e-04 1.998467e-02 2.799976e+01
4.272639e-05 1.808461e-02 2.799687e+01
5.290769e-03 1.743952e-02 2.799996e+01
6.490007e-03 2.209693e-02 2.800055e+01
1.464955e-05 1.812659e-02 2.799690e+01
5.239035e-03 1.750422e-02 2.799997e+01
6.488806e-03 2.210329e-02 2.800060e+01
7.880791e-03 2.419895e-02 2.800225e+01
2.141173e-03 2.640560e-02 2.800309e+01
7.807412e-03 2.430608e-02 2.800225e+01
2.181167e-03 2.624024e-02 2.800294e+01
-2.834297e-03 4.184497e-03 2.800311e+01
-1.400778e-02 4.170017e-03 2.800642e+01
-6.228534e-03 1.494256e-02 2.800270e+01
2.404364e-03 1.257936e-02 2.800016e+01
-2.903220e-03 4.081909e-03 2.800312e+01
-1.403333e-02 4.125142e-03 2.800631e+01
-6.254615e-03 1.489662e-02 2.800261e+01
2.367234e-03 1.258094e-02 2.800008e+01
8.125004e-03 2.340045e-02 2.799804e+01
2.443402e-02 3.730674e-02 2.800750e+01
8.138630e-03 2.328164e-02 2.799815e+01
2.431776e-02 3.739819e-02 2.800745e+01
1.386108e-03 1.304214e-02 2.799911e+01
-3.291642e-03 1.163047e-02 2.800245e+01
1.395382e-03 1.309653e-02 2.799916e+01
-3.283025e-03 1.166753e-02 2.800244e+01
-1.812821e-03 4.501789e-03 2.800036e+01
2.610238e-04 7.546227e-03 2.799987e+01
3.157295e-03 5.123604e-03 2.799963e+01
-1.831508e-03 4.532958e-03 2.800033e+01
2.414287e-04 7.627520e-03 2.799987e+01
3.161030e-03 5.112989e-03 2.799964e+01
2.418246e-04 2.648955e-03 2.800051e+01
2.218089e-04 2.628505e-03 2.800054e+01
-1.220194e-03 1.943230e-03 2.800080e+01
1.990922e-04 1.887612e-03 2.800193e+01
-1.221535e-03 1.983559e-03 2.800080e+01
1.667307e-04 1.848542e-03 2.800198e+01
-4.386384e-03 6.137382e-03 2.800656e+01
-3.259692e-02 6.290236e-04 2.801287e+01
-4.428553e-03 6.298408e-03 2.800651e+01
-3.246513e-02 3.616511e-04 2.801267e+01
-2.744724e-02 2.220057e-02 2.800679e+01
-2.738139e-02 2.227814e-02 2.800662e+01
-3.065980e-04 8.643069e-03 2.799614e+01
-3.363340e-04 8.674111e-03 2.799622e+01
-1.557015e-03 1.107632e-02 2.799476e+01
-1.007271e-03 5.245002e-03 2.799939e+01
1.121166e-03 7.841318e-03 2.799536e+01
-1.672520e-03 1.101475e-02 2.799503e+01
-1.006468e-03 5.240167e-03 2.799934e+01
1.155297e-03 7.886022e-03 2.799516e+01
2.049810e-02 -6.600281e-03 2.800446e+01
1.128556e-02 6.647622e-03 2.800408e+01
3.099393e-03 1.790536e-03 2.800316e+01
-5.072604e-04 3.967505e-03 2.800127e+01
2.055129e-02 -6.470469e-03 2.800447e+01
1.116741e-02 6.541886e-03 2.800401e+01
3.094996e-03 1.635986e-03 2.800323e+01
-5.951802e-04 3.665436e-03 2.800131e+01
-1.811420e-03 4.950868e-03 2.800091e+01
5.712294e-04 2.895640e-03 2.800605e+01
-1.865181e-03 5.032044e-03 2.800096e+01
5.135380e-04 2.804669e-03 2.800610e+01
-2.969718e-03 6.518738e-03 2.799940e+01
-2.979124e-03 6.592655e-03 2.799938e+01
-1.618806e-02 1.597177e-04 2.801430e+01
-1.920326e-03 -1.117907e-04 2.801253e+01
-1.459156e-02 1.356727e-03 2.802414e+01
8.971873e-03 8.547838e-03 2.803783e+01
-1.630978e-02 8.164371e-05 2.801459e+01
-1.998637e-03 -2.067051e-04 2.801246e+01
-1.450292e-02 1.391580e-03 2.802386e+01
8.760578e-03 8.519105e-03 2.803774e+01
1.445957e-02 -1.145193e-04 2.801137e+01
1.441673e-02 -2.293483e-04 2.801144e+01
1.119303e-02 1.922796e-02 2.799464e+01
1.117389e-02 1.928860e-02 2.799466e+01
1.493416e-03 2.063553e-02 2.799616e+01
1.488110e-03 2.058720e-02 2.799619e+01
1.009632e-03 3.536020e-03 2.799938e+01
1.008301e-03 3.584156e-03 2.799940e+01
7.163921e-03 5.662877e-03 2.799922e+01
7.169992e-03 5.649842e-03 2.799921e+01
-3.479891e-04 8.508158e-03 2.800017e+01
-3.497216e-04 8.492615e-03 2.800013e+01
3.151164e-03 5.273312e-04 2.799925e+01
3.767995e-03 3.866663e-03 2.799977e+01
3.148267e-03 5.134665e-04 2.799927e+01
3.793837e-03 3.875379e-03 2.799973e+01
6.437189e-04 6.516226e-04 2.799948e+01
2.501839e-03 1.212679e-03 2.799972e+01
6.456325e-04 6.499661e-04 2.799946e+01
2.518117e-03 1.217225e-03 2.799975e+01
8.576721e-04 6.642320e-05 2.799964e+01
1.249825e-03 6.298930e-04 2.799977e+01
8.527938e-04 6.800535e-05 2.799967e+01
1.253073e-03 6.281393e-04 2.799978e+01
3.143547e-04 2.085534e-05 2.799979e+01
1.023678e-03 1.578848e-04 2.799989e+01
3.101488e-04 1.021674e-05 2.799981e+01
1.025968e-03 1.642510e-04 2.799988e+01
1.983917e-04 -3.139396e-04 2.799986e+01
6.906232e-04 1.308570e-05 2.799994e+01
2.102655e-04 -2.942101e-04 2.799989e+01
6.709437e-04 1.304998e-05 2.799993e+01
-1.333822e-06 -1.173082e-04 2.799998e+01
4.608441e-04 -8.094811e-05 2.799995e+01
5.153716e-06 -1.534038e-04 2.799997e+01
4.503744e-04 -6.067520e-05 2.799997e+01
9.151329e-05 -1.478608e-04 2.799998e+01
2.137833e-04 -8.382101e-05 2.799998e+01
9.600194e-05 -1.685528e-04 2.800000e+01
1.975229e-04 -8.413592e-05 2.799998e+01
-1.391162e-05 -1.226114e-04 2.800001e+01
1.329927e-04 -5.562698e-05 2.799999e+01
-4.822387e-06 -9.820610e-05 2.799999e+01
1.301559e-04 -3.961329e-05 2.799999e+01
3.969182e-06 -8.630832e-05 2.800000e+01
5.079457e-05 -1.512962e-06 2.800000e+01
1.348258e-05 -9.147935e-05 2.800000e+01
6.294621e-05 -1.766763e-05 2.799999e+01
-6.138065e-05 -5.149375e-05 2.799999e+01
6.016935e-05 -3.996721e-06 2.800000e+01
-4.601828e-05 -6.447901e-05 2.800001e+01
6.690975e-05 3.541742e-06 2.799999e+01
-1.668794e-05 -2.515846e-05 2.800002e+01
2.755156e-05 2.971334e-05 2.800000e+01
-3.996077e-06 -1.747289e-05 2.799998e+01
3.497741e-05 2.288781e-05 2.799999e+01
6.947809e-06 2.056645e-05 2.800000e+01
4.266407e-05 -5.634545e-06 2.800000e+01
-1.854108e-06 1.640159e-05 2.800000e+01
3.804650e-05 -8.438086e-06 2.800000e+01
7.297140e-06 1.558716e-05 2.799999e+01
-2.846435e-07 -1.107816e-06 2.800000e+01
-7.980256e-06 2.525722e-05 2.800000e+01
-1.366385e-05 -7.750339e-06 2.800000e+01
1.312350e-06 2.397424e-06 2.800000e+01
-1.722611e-05 -8.011813e-06 2.800000e+01
-4.045450e-09 -5.160245e-06 2.799999e+01
-1.451927e-05 -1.831304e-06 2.800000e+01
1.074139e-04 2.691974e-03 2.799989e+01
1.218530e-04 2.695898e-03 2.799991e+01
1.738841e-03 2.146970e-03 2.799991e+01
1.742830e-03 2.142197e-03 2.799989e+01
1.662024e-03 1.059745e-03 2.800001e+01
1.666708e-03 1.043600e-03 2.800001e+01
1.190455e-03 5.069606e-04 2.800003e+01
1.178982e-03 5.326709e-04 2.800004e+01
8.169126e-04 2.318061e-04 2.800000e+01
7.944319e-04 2.072553e-04 2.800006e+01
5.066387e-04 1.026369e-04 2.800003e+01
4.884362e-04 1.187170e-04 2.800003e+01
3.266845e-04 2.381309e-05 2.800002e+01
3.151821e-04 1.970362e-05 2.800003e+01
1.655699e-04 5.137484e-06 2.800000e+01
1.691935e-04 1.918457e-05 2.800003e+01
1.305256e-04 2.018990e-05 2.800001e+01
1.264661e-04 1.374113e-05 2.800001e+01
7.445008e-05 5.894969e-05 2.799999e+01
7.026682e-05 5.477091e-05 2.800001e+01
4.223974e-05 3.342530e-05 2.800000e+01
3.650163e-05 2.886486e-05 2.800001e+01
1.481465e-05 3.359549e-05 2.800001e+01
1.001822e-05 3.149961e-05 2.799999e+01
-5.344006e-06 1.120051e-06 2.800000e+01
-5.549861e-06 -1.099134e-05 2.800000e+01
-9.785833e-06 -1.187135e-05 2.800000e+01
3.379931e-06 -5.562407e-06 2.800000e+01
1.643810e-03 2.899990e-03 2.799996e+01
1.638493e-03 2.891296e-03 2.799995e+01
3.878228e-04 1.565713e-03 2.800002e+01
3.859501e-04 1.574064e-03 2.800003e+01
8.987297e-04 1.216819e-03 2.800001e+01
8.842427e-04 1.232843e-03 2.800003e+01
7.639148e-04 8.355399e-04 2.800002e+01
7.566413e-04 8.250718e-04 2.800002e+01
5.579431e-04 4.486166e-04 2.800003e+01
5.489588e-04 4.513850e-04 2.800000e+01
3.566268e-04 2.468443e-04 2.800001e+01
3.517445e-04 2.412913e-04 2.800002e+01
2.391384e-04 1.485520e-04 2.800000e+01
2.378015e-04 1.502355e-04 2.800001e+01
1.541759e-04 8.607845e-05 2.800002e+01
1.624304e-04 6.238459e-05 2.799999e+01
1.379013e-04 5.965528e-05 2.799999e+01
1.309884e-04 7.285059e-05 2.800001e+01
6.671364e-05 2.413998e-05 2.799999e+01
4.501921e-05 2.115248e-05 2.800002e+01
3.535821e-05 2.652462e-05 2.800000e+01
2.406260e-05 3.054696e-05 2.800000e+01
4.491954e-06 1.082442e-05 2.799999e+01
-1.246955e-05 9.479707e-07 2.800001e+01
-1.615079e-05 2.178629e-05 2.800001e+01
-1.470604e-05 1.799769e-05 2.799999e+01
-8.430774e-06 7.101553e-06 2.800001e+01
-8.153057e-06 2.081710e-05 2.800000e+01
-7.495247e-04 2.172554e-03 2.800013e+01
-7.653535e-04 2.182113e-03 2.800013e+01
9.938096e-04 1.742886e-03 2.800007e+01
9.795597e-04 1.742503e-03 2.800007e+01
2.560345e-04 1.188874e-03 2.800009e+01
2.493787e-04 1.189979e-03 2.800009e+01
3.426211e-04 8.578558e-04 2.800009e+01
3.268723e-04 8.480071e-04 2.800010e+01
2.866786e-04 5.901382e-04 2.800008e+01
2.882676e-04 6.239880e-04 2.800009e+01
2.332258e-04 3.815111e-04 2.800008e+01
2.338959e-04 3.712568e-04 2.800005e+01
1.241128e-04 2.205174e-04 2.800005e+01
1.323764e-04 2.215738e-04 2.800004e+01
1.491446e-04 1.453108e-04 2.800002e+01
1.478731e-04 1.325125e-04 2.800004e+01
7.541877e-05 4.649107e-05 2.800002e+01
6.164954e-05 5.329609e-05 2.800002e+01
6.926834e-05 8.402152e-06 2.800002e+01
5.855942e-05 3.079660e-05 2.800001e+01
1.299903e-05 -9.689568e-07 2.800000e+01
-6.923730e-07 -1.706968e-05 2.800002e+01
5.710140e-06 -1.318870e-05 2.800001e+01
-6.608180e-07 -1.944601e-06 2.800000e+01
2.550403e-06 -1.146841e-05 2.800001e+01
-1.573864e-05 -1.790773e-06 2.799999e+01
-2.216681e-05 1.118992e-05 2.799998e+01
-2.784676e-05 3.785900e-06 2.800003e+01
7.747089e-04 1.719104e-03 2.800022e+01
7.454445e-04 1.699920e-03 2.800020e+01
-4.430430e-04 1.571700e-03 2.800022e+01
-4.499514e-04 1.551841e-03 2.800022e+01
3.804501e-04 1.228255e-03 2.800030e+01
3.698564e-04 1.252045e-03 2.800032e+01
1.087168e-04 8.753189e-04 2.800032e+01
9.488264e-05 8.786727e-04 2.800031e+01
6.119180e-05 6.188149e-04 2.800026e+01
4.416345e-05 5.840581e-04 2.800026e+01
5.405151e-05 4.145175e-04 2.800019e+01
6.171416e-05 4.335985e-04 2.800020e+01
1.090837e-04 2.870365e-04 2.800015e+01
1.053760e-04 2.769733e-04 2.800014e+01
3.049781e-05 1.432902e-04 2.800010e+01
3.674605e-05 1.618797e-04 2.800009e+01
7.181378e-05 5.581493e-05 2.800005e+01
7.080925e-05 7.579124e-05 2.800006e+01
1.916615e-05 5.719183e-07 2.800002e+01
1.256556e-05 -1.785170e-05 2.800006e+01
2.725334e-05 -4.467021e-05 2.800002e+01
1.003573e-05 -2.519148e-05 2.800003e+01
-9.562232e-06 -3.354704e-05 2.800001e+01
-1.653512e-05 -3.759184e-05 2.800002e+01
9.119534e-06 -2.820793e-05 2.800000e+01
4.792664e-06 -1.955922e-05 2.800002e+01
-1.742828e-05 -2.919054e-05 2.800002e+01
-4.334405e-05 -2.869011e-05 2.800000e+01
7.187048e-05 1.105544e-03 2.799990e+01
5.757038e-04 3.282298e-03 2.800000e+01
6.648544e-05 1.095974e-03 2.799991e+01
5.828167e-04 3.266115e-03 2.800001e+01
-3.535239e-05 -1.033662e-05 2.799990e+01
-3.972063e-05 -6.464375e-06 2.799990e+01
4.154629e-05 -9.945971e-05 2.799997e+01
2.827576e-05 -8.669551e-05 2.799995e+01
3.114932e-05 1.428706e-05 2.799999e+01
2.569393e-05 1.003779e-05 2.799998e+01
1.425523e-05 3.668223e-06 2.799999e+01
-6.244840e-06 2.179243e-05 2.800001e+01
-1.300228e-05 -1.512619e-05 2.800000e+01
9.050544e-06 -6.549330e-06 2.800000e+01
1.958916e-05 -8.002400e-06 2.800001e+01
6.269546e-06 -4.056861e-06 2.799999e+01
1.107159e-05 1.178728e-05 2.800000e+01
3.985380e-05 4.866201e-06 2.800000e+01
6.344992e-05 1.305027e-03 2.799989e+01
6.813826e-04 4.139025e-03 2.800004e+01
6.745838e-05 1.292963e-03 2.799992e+01
6.917238e-04 4.133390e-03 2.800005e+01
-3.648470e-06 -9.592188e-05 2.799989e+01
-9.368511e-06 -9.821901e-05 2.799989e+01
6.179946e-05 -8.013041e-05 2.799996e+01
5.912335e-05 -7.873959e-05 2.799996e+01
4.921780e-05 4.983205e-05 2.799999e+01
5.100463e-05 6.452814e-05 2.799998e+01
3.271461e-05 4.264199e-05 2.800000e+01
2.829245e-05 3.103684e-05 2.800000e+01
2.365870e-06 1.658889e-05 2.800000e+01
-1.405778e-06 1.637102e-05 2.800000e+01
1.922295e-05 1.150213e-05 2.800000e+01
1.944850e-05 2.170686e-05 2.800000e+01
2.810256e-05 -4.867952e-06 2.799999e+01
2.572162e-05 5.126308e-06 2.800000e+01
-1.323471e-05 1.325362e-03 2.799988e+01
-2.047693e-04 4.498093e-03 2.800003e+01
-2.621244e-05 1.315292e-03 2.799991e+01
-2.158298e-04 4.482625e-03 2.800005e+01
1.026998e-05 -1.986068e-04 2.799987e+01
4.491002e-05 -2.027443e-04 2.799989e+01
4.081252e-05 -6.414257e-05 2.799996e+01
2.619056e-05 -6.155178e-05 2.799996e+01
2.648943e-05 1.150564e-04 2.799999e+01
3.983213e-05 1.100455e-04 2.799998e+01
2.550733e-05 2.267245e-05 2.799999e+01
2.916139e-05 2.922355e-05 2.800001e+01
1.703635e-05 3.353961e-06 2.799999e+01
-7.744627e-06 3.345283e-07 2.800001e+01
-1.984106e-07 1.262170e-05 2.800000e+01
2.787240e-05 1.574613e-05 2.800000e+01
2.220761e-05 2.135002e-05 2.800000e+01
-3.146306e-06 1.432773e-05 2.800000e+01
-7.825555e-05 1.100631e-03 2.799988e+01
-3.968917e-04 4.184402e-03 2.800006e+01
-7.786127e-05 1.117791e-03 2.799989e+01
-4.053742e-04 4.184479e-03 2.800007e+01
8.334206e-05 -1.806879e-04 2.799989e+01
5.205179e-05 -1.737124e-04 2.799988e+01
1.181450e-05 -4.321655e-05 2.799996e+01
2.495211e-05 -3.523847e-05 2.799997e+01
2.754604e-05 7.747353e-05 2.799998e+01
4.793428e-07 6.631258e-05 2.800000e+01
3.420004e-07 3.098861e-05 2.800001e+01
1.019671e-05 2.093098e-05 2.799999e+01
6.543160e-06 1.730739e-06 2.800000e+01
2.749187e-05 4.605444e-06 2.800000e+01
2.731150e-05 1.732384e-05 2.800000e+01
-1.019689e-05 6.091055e-06 2.800000e+01
-2.115041e-05 -2.515976e-07 2.800000e+01
1.069219e-05 -5.276398e-06 2.800000e+01
7.337367e-05 8.704620e-04 2.799988e+01
-9.906546e-04 3.117923e-03 2.799999e+01
6.397126e-05 8.765464e-04 2.799988e+01
-9.936768e-04 3.127821e-03 2.799999e+01
7.209669e-05 1.076316e-05 2.799993e+01
8.622953e-05 4.034439e-05 2.799991e+01
2.815334e-05 -3.644488e-05 2.799997e+01
3.318509e-05 -4.310217e-05 2.799997e+01
1.600152e-05 4.090419e-05 2.800000e+01
2.132152e-05 3.509824e-05 2.799999e+01
1.401828e-05 1.472184e-05 2.800000e+01
1.734791e-05 1.447307e-05 2.800000e+01
2.443872e-05 3.024218e-06 2.800000e+01
1.600219e-05 -4.032854e-06 2.800000e+01
5.744568e-06 -2.034394e-07 2.800000e+01
1.360427e-05 -4.436042e-06 2.800000e+01
-5.624802e-07 5.959673e-06 2.800000e+01
-4.373872e-06 3.195916e-06 2.800000e+01
2.176872e-04 9.031472e-04 2.799996e+01
-7.655990e-04 1.116091e-03 2.799992e+01
2.127299e-04 9.194501e-04 2.799994e+01
-7.917134e-04 1.119074e-03 2.799992e+01
1.142881e-04 1.384182e-04 2.799991e+01
1.240421e-04 1.240786e-04 2.799993e+01
8.894112e-05 -2.356037e-05 2.799997e+01
6.304947e-05 -2.171480e-05 2.799997e+01
4.938125e-05 3.686653e-05 2.799999e+01
6.526933e-05 4.343955e-05 2.800000e+01
6.599588e-05 1.840236e-05 2.800000e+01
5.351286e-05 1.891277e-05 2.800000e+01
5.062563e-05 3.735429e-06 2.800000e+01
6.104196e-05 1.840391e-05 2.800000e+01
4.809341e-05 1.508787e-05 2.800000e+01
4.086093e-05 2.194342e-05 2.800000e+01
2.784464e-05 1.960213e-05 2.800000e+01
1.739925e-05 2.175951e-05 2.800000e+01
2.240884e-05 6.460136e-06 2.799993e+01
-4.558169e-05 -2.477082e-05 2.799997e+01
3.628586e-05 1.727764e-05 2.799989e+01
2.194198e-05 9.301775e-05 2.799987e+01
2.350368e-05 1.306724e-05 2.799993e+01
-3.494502e-05 -3.907917e-05 2.799997e+01
4.038847e-05 3.142479e-05 2.799988e+01
3.266713e-05 9.923164e-05 2.799986e+01
7.823763e-05 2.162971e-04 2.799971e+01
2.936055e-04 1.664431e-04 2.799963e+01
9.822563e-05 2.090416e-04 2.799971e+01
2.933046e-04 1.698958e-04 2.799964e+01
2.976647e-04 4.752966e-04 2.799945e+01
9.659793e-04 8.662657e-04 2.799964e+01
3.135267e-04 4.890688e-04 2.799947e+01
9.774643e-04 8.702394e-04 2.799963e+01
8.164328e-04 7.741692e-04 2.799943e+01
6.272931e-04 1.067004e-03 2.799932e+01
8.092992e-04 7.751245e-04 2.799944e+01
6.170907e-04 1.062572e-03 2.799935e+01
1.518444e-03 8.006565e-04 2.799929e+01
2.508069e-03 1.730693e-03 2.799959e+01
1.500441e-03 8.118040e-04 2.799930e+01
2.512589e-03 1.723121e-03 2.799958e+01
1.545169e-03 1.230538e-03 2.799918e+01
7.298554e-04 1.501168e-03 2.799896e+01
1.505561e-03 1.199054e-03 2.799924e+01
7.314912e-04 1.483846e-03 2.799896e+01
2.764170e-03 7.566861e-04 2.799912e+01
4.834960e-03 2.603739e-03 2.799920e+01
2.737595e-03 8.148380e-04 2.799914e+01
4.791115e-03 2.593345e-03 2.799922e+01
1.047076e-05 -6.425600e-05 2.799999e+01
-4.688922e-05 -3.583981e-05 2.799999e+01
1.399981e-05 -7.615919e-05 2.800000e+01
-3.150100e-05 -3.649191e-05 2.799997e+01
5.992129e-05 -4.252508e-05 2.799989e+01
7.526716e-05 -2.681189e-05 2.799988e+01
-8.404584e-06 1.452959e-04 2.799979e+01
-1.652552e-06 1.116831e-04 2.799973e+01
8.865331e-04 1.795552e-04 2.799963e+01
9.008982e-04 1.875237e-04 2.799962e+01
8.184388e-04 6.476505e-04 2.799951e+01
8.104496e-04 6.537291e-04 2.799953e+01
1.549695e-03 6.962873e-04 2.799930e+01
1.530698e-03 7.584434e-04 2.799937e+01
2.564161e-03 1.003088e-03 2.799915e+01
2.512853e-03 9.398111e-04 2.799917e+01
5.322135e-04 2.288523e-03 2.799881e+01
5.435780e-04 2.245920e-03 2.799883e+01
-1.753343e-05 -4.917953e-05 2.800000e+01
-1.259595e-05 -4.801547e-05 2.800000e+01
4.508788e-06 -1.452083e-05 2.799999e+01
1.067312e-05 -8.888993e-06 2.799999e+01
-1.416767e-05 -1.667697e-05 2.799998e+01
-1.104775e-05 -1.726326e-05 2.799998e+01
-2.703762e-05 -1.015955e-05 2.800001e+01
-9.190011e-06 -6.002271e-06 2.799999e+01
1.203427e-05 1.313769e-05 2.800000e+01
2.474908e-05 3.886668e-06 2.799999e+01
-8.351461e-07 2.181653e-05 2.800000e+01
-8.273123e-06 2.876838e-05 2.800000e+01
-1.496405e-05 1.656706e-05 2.800000e+01
-7.545838e-06 2.509036e-05 2.800000e+01
1.043818e-05 3.590871e-05 2.800000e+01
2.004714e-05 3.150732e-05 2.800000e+01
8.477423e-06 2.767554e-05 2.799999e+01
3.954085e-06 2.238817e-05 2.800001e+01
-8.903231e-07 2.932327e-05 2.800000e+01
-5.536138e-06 2.988790e-05 2.800000e+01
-4.158840e-06 2.166769e-05 2.800000e+01
-8.065611e-06 2.827106e-05 2.800000e+01
1.335375e-05 2.664300e-05 2.800000e+01
2.163811e-05 2.546547e-05 2.800000e+01
-2.795998e-06 1.141968e-05 2.800000e+01
2.179824e-06 -2.753138e-06 2.800000e+01
-1.617223e-06 1.717812e-05 2.800000e+01
-1.290833e-05 2.890598e-05 2.800000e+01
9.116478e-06 1.817627e-05 2.800000e+01
1.640542e-05 1.309236e-05 2.800000e+01
5.335041e-06 -2.507669e-05 2.799999e+01
-1.087625e-05 -4.868928e-06 2.800000e+01
5.233335e-06 -1.832703e-05 2.799998e+01
1.420051e-05 -2.892196e-05 2.800002e+01
-1.782693e-06 -1.703552e-05 2.800000e+01
-2.361323e-05 -2.560613e-05 2.800000e+01
7.084963e-04 5.916438e-04 2.800000e+01
2.389232e-04 8.586230e-05 2.799992e+01
7.179319e-04 6.029043e-04 2.799999e+01
2.436402e-04 8.912213e-05 2.799992e+01
5.184928e-04 -8.455425e-04 2.799980e+01
2.030655e-04 -3.246065e-05 2.800002e+01
5.215097e-04 -8.513499e-04 2.799981e+01
2.018002e-04 -2.453213e-05 2.800000e+01
3.974819e-04 5.953699e-04 2.800015e+01
1.383835e-04 -1.387189e-05 2.799997e+01
3.855171e-04 5.951262e-04 2.800013e+01
1.426123e-04 -1.331567e-05 2.799997e+01
2.333644e-05 -1.162444e-03 2.799979e+01
8.576052e-06 -8.501472e-05 2.800000e+01
3.719770e-05 -1.168686e-03 2.799978e+01
1.495538e-05 -9.857798e-05 2.800001e+01
-6.423211e-04 3.365309e-04 2.799998e+01
-3.206197e-04 2.001938e-04 2.799996e+01
-6.468334e-04 3.384781e-04 2.799999e+01
-3.222555e-04 1.940743e-04 2.799996e+01
3.993254e-05 -6.488364e-06 2.799997e+01
3.611244e-05 -1.777207e-06 2.799997e+01
7.810052e-05 9.601535e-05 2.799999e+01
7.809785e-05 9.544070e-05 2.800000e+01
4.613521e-05 -5.694661e-05 2.799998e+01
4.507530e-05 -6.595228e-05 2.799999e+01
-2.439390e-05 1.115064e-04 2.800001e+01
-3.062312e-05 1.147286e-04 2.800001e+01
-2.996146e-05 2.610937e-04 2.799997e+01
-2.218381e-05 2.454610e-04 2.800000e+01
-1.824055e-05 2.593650e-05 2.800000e+01
-6.849202e-06 3.110050e-05 2.799998e+01
-5.687983e-06 1.488211e-05 2.799999e+01
-3.415755e-06 2.249066e-06 2.800001e+01
-3.049911e-05 2.977897e-05 2.800000e+01
-2.507556e-05 3.936849e-05 2.799999e+01
-1.862556e-05 1.189519e-04 2.800000e+01
-1.440456e-05 1.256224e-04 2.800000e+01
5.035538e-05 1.581123e-04 2.799999e+01
5.876192e-05 1.569959e-04 2.799999e+01
-1.238362e-05 2.162272e-05 2.799999e+01
-2.439692e-05 1.560122e-05 2.800001e+01
-5.604477e-05 1.267796e-05 2.800001e+01
-3.675866e-05 2.152028e-05 2.799999e+01
-2.055549e-05 6.026840e-05 2.800000e+01
-2.942643e-05 6.574741e-05 2.799999e+01
1.918976e-07 1.035556e-04 2.799999e+01
5.777971e-06 1.006646e-04 2.800000e+01
4.626284e-05 7.167969e-05 2.800000e+01
2.755328e-05 6.525655e-05 2.799998e+01
-1.948555e-05 3.686825e-05 2.800002e+01
-2.710581e-05 3.707724e-05 2.799998e+01
-2.662863e-05 6.120407e-05 2.799998e+01
-3.633249e-05 6.571324e-05 2.800002e+01
-3.741493e-05 5.698671e-05 2.800001e+01
-3.879798e-05 5.809947e-05 2.799999e+01
1.110977e-05 4.496974e-05 2.800000e+01
8.165803e-06 4.795900e-05 2.800000e+01
1.536832e-05 3.387802e-05 2.799998e+01
3.682280e-05 3.534297e-05 2.800001e+01
-7.938634e-06 5.761683e-05 2.799998e+01
1.107167e-05 4.087053e-05 2.800002e+01
-3.200553e-05 4.041593e-05 2.799999e+01
-5.534931e-05 3.436073e-05 2.800001e+01
-3.967346e-05 4.894375e-05 2.800000e+01
-1.475473e-05 4.907275e-05 2.800000e+01
-1.602143e-05 3.890775e-05 2.799999e+01
-1.080041e-05 4.382105e-05 2.800001e+01
2.290992e-05 9.804076e-06 2.800002e+01
1.177162e-05 1.329499e-05 2.799998e+01
1.262444e-05 -1.019800e-05 2.799998e+01
-1.924209e-05 -1.236553e-05 2.800002e+01
-4.052728e-05 2.638870e-05 2.800001e+01
-7.154926e-06 9.805463e-06 2.799999e+01
-8.022712e-06 3.780321e-05 2.800000e+01
-2.528055e-05 2.825406e-05 2.799999e+01
-1.559506e-05 3.636809e-05 2.800000e+01
-2.280238e-05 4.115494e-05 2.799999e+01
2.190720e-06 4.343729e-05 2.800001e+01
2.076361e-05 5.469633e-05 2.799999e+01
-1.329364e-05 1.510662e-06 2.800002e+01
-7.288349e-06 -3.127716e-06 2.799998e+01
1.586420e-05 -2.960112e-06 2.799999e+01
-1.097133e-06 -3.837721e-06 2.800001e+01
-2.910701e-05 1.291947e-05 2.799999e+01
-3.605186e-05 2.274319e-05 2.800001e+01
1.334698e-05 4.822615e-05 2.800001e+01
-3.285234e-06 4.567713e-05 2.799999e+01
-2.669867e-06 4.557041e-05 2.800000e+01
5.322545e-06 4.660127e-05 2.800001e+01
3.090882e-03 3.997588e-03 2.800000e+01
3.082468e-03 3.986798e-03 2.800001e+01
1.408105e-03 4.976393e-03 2.799990e+01
1.420351e-03 4.969469e-03 2.799991e+01
4.487047e-04 5.435955e-03 2.800004e+01
4.719717e-04 5.420104e-03 2.800005e+01
-1.307270e-03 5.190219e-03 2.800013e+01
-1.324683e-03 5.188227e-03 2.800012e+01
-2.069435e-03 3.533723e-03 2.799999e+01
-2.091751e-03 3.536655e-03 2.800000e+01
-3.000435e-03 1.463024e-03 2.799980e+01
-3.005804e-03 1.467761e-03 2.799979e+01
6.349097e-03 6.052886e-03 2.799955e+01
6.351414e-03 6.030455e-03 2.799960e+01
3.741491e-03 7.187039e-03 2.799942e+01
3.750208e-03 7.201115e-03 2.799943e+01
4.070000e-04 7.611403e-03 2.799967e+01
3.959720e-04 7.599121e-03 2.799970e+01
-1.550764e-03 6.688595e-03 2.799986e+01
-1.560994e-03 6.668176e-03 2.799989e+01
-3.667528e-03 4.973933e-03 2.799972e+01
-3.682572e-03 4.974335e-03 2.799974e+01
-4.137940e-03 1.465963e-03 2.799961e+01
-4.155371e-03 1.446484e-03 2.799961e+01
1.030318e-02 1.014841e-02 2.800009e+01
1.029429e-02 1.013831e-02 2.800013e+01
5.250480e-03 1.093748e-02 2.799941e+01
5.268954e-03 1.094398e-02 2.799945e+01
1.599901e-03 1.098200e-02 2.799956e+01
1.599011e-03 1.097820e-02 2.799960e+01
-2.926037e-03 9.891829e-03 2.799968e+01
-2.920695e-03 9.877598e-03 2.799971e+01
-5.413527e-03 6.402947e-03 2.799962e+01
-5.434064e-03 6.389630e-03 2.799964e+01
-7.613557e-03 2.701071e-03 2.799941e+01
-7.640645e-03 2.675998e-03 2.799944e+01
1.301792e-02 1.414120e-02 2.800083e+01
1.301865e-02 1.410992e-02 2.800090e+01
8.509706e-03 1.656024e-02 2.800066e+01
8.508519e-03 1.654190e-02 2.800073e+01
1.534534e-03 1.625819e-02 2.799995e+01
1.525557e-03 1.625915e-02 2.800001e+01
-3.303352e-03 1.409953e-02 2.800015e+01
-3.339137e-03 1.409093e-02 2.800021e+01
-8.448052e-03 9.944353e-03 2.799959e+01
-8.491276e-03 9.938626e-03 2.799963e+01
-9.132046e-03 2.073442e-03 2.799916e+01
-9.166319e-03 2.088017e-03 2.799911e+01
1.747975e-02 1.944656e-02 2.800409e+01
1.752791e-02 1.945796e-02 2.800410e+01
1.095324e-02 2.250073e-02 2.800165e+01
1.094618e-02 2.249827e-02 2.800172e+01
4.393600e-03 2.406042e-02 2.800170e+01
4.361213e-03 2.405966e-02 2.800179e+01
-6.060414e-03 2.199573e-02 2.800135e+01
-6.093649e-03 2.201861e-02 2.800141e+01
-1.170503e-02 1.317267e-02 2.800017e+01
-1.178941e-02 1.318454e-02 2.800022e+01
-1.596576e-02 3.970540e-03 2.799885e+01
-1.601946e-02 3.963695e-03 2.799886e+01
2.203877e-02 1.988306e-02 2.800295e+01
2.209777e-02 1.990205e-02 2.800295e+01
1.925945e-02 3.146989e-02 2.800416e+01
1.932684e-02 3.148767e-02 2.800429e+01
4.693719e-03 3.667545e-02 2.800350e+01
4.674339e-03 3.672104e-02 2.800360e+01
-5.845852e-03 3.095721e-02 2.800243e+01
-5.915434e-03 3.100597e-02 2.800253e+01
-1.630957e-02 2.086739e-02 2.800056e+01
-1.642724e-02 2.090222e-02 2.800060e+01
-1.875831e-02 3.237293e-03 2.799904e+01
-1.884473e-02 3.227876e-03 2.799905e+01
3.842679e-02 2.211256e-02 2.800462e+01
3.856492e-02 2.217188e-02 2.800468e+01
2.564918e-02 4.517395e-02 2.800474e+01
2.573345e-02 4.524490e-02 2.800483e+01
1.241563e-02 5.148277e-02 2.800389e+01
1.239500e-02 5.156450e-02 2.800405e+01
-7.839868e-03 4.786992e-02 2.800243e+01
-7.973425e-03 4.794196e-02 2.800255e+01
-2.145175e-02 2.896755e-02 2.799994e+01
-2.167140e-02 2.901663e-02 2.800003e+01
-3.062324e-02 7.082466e-03 2.799873e+01
-3.069090e-02 7.101868e-03 2.799873e+01
5.620092e-02 3.228935e-02 2.800542e+01
5.638063e-02 3.237086e-02 2.800553e+01
4.431674e-02 6.032277e-02 2.800401e+01
4.446384e-02 6.043932e-02 2.800409e+01
2.029717e-02 7.470307e-02 2.800260e+01
2.025598e-02 7.482212e-02 2.800278e+01
-2.570569e-03 6.893989e-02 2.800000e+01
-2.717756e-03 6.907343e-02 2.800017e+01
-2.654473e-02 4.665276e-02 2.799815e+01
-2.683157e-02 4.672320e-02 2.799829e+01
-3.478969e-02 7.382984e-03 2.799731e+01
-3.498059e-02 7.374608e-03 2.799737e+01
7.306704e-02 4.666728e-02 2.800324e+01
7.316392e-02 4.677378e-02 2.800328e+01
6.254670e-02 6.910503e-02 2.800353e+01
6.276215e-02 6.923971e-02 2.800354e+01
4.741094e-02 1.062061e-01 2.800159e+01
4.756280e-02 1.063904e-01 2.800176e+01
1.979403e-03 1.076236e-01 2.799787e+01
1.694590e-03 1.077672e-01 2.799825e+01
-3.166981e-02 6.722572e-02 2.799408e+01
-3.210313e-02 6.731101e-02 2.799425e+01
-5.639878e-02 2.048401e-02 2.799461e+01
-5.658930e-02 2.052610e-02 2.799466e+01
9.116096e-02 5.356189e-02 2.800210e+01
9.119404e-02 5.368451e-02 2.800214e+01
8.641230e-02 7.825616e-02 2.799952e+01
8.664819e-02 7.839685e-02 2.799955e+01
7.306907e-02 1.264503e-01 2.800769e+01
7.347722e-02 1.266319e-01 2.800775e+01
3.640060e-02 1.715980e-01 2.800172e+01
3.628065e-02 1.717807e-01 2.800216e+01
-3.591539e-02 1.121241e-01 2.798322e+01
-3.681893e-02 1.122650e-01 2.798375e+01
-4.574129e-02 1.117198e-02 2.797652e+01
-4.608800e-02 1.138051e-02 2.797629e+01
1.220142e-01 7.014838e-02 2.800159e+01
1.219909e-01 7.024058e-02 2.800171e+01
1.030825e-01 8.620282e-02 2.800306e+01
1.032705e-01 8.631840e-02 2.800312e+01
1.019217e-01 1.335696e-01 2.800950e+01
1.023953e-01 1.337268e-01 2.800947e+01
9.282238e-02 2.116816e-01 2.801826e+01
9.338308e-02 2.119109e-01 2.801827e+01
2.758348e-02 2.145216e-01 2.797398e+01
2.640623e-02 2.146536e-01 2.797468e+01
-6.266434e-02 1.061792e-02 2.792735e+01
-6.362371e-02 1.092252e-02 2.792798e+01
1.530090e-01 9.086983e-02 2.801396e+01
1.531699e-01 9.092901e-02 2.801406e+01
1.334354e-01 1.050665e-01 2.800620e+01
1.333907e-01 1.051085e-01 2.800641e+01
1.286707e-01 1.209492e-01 2.802172e+01
1.290851e-01 1.211149e-01 2.802147e+01
1.548699e-01 2.071674e-01 2.802324e+01
1.555954e-01 2.074224e-01 2.802343e+01
1.304606e-01 3.114904e-01 2.803492e+01
1.302699e-01 3.115873e-01 2.803578e+01
-9.820012e-02 2.373497e-01 2.798541e+01
-9.875971e-02 2.366380e-01 2.798848e+01
1.874650e-01 8.254415e-02 2.801501e+01
1.879781e-01 8.266710e-02 2.801471e+01
1.765429e-01 1.444457e-01 2.804968e+01
1.764034e-01 1.445070e-01 2.805012e+01
1.530563e-01 1.104601e-01 2.802318e+01
1.529422e-01 1.106553e-01 2.802369e+01
1.034804e-01 2.400539e-01 2.801669e+01
1.049797e-01 2.402172e-01 2.801684e+01
1.352778e-02 3.944820e-01 2.804491e+01
1.465308e-02 3.953065e-01 2.804532e+01
-1.521599e-01 5.513784e-01 2.811855e+01
-1.513561e-01 5.523656e-01 2.811780e+01
2.250423e-01 4.649683e-02 2.802060e+01
2.252552e-01 4.650289e-02 2.802050e+01
2.351805e-01 1.803761e-01 2.809842e+01
2.365568e-01 1.808785e-01 2.809864e+01
4.606127e-02 2.905248e-01 2.807263e+01
4.442634e-02 2.906038e-01 2.807576e+01
-1.012913e-01 2.607762e-01 2.794643e+01
-1.020792e-01 2.644837e-01 2.794896e+01
-2.749372e-01 6.441230e-01 2.772853e+01
-2.766817e-01 6.417729e-01 2.773082e+01
1.357391e-01 7.227590e-02 2.759347e+01
1.342620e-01 7.573370e-02 2.758963e+01
2.942341e-01 4.674800e-02 2.803639e+01
2.942285e-01 4.670793e-02 2.803586e+01
2.947812e-01 1.674783e-01 2.809935e+01
2.975815e-01 1.678196e-01 2.809984e+01
1.488695e-01 6.494266e-01 2.810115e+01
1.502224e-01 6.527980e-01 2.810152e+01
-5.143291e-01 7.541673e-01 2.691517e+01
-5.200544e-01 7.575718e-01 2.692348e+01
-5.237130e-01 4.293451e-01 2.304648e+01
-4.779584e-01 5.533034e-01 2.288131e+01
9.227057e-01 -1.419903e+00 2.293881e+01
9.178042e-01 -1.347448e+00 2.286496e+01
4.394814e-01 -4.907234e-02 2.800919e+01
4.403188e-01 -4.867654e-02 2.800853e+01
5.208844e-01 1.799291e-01 2.816967e+01
5.218467e-01 1.796909e-01 2.816869e+01
8.570709e-01 4.525374e-01 2.792632e+01
8.576553e-01 4.569416e-01 2.792570e+01
2.235904e+00 3.620489e-01 2.417163e+01
2.142285e+00 4.148275e-01 2.413943e+01
3.731858e+00 -2.191917e-01 -8.716994e+00
3.595439e+00 -2.724767e-01 -8.729149e+00
2.151429e+00 -3.048202e-01 1.173772e+00
2.284588e+00 -1.480423e-01 1.162003e+00
4.834287e-01 -7.335211e-02 2.801269e+01
4.840191e-01 -7.419377e-02 2.801230e+01
6.170694e-01 -2.085390e-02 2.825115e+01
6.184651e-01 -2.022654e-02 2.824960e+01
1.055570e+00 -1.333106e-01 2.800804e+01
1.047977e+00 -1.356624e-01 2.800495e+01
1.906847e+00 -1.177812e+00 2.472858e+01
1.849091e+00 -1.212152e+00 2.472337e+01
2.607798e+00 -7.019992e-01 1.093507e+01
2.409450e+00 -8.451085e-01 1.089418e+01
2.342988e+00 1.944383e+00 -1.103950e+01
2.438992e+00 1.857771e+00 -1.105052e+01
4.144706e-01 -1.630155e-01 2.807890e+01
4.149951e-01 -1.631420e-01 2.807829e+01
5.188801e-01 -1.801016e-01 2.814527e+01
5.186462e-01 -1.801775e-01 2.814395e+01
6.067319e-01 -5.132392e-01 2.784680e+01
6.050751e-01 -5.133359e-01 2.784677e+01
2.291224e-02 -1.033410e+00 2.725516e+01
2.235902e-02 -1.037617e+00 2.725911e+01
-5.516515e-01 -7.773746e-01 2.566464e+01
-5.600144e-01 -8.010797e-01 2.562913e+01
9.446329e-01 9.371632e-01 2.547674e+01
9.304469e-01 8.839539e-01 2.533620e+01
3.075421e-01 -1.809121e-01 2.807133e+01
3.081507e-01 -1.810861e-01 2.807071e+01
3.305609e-01 -2.958083e-01 2.806872e+01
3.304592e-01 -2.955392e-01 2.806880e+01
2.015311e-01 -3.546932e-01 2.783851e+01
2.016628e-01 -3.552742e-01 2.783972e+01
1.337035e-01 -5.157362e-01 2.752995e+01
1.333385e-01 -5.176556e-01 2.753385e+01
4.967667e-02 -5.620816e-01 2.731097e+01
4.972302e-02 -5.629183e-01 2.731356e+01
1.163322e-01 -7.011720e-01 2.732262e+01
1.171049e-01 -7.027938e-01 2.733206e+01
2.207385e-01 -2.355859e-01 2.805662e+01
2.211146e-01 -2.354602e-01 2.805664e+01
1.777781e-01 -2.209775e-01 2.802264e+01
1.776365e-01 -2.211196e-01 2.802304e+01
1.710838e-01 -2.909273e-01 2.793625e+01
1.717785e-01 -2.915096e-01 2.793655e+01
1.218267e-01 -4.530068e-01 2.778086e+01
1.231982e-01 -4.539686e-01 2.778013e+01
1.967916e-01 -6.024825e-01 2.769589e+01
1.968253e-01 -6.038460e-01 2.769495e+01
-3.268334e-03 -5.131642e-01 2.768075e+01
-3.536132e-03 -5.142765e-01 2.768049e+01
1.581278e-01 -1.802138e-01 2.802730e+01
1.585211e-01 -1.801743e-01 2.802764e+01
1.484256e-01 -2.216224e-01 2.802688e+01
1.485152e-01 -2.217601e-01 2.802696e+01
1.148389e-01 -2.487470e-01 2.802983e+01
1.157083e-01 -2.491235e-01 2.802985e+01
1.458159e-01 -4.715247e-01 2.802822e+01
1.476582e-01 -4.719695e-01 2.802844e+01
8.287692e-02 -5.847629e-01 2.797243e+01
8.171845e-02 -5.855103e-01 2.797319e+01
-1.444274e-02 -2.198615e-01 2.787459e+01
-1.658283e-02 -2.207736e-01 2.787746e+01
1.664641e-01 -1.779701e-01 2.802318e+01
1.665887e-01 -1.779930e-01 2.802316e+01
1.243544e-01 -1.699503e-01 2.802713e+01
1.246170e-01 -1.699352e-01 2.802800e+01
1.400694e-01 -2.858671e-01 2.804824e+01
1.412926e-01 -2.860452e-01 2.804750e+01
1.237128e-01 -4.440157e-01 2.805109e+01
1.243682e-01 -4.441761e-01 2.805166e+01
7.671334e-02 -4.937827e-01 2.798605e+01
7.778867e-02 -4.940014e-01 2.798972e+01
6.487669e-04 -1.196152e-04 2.799967e+01
6.285512e-04 -1.280323e-04 2.799968e+01
1.681450e-03 1.292038e-03 2.800010e+01
1.701363e-03 1.288727e-03 2.800009e+01
1.191082e-03 1.939566e-04 2.799948e+01
1.162359e-03 1.819067e-04 2.799951e+01
3.681999e-03 2.156354e-03 2.800018e+01
3.704220e-03 2.174803e-03 2.800015e+01
1.908423e-03 -1.704136e-04 2.799910e+01
1.925424e-03 -2.295446e-04 2.799913e+01
6.022227e-03 4.579948e-03 2.800019e+01
5.999784e-03 4.560444e-03 2.800018e+01
3.763020e-03 -7.419790e-04 2.799877e+01
3.792204e-03 -7.847419e-04 2.799883e+01
1.034976e-02 8.493533e-03 2.799892e+01
1.035296e-02 8.480175e-03 2.799893e+01
4.669783e-03 5.978423e-04 2.799797e+01
4.672878e-03 5.738934e-04 2.799804e+01
2.240388e-02 2.236990e-02 2.799675e+01
2.258930e-02 2.234369e-02 2.799695e+01
3.839514e-03 2.700137e-02 2.800002e+01
3.603857e-03 2.702524e-02 2.799993e+01
8.142077e-03 1.381295e-02 2.799538e+01
8.237090e-03 1.379782e-02 2.799531e+01
1.033309e-02 2.848098e-02 2.800079e+01
1.054774e-02 2.828412e-02 2.800114e+01
2.963296e-02 6.283661e-02 2.801093e+01
2.943956e-02 6.290174e-02 2.801084e+01
-4.168574e-02 1.703568e-02 2.799073e+01
-4.209290e-02 1.720254e-02 2.799038e+01
-2.556438e-02 -2.253941e-03 2.797489e+01
-2.528857e-02 -2.255117e-03 2.797484e+01
-5.502332e-02 3.916465e-04 2.798910e+01
-5.424633e-02 1.341543e-04 2.798874e+01
-1.028791e-02 -1.570463e-02 2.799463e+01
-1.004003e-02 -1.564651e-02 2.799456e+01
-7.620569e-03 -1.423316e-02 2.799978e+01
-7.972753e-03 -1.430633e-02 2.799960e+01
2.959871e-02 -1.504811e-02 2.800716e+01
2.973261e-02 -1.489432e-02 2.800746e+01
-3.393713e-03 4.148207e-02 2.799744e+01
-3.238433e-03 4.153176e-02 2.799748e+01
1.893512e-03 -2.242014e-02 2.801303e+01
1.793138e-03 -2.253959e-02 2.801215e+01
9.945227e-04 8.664570e-04 2.800019e+01
1.016159e-03 8.598056e-04 2.800017e+01
1.054230e-03 -7.917305e-04 2.799956e+01
1.027326e-03 -8.124308e-04 2.799959e+01
2.273512e-03 1.468741e-03 2.800040e+01
2.314092e-03 1.477670e-03 2.800035e+01
2.203125e-03 -1.486776e-03 2.799917e+01
2.201797e-03 -1.520924e-03 2.799919e+01
4.461127e-03 2.778289e-03 2.800071e+01
4.440113e-03 2.746880e-03 2.800069e+01
4.242768e-03 -2.474389e-03 2.799895e+01
4.280330e-03 -2.559924e-03 2.799903e+01
8.168530e-03 4.343674e-03 2.800003e+01
8.161869e-03 4.299674e-03 2.800001e+01
7.686091e-03 -2.893299e-03 2.799894e+01
7.712742e-03 -2.935129e-03 2.799903e+01
1.302662e-02 1.223772e-02 2.799900e+01
1.299885e-02 1.219352e-02 2.799895e+01
1.257780e-02 -6.943316e-03 2.799670e+01
1.272625e-02 -6.983646e-03 2.799691e+01
3.440085e-02 5.308188e-02 2.799886e+01
3.457407e-02 5.299664e-02 2.799911e+01
-1.159244e-02 3.021786e-02 2.800041e+01
-1.231676e-02 3.031674e-02 2.800005e+01
-9.889468e-03 6.430253e-03 2.799628e+01
-9.509879e-03 6.161498e-03 2.799636e+01
-1.605446e-03 5.607805e-02 2.802823e+01
-1.455844e-03 5.554088e-02 2.802871e+01
-8.646294e-04 9.596451e-02 2.804981e+01
-1.984587e-03 9.609001e-02 2.804939e+01
-1.152025e-01 1.443858e-02 2.798014e+01
-1.163707e-01 1.493892e-02 2.797947e+01
-8.653518e-02 -1.894002e-02 2.794322e+01
-8.746341e-02 -1.912234e-02 2.794308e+01
-8.904383e-02 -4.011091e-02 2.803071e+01
-9.019900e-02 -4.134454e-02 2.802994e+01
-2.004754e-03 -8.036637e-02 2.806275e+01
-2.482702e-03 -7.956415e-02 2.806293e+01
-2.214280e-02 3.115712e-02 2.801456e+01
-2.207394e-02 3.142769e-02 2.801492e+01
9.645013e-03 -5.809944e-03 2.801011e+01
8.878843e-03 -5.707864e-03 2.800977e+01
6.020270e-03 2.273841e-02 2.800377e+01
6.817574e-03 2.270369e-02 2.800428e+01
5.284694e-04 -1.248329e-03 2.799962e+01
5.492586e-04 -1.278953e-03 2.799965e+01
8.564237e-04 8.178414e-04 2.800027e+01
8.563242e-04 8.037257e-04 2.800025e+01
1.210921e-03 -1.771396e-03 2.799933e+01
1.196561e-03 -1.792265e-03 2.799935e+01
1.715167e-03 1.210841e-03 2.800046e+01
1.715300e-03 1.187332e-03 2.800044e+01
2.712595e-03 -3.379869e-03 2.799876e+01
2.733075e-03 -3.464463e-03 2.799881e+01
3.946514e-03 2.229411e-03 2.800046e+01
3.913555e-03 2.179663e-03 2.800042e+01
5.169351e-03 -5.928741e-03 2.799886e+01
5.171056e-03 -6.012756e-03 2.799892e+01
7.626176e-03 4.924681e-03 2.799984e+01
7.666701e-03 4.834100e-03 2.799987e+01
9.387888e-03 -3.034186e-03 2.799861e+01
9.409562e-03 -3.086001e-03 2.799866e+01
9.654342e-03 8.119798e-03 2.799754e+01
9.565617e-03 8.057288e-03 2.799741e+01
2.175039e-02 2.947276e-03 2.799384e+01
2.226502e-02 2.709865e-03 2.799456e+01
1.780986e-02 1.309457e-01 2.802565e+01
1.743215e-02 1.307762e-01 2.802569e+01
-1.001140e-01 2.096963e-02 2.803560e+01
-1.017591e-01 2.111953e-02 2.803479e+01
-1.056659e-01 3.214331e-02 2.809970e+01
-1.044852e-01 3.124106e-02 2.810054e+01
-1.236846e-01 1.329858e-01 2.821852e+01
-1.236911e-01 1.319704e-01 2.821911e+01
-1.391717e-01 1.066393e-01 2.826265e+01
-1.414528e-01 1.073211e-01 2.826192e+01
-2.451853e-01 -4.071512e-02 2.826151e+01
-2.474372e-01 -4.151200e-02 2.826113e+01
-1.452093e-01 -1.265184e-01 2.825218e+01
-1.458547e-01 -1.242648e-01 2.825217e+01
-2.068070e-01 -2.978730e-02 2.811245e+01
-2.062162e-01 -2.913353e-02 2.811268e+01
-1.188286e-01 -9.388985e-02 2.805358e+01
-1.208898e-01 -9.377563e-02 2.805283e+01
4.368605e-02 -8.012254e-02 2.801642e+01
4.372631e-02 -7.978874e-02 2.801739e+01
1.892557e-02 1.216303e-01 2.799313e+01
1.891651e-02 1.219882e-01 2.799715e+01
-1.845967e-04 4.614147e-04 2.800012e+01
-2.008357e-04 4.430247e-04 2.800013e+01
-1.764279e-04 -1.344557e-03 2.799954e+01
-1.922700e-04 -1.361953e-03 2.799954e+01
-9.431287e-04 6.283865e-04 2.800018e+01
-9.434981e-04 6.175493e-04 2.800016e+01
-4.685950e-04 -2.366881e-03 2.799905e+01
-4.649667e-04 -2.425241e-03 2.799906e+01
-1.954683e-03 2.832001e-04 2.800000e+01
-1.998330e-03 2.377198e-04 2.799997e+01
-1.994601e-04 -4.957984e-03 2.799860e+01
-1.576688e-04 -5.053317e-03 2.799864e+01
-2.979557e-03 2.253007e-03 2.800046e+01
-3.018252e-03 2.172548e-03 2.800043e+01
-1.081709e-03 -8.482980e-03 2.799897e+01
-1.065691e-03 -8.579007e-03 2.799907e+01
-4.092808e-03 1.091009e-02 2.800088e+01
-4.110571e-03 1.080490e-02 2.800093e+01
-7.592369e-03 -3.127146e-03 2.799570e+01
-7.702485e-03 -3.170706e-03 2.799558e+01
-1.201741e-02 4.605853e-03 2.799295e+01
-1.189156e-02 4.406815e-03 2.799324e+01
-3.891965e-03 1.226585e-01 2.803836e+01
-3.318062e-03 1.219329e-01 2.804012e+01
-1.669913e-01 3.102730e-01 2.815655e+01
-1.692907e-01 3.107154e-01 2.815572e+01
-3.766546e-01 -4.940661e-02 2.808785e+01
-3.779188e-01 -4.788184e-02 2.808556e+01
-1.557877e-01 2.425711e-03 2.802092e+01
-1.507691e-01 3.248663e-03 2.802325e+01
-2.613142e-01 3.644848e-01 2.820141e+01
-2.580473e-01 3.631971e-01 2.820400e+01
-2.319551e-01 -2.329159e-01 2.845655e+01
-2.316876e-01 -2.301420e-01 2.845841e+01
-3.969441e-01 1.290170e-01 2.796847e+01
-3.918435e-01 1.285122e-01 2.797154e+01
-4.884134e-01 -1.333349e-01 2.799109e+01
-4.890959e-01 -1.359727e-01 2.798717e+01
-1.130217e-01 -4.592840e-01 2.801621e+01
-1.150511e-01 -4.592716e-01 2.801660e+01
1.581029e-02 -1.179060e-02 2.795469e+01
1.549532e-02 -1.156825e-02 2.795811e+01
2.711165e-02 6.385430e-02 2.795361e+01
2.698315e-02 6.396399e-02 2.795408e+01
-1.100477e-03 -3.985303e-04 2.799969e+01
-1.098633e-03 -4.101533e-04 2.799968e+01
-2.558218e-03 8.154497e-04 2.799992e+01
-2.559142e-03 8.075020e-04 2.799992e+01
-3.024247e-03 -3.853631e-04 2.799937e+01
-3.045102e-03 -4.007045e-04 2.799934e+01
-6.018510e-03 8.686652e-04 2.799952e+01
-6.053490e-03 8.255363e-04 2.799953e+01
-6.315476e-03 -1.603095e-03 2.799856e+01
-6.298524e-03 -1.658429e-03 2.799855e+01
-1.224275e-02 5.922962e-04 2.799939e+01
-1.229278e-02 5.238701e-04 2.799940e+01
-1.216194e-02 -1.438607e-03 2.799896e+01
-1.215266e-02 -1.522499e-03 2.799898e+01
-2.222304e-02 2.438052e-03 2.800010e+01
-2.224399e-02 2.352178e-03 2.800008e+01
-2.359442e-02 3.129903e-03 2.799727e+01
-2.349993e-02 3.002959e-03 2.799747e+01
-3.946908e-02 2.330359e-02 2.799363e+01
-3.948290e-02 2.331644e-02 2.799336e+01
-3.948749e-02 -1.863971e-02 2.796166e+01
-3.909397e-02 -1.883560e-02 2.796190e+01
-9.009908e-02 1.839336e-01 2.800870e+01
-8.955836e-02 1.831267e-01 2.801104e+01
-1.616108e-01 4.818530e-01 2.815204e+01
-1.622826e-01 4.817348e-01 2.815284e+01
-3.711776e-01 2.043679e-01 2.793549e+01
-3.722881e-01 2.108684e-01 2.793130e+01
-1.768640e-01 -6.641617e-01 2.686965e+01
-1.637989e-01 -6.588814e-01 2.687929e+01
4.227399e-01 5.986885e-01 2.384873e+01
4.914234e-01 6.261186e-01 2.382573e+01
-3.809513e-01 3.238587e-01 2.328891e+01
-2.341105e-01 2.970428e-01 2.326988e+01
-7.219118e-01 2.415707e-01 2.651450e+01
-7.125507e-01 2.315214e-01 2.652632e+01
-2.708272e-01 -5.731206e-01 2.753038e+01
-2.711374e-01 -5.772471e-01 2.752550e+01
-7.117967e-02 -5.803554e-01 2.778531e+01
-7.130472e-02 -5.807695e-01 2.778786e+01
2.455308e-03 -9.558277e-02 2.787298e+01
1.453849e-03 -9.570844e-02 2.787630e+01
2.656479e-02 1.055596e-01 2.786767e+01
2.695549e-02 1.060530e-01 2.787480e+01
0.000000e+00 0.000000e+00 0.000000e+00
0.000000e+00 0.000000e+00 0.000000e+00
0.000000e+00 0.000000e+00 0.000000e+00
0.000000e+00 0.000000e+00 0.000000e+00
0.000000e+00 0.000000e+00 0.000000e+00
0.000000e+00 0.000000e+00 0.000000e+00
6.261411e-03 1.483836e-03 -3.600765e-03
4.770513e-03 2.394333e-03 -3.150268e-03
1.879072e-03 4.599882e-04 -2.552624e-03
-4.752998e-04 -2.539415e-04 -1.812385e-03
-2.047088e-03 -3.574468e-04 -1.598795e-03
-3.884842e-03 -7.146525e-04 -7.523696e-04
1.083252e-02 1.704023e-03 -6.173024e-03
6.648561e-03 1.614118e-03 -4.866206e-03
2.578383e-03 9.660445e-04 -2.847938e-03
-8.557765e-04 2.931792e-04 -2.367964e-03
-3.556368e-03 -7.549852e-04 -1.684019e-03
-5.573788e-03 -4.376739e-04 -1.987706e-03
1.243226e-02 3.405022e-04 -7.574077e-03
7.113412e-03 8.088797e-04 -5.321317e-03
2.660400e-03 3.840057e-04 -2.681589e-03
-1.329123e-03 1.286889e-04 -2.345955e-03
-4.233540e-03 1.714179e-04 -1.367463e-03
-6.666613e-03 -9.030558e-05 -1.838746e-03
1.165833e-02 -1.360286e-03 -7.661761e-03
6.985902e-03 -1.063243e-03 -5.458161e-03
2.347738e-03 -1.677145e-04 -2.497072e-03
-1.808547e-03 4.052489e-04 -1.778196e-03
-4.144505e-03 6.707562e-04 -1.204493e-03
-6.860875e-03 8.581642e-04 -1.438604e-03
9.879938e-03 -2.468372e-03 -6.327001e-03
5.278979e-03 -2.100594e-03 -4.571874e-03
1.837955e-03 -7.475160e-04 -2.045061e-03
-1.388786e-03 4.161680e-04 -1.891563e-03
-4.125266e-03 1.433121e-03 -8.228982e-04
-5.939041e-03 1.411103e-03 -1.421610e-03
6.523771e-03 -3.167800e-03 -4.054218e-03
4.281526e-03 -2.960335e-03 -3.405210e-03
1.246675e-03 -8.556339e-04 -1.998981e-03
-1.387133e-03 6.408177e-04 -1.225683e-03
-3.260775e-03 1.828650e-03 -1.002794e-03
-5.038036e-03 1.905024e-03 -9.120391e-04
3.698645e-03 -2.502927e-03 -2.490144e-03
2.686063e-03 -2.964698e-03 -1.884965e-03
5.234279e-04 -5.893520e-04 -1.644028e-03
-1.127234e-03 9.142687e-04 -9.735571e-04
-2.315791e-03 1.646472e-03 -9.003667e-04
-3.902577e-03 2.351105e-03 -3.637573e-04
2.106172e-03 -2.359314e-03 -9.260150e-04
1.102797e-03 -1.893554e-03 -9.431463e-04
8.546212e-05 -4.731846e-04 -9.907988e-04
-8.994853e-04 7.960580e-04 -8.406071e-04
-1.847036e-03 1.763153e-03 -4.403931e-04
-2.505858e-03 1.992187e-03 -2.716706e-04
4.544935e-04 -1.813807e-03 -1.013586e-04
1.028760e-04 -1.309440e-03 -3.121691e-04
-4.976821e-04 -3.739579e-05 -4.815286e-04
-1.022940e-03 9.266513e-04 -2.987344e-04
-1.392397e-03 1.531529e-03 -2.183036e-04
-1.770093e-03 1.841897e-03 -1.043773e-04
-4.070494e-04 -1.426456e-03 -2.929340e-04
-7.060153e-04 -7.247511e-04 -3.817225e-04
-9.901784e-04 1.940662e-04 -3.278692e-04
-1.089937e-03 8.457768e-04 -4.174196e-04
-1.379200e-03 1.469335e-03 -2.727547e-04
-1.708504e-03 1.827270e-03 -1.324284e-04
0.000000e+00 0.000000e+00 0.000000e+00
0.000000e+00 0.000000e+00 0.000000e+00
0.000000e+00 0.000000e+00 0.000000e+00
0.000000e+00 0.000000e+00 0.000000e+00
0.000000e+00 0.000000e+00 0.000000e+00
0.000000e+00 0.000000e+00 0.000000e+00
4.336895e-03 -1.753217e-03 -5.459422e-04
2.877849e-03 -9.886040e-04 1.684018e-03
1.610995e-03 1.543433e-04 1.229963e-03
-4.172181e-04 4.520561e-04 -1.094691e-04
-2.318570e-03 -8.690681e-05 1.363663e-04
-3.607565e-03 1.417115e-04 3.022392e-04
7.323544e-03 -2.290617e-03 -7.454772e-04
5.683614e-03 2.867840e-04 3.378259e-03
3.155242e-03 5.166058e-04 2.400705e-03
-8.945367e-04 -9.033737e-05 1.317817e-03
-3.605024e-03 4.834951e-04 3.006846e-04
-6.550410e-03 -6.313601e-04 9.327037e-04
7.255309e-03 -1.461767e-03 2.997662e-04
6.451247e-03 -3.294758e-04 4.885067e-03
3.346356e-03 4.949687e-04 3.594105e-03
-1.247498e-03 6.503011e-04 2.583917e-03
-4.179686e-03 1.358361e-04 7.348842e-04
-7.939873e-03 2.727527e-04 1.292864e-03
6.252775e-03 -5.405648e-05 2.389494e-04
5.602677e-03 6.004484e-05 5.600313e-03
3.357422e-03 1.502382e-04 4.020199e-03
-1.305692e-03 3.778490e-04 2.588552e-03
-4.502029e-03 9.433550e-04 1.294458e-03
-7.868218e-03 7.794297e-04 1.260739e-03
5.340517e-03 9.605902e-04 -1.714567e-04
4.796908e-03 -5.653977e-04 4.074394e-03
2.251599e-03 -1.885492e-04 3.190136e-03
-1.653391e-03 6.812076e-04 2.692009e-03
-3.888130e-03 1.183281e-03 9.097051e-04
-7.288090e-03 1.774307e-03 1.703105e-03
4.462852e-03 1.017848e-03 -8.898992e-04
2.823747e-03 -7.176745e-04 2.651514e-03
1.483338e-03 -3.745264e-04 2.199223e-03
-1.445222e-03 1.013249e-03 1.180981e-03
-3.595933e-03 1.340208e-03 9.835612e-04
-5.496176e-03 2.221213e-03 1.108254e-03
3.498476e-03 -4.786836e-04 3.276502e-04
1.957389e-03 -6.268302e-04 7.257038e-04
3.622177e-04 -1.749700e-04 1.089158e-03
-1.239487e-03 8.089183e-04 2.245898e-04
-2.809469e-03 1.964021e-03 6.137307e-04
-3.896345e-03 1.989833e-03 4.844413e-04
1.456034e-03 -7.147937e-04 7.401718e-06
9.352851e-04 -1.046157e-03 2.095949e-04
-3.771442e-04 2.412431e-04 -9.167450e-06
-1.186854e-03 1.230051e-03 2.224103e-04
-1.774424e-03 1.663075e-03 6.438158e-05
-2.814292e-03 2.207747e-03 5.366796e-04
9.383968e-05 -9.822201e-04 -7.760347e-05
-3.663943e-04 -4.153542e-04 1.035563e-04
-7.258853e-04 3.894399e-04 6.721753e-05
-1.006358e-03 1.058773e-03 -7.824837e-05
-1.461894e-03 1.686634e-03 1.147514e-04
-1.893813e-03 2.023550e-03 3.332256e-04
-5.978458e-04 -9.389435e-04 -3.718097e-04
-8.090901e-04 -3.008482e-04 -2.594546e-04
-1.168294e-03 6.053752e-04 -2.758793e-04
-1.354153e-03 1.255386e-03 -1.324877e-04
-1.577292e-03 1.695567e-03 -9.776951e-05
-1.917730e-03 2.064070e-03 5.689714e-05
0.000000e+00 0.000000e+00 0.000000e+00
0.000000e+00 0.000000e+00 0.000000e+00
0.000000e+00 0.000000e+00 0.000000e+00
0.000000e+00 0.000000e+00 0.000000e+00
0.000000e+00 0.000000e+00 0.000000e+00
0.000000e+00 0.000000e+00 0.000000e+00
3.253375e-03 -2.159022e-03 1.790601e-03
3.943293e-03 -1.979727e-04 4.674786e-03
2.690294e-03 2.560256e-04 3.755911e-03
7.234381e-05 -1.885081e-04 2.849728e-03
-1.794843e-03 3.766220e-04 1.045831e-03
-4.774329e-03 -1.171841e-03 2.262516e-03
4.115809e-03 -5.218893e-03 9.495197e-03
5.505336e-03 -2.635982e-03 8.418822e-03
5.061631e-03 1.754533e-04 7.777091e-03
1.150374e-03 1.284212e-03 4.377663e-03
-4.024136e-03 -3.351640e-04 3.521944e-03
-7.205081e-03 -4.178646e-04 3.386923e-03
2.770193e-03 -1.777184e-03 1.231637e-02
3.519120e-03 -1.692375e-03 1.088349e-02
6.629187e-03 4.891823e-04 1.109510e-02
1.807717e-03 4.776040e-04 6.070854e-03
-4.936659e-03 7.084934e-04 5.241404e-03
-8.462952e-03 3.625081e-05 4.484615e-03
1.323837e-03 2.771820e-04 1.119560e-02
2.958075e-03 8.564029e-04 1.126982e-02
5.894917e-03 4.112420e-04 1.116820e-02
1.110717e-03 9.934731e-04 7.523127e-03
-4.552308e-03 1.050693e-03 5.440168e-03
-9.040287e-03 1.447044e-03 5.108276e-03
2.627369e-03 2.585032e-03 1.108480e-02
3.227237e-03 2.375753e-03 9.039106e-03
5.008636e-03 4.582689e-04 9.923350e-03
1.169752e-03 6.370153e-04 5.307599e-03
-5.031156e-03 2.024804e-03 5.259697e-03
-7.610434e-03 2.459575e-03 4.298063e-03
2.849814e-03 3.717295e-03 6.080225e-03
4.197117e-03 4.345070e-04 5.761468e-03
2.102308e-03 2.553995e-04 5.514498e-03
-8.407507e-04 7.121526e-04 4.826062e-03
-3.543518e-03 2.656455e-03 3.324126e-03
-6.750288e-03 3.489074e-03 3.769617e-03
2.529471e-03 7.394389e-04 3.426342e-04
1.636565e-03 -3.808289e-04 3.450063e-03
5.974660e-04 -1.662531e-05 2.677855e-03
-1.490860e-03 2.152010e-03 2.878416e-03
-2.447841e-03 2.366591e-03 1.850553e-03
-4.760377e-03 4.023471e-03 2.475577e-03
1.438621e-03 -7.873382e-04 7.354705e-04
1.843577e-04 -1.731962e-04 1.057850e-03
-2.881948e-04 6.810696e-04 1.529398e-03
-8.123081e-04 1.604071e-03 5.279818e-04
-2.133564e-03 2.882960e-03 1.109803e-03
-2.744057e-03 3.324633e-03 1.200427e-03
-2.938473e-04 -9.425871e-04 -2.237735e-04
-3.766462e-04 -4.023629e-04 2.591795e-04
-9.240546e-04 9.744562e-04 7.221292e-05
-1.216327e-03 1.849428e-03 4.157614e-04
-1.428557e-03 2.390842e-03 3.562421e-04
-2.099907e-03 3.210956e-03 8.017932e-04
-1.046198e-03 -1.128146e-03 -7.243907e-04
-1.512088e-03 1.319291e-04 -4.588411e-04
-1.473612e-03 1.200799e-03 -9.463308e-05
-1.471240e-03 1.777656e-03 -1.732181e-04
-1.951529e-03 2.504196e-03 7.896222e-05
-2.266280e-03 3.012922e-03 1.908554e-04
0.000000e+00 0.000000e+00 0.000000e+00
0.000000e+00 0.000000e+00 0.000000e+00
0.000000e+00 0.000000e+00 0.000000e+00
0.000000e+00 0.000000e+00 0.000000e+00
0.000000e+00 0.000000e+00 0.000000e+00
0.000000e+00 0.000000e+00 0.000000e+00
6.330175e-03 -9.958572e-04 4.622906e-03
2.869668e-03 -1.988882e-03 5.074125e-03
3.312941e-03 1.312890e-03 7.063348e-03
1.760539e-03 1.461207e-03 2.820825e-03
-2.902405e-03 1.155136e-04 2.276514e-03
-4.184915e-03 -9.617921e-04 3.220528e-03
9.945012e-03 -2.604205e-03 4.648107e-03
3.762840e-03 -3.438794e-03 4.851838e-03
7.025617e-03 3.529935e-03 6.402482e-03
1.696836e-03 2.277167e-03 5.702371e-03
-4.502052e-03 9.340374e-04 5.866492e-03
-8.320260e-03 -1.677977e-03 5.806146e-03
-8.705553e-04 -7.655264e-03 7.284213e-06
-1.802645e-03 -2.540663e-03 6.954460e-03
9.958962e-03 4.341162e-03 4.639273e-03
2.835521e-03 1.451289e-03 7.403857e-03
-4.611926e-03 1.715162e-03 7.310662e-03
-1.154361e-02 3.190598e-05 8.624064e-03
-2.419468e-03 4.494346e-03 9.197767e-03
-3.518480e-03 2.194888e-03 1.302288e-03
8.084907e-03 -2.398122e-04 7.159750e-03
3.748737e-03 1.072876e-03 8.399121e-03
-4.764642e-03 1.413342e-03 7.450065e-03
-1.157018e-02 2.267560e-03 9.037631e-03
6.095780e-03 6.542406e-03 -3.417602e-03
1.228560e-03 3.708233e-03 7.808785e-03
8.438644e-03 -3.678125e-03 4.381980e-03
8.455576e-04 7.066619e-04 7.586296e-03
-4.570899e-03 1.649630e-03 7.615401e-03
-1.007771e-02 4.219947e-03 7.895599e-03
1.097093e-02 -2.084634e-03 8.716030e-03
2.679099e-03 1.411589e-03 3.512172e-03
2.709928e-03 -2.151625e-03 8.697657e-03
3.291908e-04 -3.208765e-04 5.538757e-03
-5.106653e-03 3.166908e-03 6.122126e-03
-6.720321e-03 5.332713e-03 5.607545e-03
1.735868e-03 1.056967e-03 5.618804e-03
1.455789e-03 -1.331509e-03 5.797000e-03
2.331860e-04 -9.963006e-04 5.760516e-03
-7.058446e-04 7.835959e-04 3.780145e-03
-3.563711e-03 3.941806e-03 3.420860e-03
-4.514244e-03 5.771175e-03 3.810743e-03
3.917993e-05 -1.306969e-03 6.292922e-04
-4.524254e-05 -1.046643e-03 3.022524e-03
-4.203390e-04 2.130986e-04 1.865349e-03
-1.522795e-03 2.638086e-03 1.856756e-03
-1.677546e-03 3.737271e-03 1.629361e-03
-2.991883e-03 5.251393e-03 2.091237e-03
-7.590322e-04 -1.626493e-03 1.213606e-04
-1.576329e-03 -2.119720e-04 8.586645e-05
-1.288344e-03 1.588023e-03 6.073823e-04
-9.821608e-04 2.528738e-03 4.433121e-04
-1.659733e-03 3.652968e-03 8.396413e-04
-1.862341e-03 4.625873e-03 9.428487e-04
-2.003486e-03 -7.799975e-04 -8.876125e-04
-1.829328e-03 2.805654e-04 -3.492158e-04
-1.825365e-03 1.786794e-03 -2.661017e-04
-1.852162e-03 2.580557e-03 9.097694e-05
-1.950055e-03 3.356223e-03 8.133180e-05
-2.569393e-03 4.440349e-03 2.831370e-04
0.000000e+00 0.000000e+00 0.000000e+00
0.000000e+00 0.000000e+00 0.000000e+00
0.000000e+00 0.000000e+00 0.000000e+00
0.000000e+00 0.000000e+00 0.000000e+00
0.000000e+00 0.000000e+00 0.000000e+00
0.000000e+00 0.000000e+00 0.000000e+00
8.270138e-03 -4.561500e-03 1.878644e-03
4.414754e-03 -4.147538e-03 9.635241e-03
2.713653e-03 4.635147e-03 6.885155e-03
-9.852637e-04 3.427562e-03 3.642193e-03
-2.963778e-03 4.292262e-04 1.560144e-03
-3.419043e-03 -7.753383e-04 1.102413e-03
1.868138e-03 -4.117638e-03 -1.081871e-03
1.766617e-03 -7.155247e-03 2.713273e-03
8.258095e-03 6.584993e-03 2.035904e-03
1.861634e-03 6.108600e-03 4.505099e-03
-7.240291e-03 3.488357e-03 4.973946e-03
-9.211342e-03 -1.937243e-03 5.473350e-03
-3.392072e-03 4.738195e-04 1.694864e-03
-9.726451e-03 5.107505e-03 -1.433156e-03
8.473842e-03 -5.440758e-04 3.332952e-03
7.385701e-03 5.186883e-03 2.406949e-03
-9.737987e-03 2.862834e-03 6.609199e-03
-1.208710e-02 7.462499e-04 9.607333e-03
1.462980e-02 -1.356869e-03 -7.541685e-03
-1.444542e-02 -2.215937e-03 -6.874303e-03
1.022745e-02 2.059244e-03 7.582531e-03
8.702656e-03 -2.378293e-04 2.121399e-03
-1.007145e-02 1.686219e-03 7.173374e-03
-1.212488e-02 2.778192e-03 1.001772e-02
-6.468864e-03 2.179687e-03 8.314754e-03
-1.619259e-04 -1.144524e-03 3.981144e-03
6.431751e-03 -1.099897e-03 3.288545e-03
4.357358e-03 -3.516575e-03 5.946967e-03
-8.142095e-03 4.579881e-04 6.866849e-03
-1.026105e-02 4.987116e-03 8.602062e-03
8.322167e-03 4.372093e-03 -4.609687e-03
4.496149e-03 7.315219e-03 8.760367e-03
5.513496e-03 -8.216094e-03 5.891688e-03
-1.574616e-03 -3.270503e-03 7.160163e-03
-5.649037e-03 1.545135e-03 6.308416e-03
-7.337867e-03 5.746542e-03 5.246940e-03
7.146389e-03 7.073986e-04 1.133995e-02
3.217080e-03 -2.289200e-03 9.526688e-03
-2.848819e-04 -3.987830e-03 8.347663e-03
-2.301474e-03 -1.095247e-03 4.768067e-03
-3.749496e-03 3.549242e-03 3.567710e-03
-4.498158e-03 5.645432e-03 2.966509e-03
-1.261556e-03 -3.317202e-03 2.682655e-03
-1.636749e-03 -2.479158e-03 3.936110e-03
-1.499425e-03 -5.172822e-04 2.958535e-03
-1.231713e-03 1.754450e-03 2.043400e-03
-2.397080e-03 3.674604e-03 1.414328e-03
-2.446397e-03 5.931048e-03 1.822698e-03
-2.746810e-03 -3.122023e-03 -4.150191e-05
-2.475388e-03 -1.059170e-03 -5.188023e-06
-1.883043e-03 1.008950e-03 6.178179e-04
-1.601842e-03 2.373445e-03 2.943605e-04
-1.587403e-03 4.135174e-03 8.465115e-04
-1.838996e-03 5.287169e-03 8.434466e-04
-2.483915e-03 -1.645239e-03 -6.142741e-04
-2.513407e-03 -6.531907e-04 -3.241812e-04
-1.974790e-03 1.303694e-03 -6.164264e-04
-1.723101e-03 2.605692e-03 -2.772223e-05
-2.053460e-03 3.879661e-03 -1.774202e-04
-2.241285e-03 5.230253e-03 -5.217001e-06
0.000000e+00 0.000000e+00 0.000000e+00
0.000000e+00 0.000000e+00 0.000000e+00
0.000000e+00 0.000000e+00 0.000000e+00
0.000000e+00 0.000000e+00 0.000000e+00
0.000000e+00 0.000000e+00 0.000000e+00
0.000000e+00 0.000000e+00 0.000000e+00
1.534757e-02 -6.403888e-03 1.484421e-02
9.686957e-03 -2.015128e-03 1.186146e-02
5.126153e-04 -7.213056e-04 1.378904e-02
7.798409e-04 1.721092e-03 8.407382e-03
-4.338085e-03 3.147691e-03 1.375131e-03
-2.986549e-03 9.370295e-04 -9.636514e-04
-2.140765e-02 1.536540e-02 5.278585e-03
5.585124e-03 -8.577676e-03 -8.823107e-03
-3.508134e-03 -1.666396e-04 4.622099e-03
2.247653e-03 5.797976e-03 1.333200e-02
-5.701530e-03 4.678490e-03 8.314458e-03
-9.180788e-03 1.924396e-03 5.566397e-03
9.719198e-05 2.493132e-02 -1.294836e-02
-1.354177e-02 -1.416217e-02 -5.698305e-04
5.568385e-03 -6.150751e-05 -3.085543e-03
4.432047e-03 5.704337e-03 1.194558e-02
-7.519976e-03 3.122772e-03 1.429861e-02
-1.262371e-02 1.892858e-03 9.827040e-03
4.074623e-02 -1.455583e-02 -9.212450e-03
-3.520966e-02 8.888487e-03 1.429009e-03
4.145181e-03 1.066838e-03 -1.172468e-03
7.238511e-03 -1.035458e-03 1.203334e-02
-7.726309e-03 1.262076e-03 1.548482e-02
-1.239893e-02 2.239369e-03 1.101922e-02
-2.295434e-02 -2.676063e-02 -2.391997e-03
9.875704e-03 1.319079e-02 -4.981833e-03
1.719226e-03 1.518783e-03 2.710696e-03
3.119977e-03 -4.396144e-03 1.515810e-02
-5.729121e-03 -7.483680e-05 1.288313e-02
-1.033336e-02 2.401511e-03 8.550439e-03
-5.397508e-04 4.640325e-04 2.315267e-02
1.061861e-02 -1.194009e-03 2.403130e-03
-4.471584e-03 -6.165151e-04 1.199161e-02
1.750098e-03 -1.991843e-03 1.482951e-02
-4.976929e-03 -2.321569e-04 8.283635e-03
-6.861819e-03 3.186418e-03 5.976369e-03
1.357686e-02 1.078758e-02 1.213340e-02
2.409752e-03 4.360282e-03 1.583451e-02
2.464630e-03 -1.138644e-03 1.256010e-02
-1.026969e-03 -5.770764e-04 7.373091e-03
-4.223358e-03 1.213516e-03 4.133733e-03
-3.751960e-03 3.912266e-03 2.609951e-03
5.076794e-04 8.806089e-04 1.277478e-03
5.257460e-04 1.848011e-03 5.211541e-03
-6.632734e-04 -1.880223e-04 3.981219e-03
-2.458095e-03 4.921774e-04 1.688594e-03
-2.487447e-03 3.034563e-03 1.405708e-03
-2.415693e-03 4.076288e-03 5.148122e-04
-3.855993e-03 -4.087052e-03 -7.614080e-04
-3.187921e-03 -2.272258e-03 -6.260342e-04
-2.375710e-03 4.328823e-04 -2.842206e-04
-1.858768e-03 1.765531e-03 3.473094e-04
-2.167237e-03 3.344647e-03 1.996465e-04
-1.911538e-03 4.991424e-03 3.564071e-04
-2.760133e-03 -3.913813e-03 -4.456924e-04
-2.286208e-03 -2.312665e-03 -1.052350e-03
-1.849684e-03 -5.817254e-05 -1.041208e-03
-1.958933e-03 1.634659e-03 -9.825117e-04
-2.107134e-03 3.828334e-03 -4.407378e-04
-2.091948e-03 5.144424e-03 -5.340196e-04
SCALARS Vx float 1
LOOKUP_TABLE default
2.507916e+02
2.872901e+02
2.582941e+02
2.809898e+02
2.498424e+02
2.886069e+02
2.628536e+02
2.833776e+02
2.535799e+02
2.179012e+02
2.141456e+02
2.039565e+02
2.483346e+02
2.222999e+02
2.118882e+02
2.087700e+02
2.379637e+02
1.697227e+02
2.200890e+02
2.349600e+02
1.709093e+02
2.224989e+02
6.423333e+01
8.656624e+01
1.498386e+02
1.776510e+02
6.580693e+01
9.315011e+01
1.524305e+02
1.714747e+02
2.063239e+02
1.107817e+02
2.091843e+02
1.112071e+02
9.590338e+01
1.293137e+02
9.505885e+01
1.275158e+02
3.109792e+01
1.728757e+01
1.045316e+02
1.363564e+02
3.145616e+01
2.456109e+01
1.042204e+02
1.380574e+02
9.165793e+01
1.000955e+02
1.199671e+02
9.067638e+01
9.193302e+01
9.149788e+01
1.194960e+02
9.033903e+01
2.272935e+02
1.932441e+02
1.896359e+02
2.290947e+02
2.338838e+02
1.900012e+02
1.892740e+02
2.419786e+02
2.927326e+02
2.621378e+02
2.950876e+02
2.667739e+02
1.574768e+02
1.598804e+02
2.762993e+02
1.934405e+02
2.764420e+02
1.875672e+02
2.508901e+02
1.686403e+02
2.518628e+02
1.757353e+02
1.841635e+02
1.850958e+02
1.438553e+02
1.474322e+02
1.139119e+02
1.246195e+02
4.412517e+00
2.268547e+01
4.024415e+01
5.731171e+00
3.099061e+01
3.979635e+01
1.284238e+01
1.496370e+01
1.854807e+01
1.374506e+01
1.233208e+01
1.525484e+01
1.955638e+01
1.923126e+01
5.401585e+01
5.749042e+01
8.640373e+01
5.833808e+01
9.270458e+01
5.523648e+01
9.864261e+01
9.350180e+01
1.491267e+02
1.606245e+02
1.453491e+02
1.382389e+02
9.524555e+00
1.883581e+01
1.642780e+02
1.656608e+02
2.138866e+02
2.111304e+02
1.594734e+01
1.964551e+01
2.575952e+02
2.513435e+02
1.525569e+01
2.188646e+01
1.719401e+01
2.402260e+01
1.376323e+01
1.936450e+01
1.508404e+01
1.054065e+01
1.560586e+01
1.709793e+01
1.083043e+01
9.103265e+00
1.176356e+01
2.176090e+01
1.765115e+01
2.450998e+01
-4.738923e+00
-3.197661e-01
-2.635384e+00
1.658807e+00
7.563154e+00
2.987575e+00
7.319721e+00
1.254252e+01
6.991251e+00
1.622562e+01
6.162009e+00
2.311125e+01
-5.263351e+00
-1.890942e-01
-1.806025e+00
-3.844071e+00
-4.166145e-01
9.585225e-01
1.444051e+01
6.427224e+00
-3.506843e+00
9.809560e-01
-3.068422e+00
5.468826e+00
1.966137e+00
-2.586188e+00
-4.632297e+00
-3.636476e+00
4.836507e+00
1.960739e+00
8.400873e+00
5.733794e+00
-4.010377e+00
4.269056e+00
-3.454786e+00
5.776743e+00
-7.302613e+00
-6.139414e+00
2.800462e+00
4.490358e+00
5.886475e-01
-9.713430e-01
1.163216e+01
7.561196e+00
-3.172249e+00
-3.932310e+00
-2.796453e+00
1.147938e+00
-1.258614e+00
1.357413e+00
-2.517639e+00
-6.817062e+00
6.783270e+00
5.376477e+00
5.754178e+00
6.409469e+00
-8.548585e-01
-4.878324e+00
3.584290e-01
-5.525710e+00
1.375499e+00
-1.930969e+00
-1.033510e+00
-9.578633e-01
7.497413e+00
8.195808e-01
3.936498e+00
2.021012e+00
3.255037e-01
-9.253968e+00
-6.981072e-01
-9.037885e+00
4.897680e+00
3.300653e+00
4.137541e+00
6.919191e+00
-4.695130e+00
-1.042611e+00
-3.392253e+00
-2.160769e+00
7.576304e-01
-6.932739e+00
-6.621729e-02
-9.060035e+00
8.427244e+00
8.669744e+00
2.527593e+00
8.477974e+00
-6.937940e+00
-1.269880e+00
-8.573245e+00
-1.127883e+01
-6.653347e-01
-2.024991e+00
-3.376537e+00
-4.684553e+00
4.133545e+00
4.282015e+00
6.342543e+00
3.077679e+00
-2.118925e+00
1.379210e+00
-1.629010e+01
-8.819982e+00
-1.750012e+00
-4.286746e+00
-1.486562e+00
-4.773119e+00
1.421243e+00
2.365649e-01
1.951841e+00
2.234239e+00
-9.782980e-01
3.509045e+00
-1.047375e+01
-9.363740e+00
1.494188e+00
-4.649598e+00
-3.289776e+00
-5.936249e-01
1.252194e+00
3.755520e+00
-1.808884e+00
-1.744391e+00
-1.306005e+00
-4.341639e-01
-5.247451e+00
-4.816693e+00
1.258197e+00
5.902226e-01
9.269370e-01
-1.272448e+00
-1.627908e+00
2.545246e+00
-2.092310e+00
6.715694e-01
-1.136317e+00
-4.235825e+00
-3.685119e+00
-1.130518e+00
-9.706023e-01
-3.220572e+00
3.674388e+00
-1.902047e-01
1.662967e+00
-1.709844e+00
-2.223211e+00
1.030285e+00
-3.306028e+00
-2.869114e-01
-5.651232e+00
-7.832646e-01
8.279373e+00
-4.365653e+00
-2.514343e-01
1.159844e+01
9.447817e+00
-3.511115e+00
5.839308e+00
1.355541e+01
-1.170268e+01
-9.477450e+00
-8.136748e+00
-9.983590e+00
-7.155462e-01
7.968294e+00
6.024518e+00
1.027765e+01
-9.820891e+00
-7.758954e+00
-7.602117e-02
1.074008e+01
2.013487e+00
3.328728e+00
2.914308e-01
-4.011302e-02
4.056238e+00
9.776742e-01
2.943304e-01
4.466379e+00
1.588699e+00
1.399158e+00
1.716165e+00
3.113062e+00
2.384866e+00
3.428805e+00
-3.156856e+00
2.834448e+00
-4.020875e+00
-1.154679e+00
-2.290837e+00
4.370648e+00
3.268484e+00
3.023864e+00
1.919832e+01
4.189765e+01
2.709191e+01
4.095021e+01
1.452086e+01
1.599020e+01
7.796087e-01
4.831111e+00
2.330409e+00
2.250326e+00
1.843893e+00
3.526850e+00
-2.956487e+00
3.466239e+00
3.005963e+01
2.895380e+01
2.655670e+01
3.614937e+01
2.089188e+01
2.682666e+01
2.302949e+01
2.461200e+01
8.276845e+00
8.266993e+00
7.029315e+00
4.206627e+00
-1.698808e+00
-2.833104e+00
9.365829e+00
4.625154e+00
-1.711261e+00
8.023941e-01
1.381619e+01
1.180582e+01
1.175697e+01
1.677534e+01
1.762692e+01
1.393607e+01
3.056493e+01
2.557986e+01
8.395210e+00
8.752402e+00
2.702433e+01
3.569478e+01
2.286127e+00
7.707175e+00
1.470931e+01
2.734128e+01
7.814873e+00
1.005638e+01
7.437431e+00
2.432577e+01
-1.602266e+01
6.944585e-01
-6.108583e+00
-6.625660e+00
-1.662904e+01
4.229512e+00
-3.397570e+00
-6.008082e+00
8.003357e+00
1.798443e+01
4.581662e+00
9.573156e+00
1.390174e+01
1.932581e+01
1.560448e+00
1.912620e+01
1.180773e+01
9.091439e+00
1.130752e+01
1.250868e+01
1.051445e+01
1.496093e+01
1.105008e+01
7.662223e+00
9.403117e+00
3.597123e+00
5.729230e+00
-3.509523e+01
-8.280546e+00
-1.494179e+00
8.603822e+00
-3.513284e+01
-7.643398e+00
-6.667920e-01
-4.755643e+00
4.802902e+01
-8.459805e+00
4.126972e+01
5.995616e+00
-1.212369e+01
7.817574e+00
-4.985680e+00
3.257547e+00
5.106347e-01
4.287741e+00
6.169466e-02
1.695410e+00
4.612699e+00
-5.021649e-01
-1.109602e+00
-3.208584e+00
3.198357e+00
-2.157534e+00
1.538557e+00
-5.256324e+01
-1.019404e+01
-5.820163e+01
-9.356333e+00
-1.350876e+01
-9.972489e+00
-4.967350e+00
-8.793515e+00
2.973895e+00
-7.874712e+00
-1.702179e+01
6.632080e+00
-8.887474e+00
-1.703999e+01
-1.953644e+00
7.939377e+01
-2.600621e+01
2.515643e+01
-2.404559e+00
6.945351e+01
-1.770731e+01
2.345034e+01
7.907895e+00
2.149217e+01
4.487579e-01
2.415912e+01
-8.196623e+00
-1.285089e+00
4.923628e+00
-2.110093e-01
3.890365e+01
-3.559179e+01
1.121293e+01
-2.201392e-01
4.789956e+01
-2.834781e+01
-2.789290e+01
-2.753996e+01
-3.211180e+01
-2.812708e+01
3.786036e+01
2.832074e+01
5.581969e+00
7.395264e+00
3.477886e+00
1.751217e+00
5.729050e+00
-2.717462e+00
-8.483435e-01
3.456215e+00
-5.559302e-01
1.666593e+00
1.761038e-01
-1.651470e+00
-2.015366e+00
-6.420452e-01
-2.118908e+00
3.095370e+00
-2.144209e+00
-1.323517e-01
3.452603e+00
-4.339156e+00
3.407846e+00
-1.333793e+00
-5.410485e+00
3.329156e+00
-2.341624e+00
1.872398e+00
2.409013e+00
-2.508599e+00
8.925327e+00
-2.326922e+00
-1.503812e+00
4.928561e+00
-4.113586e-01
2.365174e-01
4.337021e+00
-1.977206e+00
3.287452e+00
3.042122e+00
-1.029453e-01
5.451800e+00
8.456067e-01
5.619434e+00
8.424069e+00
4.952571e+00
6.554526e+00
5.142019e-01
5.375244e+00
-2.730898e+00
3.424500e+00
-2.812502e+00
-2.192263e+00
1.253833e+00
-1.216609e+00
2.238123e-01
3.573186e+00
-6.954730e-01
3.137454e+00
-4.007588e+00
4.631899e+00
-1.927777e+00
3.384639e-01
-4.280861e+00
1.608995e-01
1.767490e+00
-8.607258e-01
-2.024000e+00
2.294231e+00
3.194759e+00
1.288624e+00
-1.809652e-02
1.667614e+00
-5.469387e-01
-4.567878e-01
3.280776e-01
-1.461343e+00
1.578813e-01
1.643483e+00
3.140837e+00
6.642201e+00
7.748017e+00
2.442175e+00
1.375229e+00
-5.259112e+00
-8.044369e-01
1.244056e+00
-1.272134e+00
-4.517122e+00
-6.130201e+00
-4.543445e-01
5.424088e+00
-2.944327e+00
1.446242e+00
-4.113137e-01
-1.235431e+00
-4.289194e-01
6.489419e-01
8.988596e-01
5.008868e+00
1.701201e+00
-1.497906e+00
1.380619e+00
3.006649e+00
-3.061254e+00
-6.898872e+00
1.837656e+00
1.059644e+01
9.092130e+00
4.327928e+00
-2.244079e-01
-2.302546e+00
8.992269e-01
-1.774930e+00
-4.450397e+00
-6.419762e+00
-6.406367e+00
-2.040263e+00
6.481007e+00
8.104570e+00
-1.188042e-01
-1.415467e+00
-6.232992e-01
-1.367691e+00
4.434987e-01
-4.690764e-01
6.727283e-01
2.256053e-01
3.459078e+00
4.391816e+00
-6.946691e-01
-4.535271e+00
-2.225965e-01
1.467301e+00
4.100966e+00
2.927371e+00
5.831310e+00
2.457709e+00
-1.433528e+00
-2.380141e+00
-2.048748e+00
-1.941956e+00
-5.420806e+00
-3.375414e+00
1.968094e+00
-1.448986e+00
2.120173e+00
4.315227e+00
2.126365e+00
1.051565e+00
-2.278254e+00
-2.141977e+00
-3.279282e+00
2.663331e-01
5.978131e+00
4.582281e+00
-2.192727e+00
-6.872455e+00
2.642940e+00
4.869581e+00
3.323821e-01
-3.148456e+00
4.500960e+00
4.038136e+00
-2.132259e+00
-4.069254e-02
3.790584e+00
-1.558404e-01
-4.434549e+00
-4.380109e+00
-5.433738e+00
-1.623870e+00
1.439205e+00
7.225435e+00
2.074290e+00
-4.602736e+00
2.345492e+00
2.187318e+00
3.986608e-01
3.014880e+00
3.774932e+00
4.531513e+00
4.267151e+00
5.911863e+00
-2.443040e+00
-1.315852e+00
-1.823751e+00
-5.343603e+00
2.093499e+00
5.578158e+00
8.326535e-01
-1.117208e+00
-1.932559e+00
-6.245460e+00
1.833913e+00
-1.014072e+01
2.212024e+00
-1.528815e+01
3.796935e+00
8.652167e+00
2.587849e+00
6.121708e-01
6.366693e-01
2.461796e+00
-4.077139e+00
-1.268212e+00
-7.590585e-01
-3.207795e-01
2.206919e+00
3.275408e+00
-3.124829e+00
-8.233583e+00
1.524410e+00
9.165033e+00
4.015996e+00
1.369296e+00
1.403649e+00
4.136866e+00
-3.445425e+00
1.818187e+00
-3.791070e-01
-3.169490e+00
3.120216e+00
1.242776e+00
1.044034e+00
-7.138158e+00
2.020227e+00
3.932038e+00
-3.207754e+00
-2.011904e+00
4.597341e+00
-6.182361e+00
2.100100e-01
-6.623551e+00
-4.248868e+00
-4.201546e+00
-2.255716e+00
3.216854e-01
-1.802733e+00
2.411863e+00
1.461021e-01
-4.336049e+00
3.166303e+00
1.702466e+00
3.202720e-02
-2.940896e+00
-7.667976e-02
5.590395e+00
-6.560063e-01
1.186902e+01
-4.860447e-01
9.351264e+00
-6.072195e+00
-5.138361e+00
-5.349307e+00
-2.962825e-01
4.547440e+00
-1.937685e-01
-1.389537e+00
-1.223601e+00
3.653155e-01
1.348980e+00
2.699338e+00
-1.684005e-01
9.633660e-01
2.412801e-01
5.081528e-01
-2.475128e+00
4.392619e+00
-2.512954e+00
-2.713168e+00
8.842202e+00
5.779109e+00
-2.455447e+00
8.652302e-02
-1.172965e+00
4.472738e-01
4.139468e+00
8.917277e+00
-3.098036e+00
2.772017e+00
1.195865e+01
3.515984e+00
3.680684e+00
4.965072e-01
2.390293e-01
3.576902e+00
-1.189749e+00
-3.029700e+00
7.846454e-01
-3.344737e+00
1.953476e+00
-1.898494e+00
4.633304e+00
1.903735e+00
4.386567e+00
4.306340e-01
6.830722e+00
-5.602452e-01
6.342594e+00
1.032704e+00
-4.544938e+00
8.118148e-01
-2.146683e+00
7.859899e+00
-1.184296e+01
3.468320e+00
-2.106790e+00
-3.952422e+00
6.272741e+00
2.946187e+00
-3.933218e+00
-1.307014e+01
3.551665e+00
-1.183090e+01
-6.146967e-01
1.744948e+00
-2.265620e+00
1.967156e+00
-5.288980e-01
-1.903526e-01
-5.419337e+00
-1.521655e+00
-2.649115e+00
9.487496e-01
3.458568e+00
1.930464e+00
7.225616e+00
9.507453e+00
1.486571e+01
-4.787635e+00
2.401770e+00
5.736978e+00
2.797133e+00
4.492717e+00
6.237975e+00
2.301742e+00
-1.723344e+00
-2.986132e+00
4.950665e-01
-7.599809e-01
-2.964610e+00
1.842319e+00
1.454450e+00
1.799458e+00
-1.052648e+00
-1.112869e+00
-5.333679e+00
-9.006841e-01
5.453467e+00
-4.267516e+00
-4.913497e+00
2.414724e+00
4.787582e+00
-7.481628e-01
-5.622654e+00
-1.755585e+00
1.583852e-01
3.455948e+00
-1.988325e+00
-3.594063e+00
6.968437e-02
3.094695e+00
-1.321943e+00
-2.896364e+00
-2.084338e+00
4.907944e+00
6.066577e-01
-2.757612e+00
-4.933356e+00
7.373455e+00
-1.571240e+00
5.004727e+00
-2.015664e+00
7.498411e+00
3.188217e+00
1.189391e+01
1.684015e+00
8.977029e+00
-5.167393e+00
4.098874e+00
-9.936773e-01
6.979518e-01
-8.017369e-02
5.607497e+00
-8.300442e+00
5.164888e+00
9.414674e-01
2.058053e+00
1.976252e+00
4.637231e-01
-8.007304e-01
-4.283035e+00
-2.231074e+00
-1.999502e+00
-5.993985e+00
-8.775647e-01
3.066340e+00
-1.911369e+00
-1.186341e+00
-7.402339e-01
-4.163130e+00
-8.464998e+00
-5.012194e+00
-3.705592e+00
3.167024e+00
2.883270e+00
2.492322e+00
-9.522742e-01
3.928882e-01
-7.740396e+00
-4.307291e+00
-4.684523e+00
-2.638016e+00
3.057187e+00
-2.573138e+00
8.550729e+00
1.433815e+00
-1.963825e+00
-2.267675e+00
-7.872369e-01
-2.163407e-01
-2.092115e+00
-3.567366e+00
2.375537e-01
1.000411e+00
-9.164901e-02
6.214778e+00
2.870175e+00
-3.539524e+00
-1.190376e+00
-4.195964e+00
-2.063114e+00
2.839481e+00
-2.654650e+00
2.418938e+00
1.013427e+00
-3.937178e+00
-8.341758e-01
7.901130e-01
-5.349142e+00
-1.610565e+00
6.573202e+00
-1.635803e+00
-2.713638e-02
-7.644993e+00
-2.608668e+00
-1.663654e+00
-4.462713e-01
-2.749110e+00
7.804049e-01
2.095731e+00
-2.492063e+00
1.457266e+00
-5.840268e-01
-4.408273e+00
-1.735983e+00
-6.490874e+00
1.120925e+00
2.498539e-01
4.906296e+00
2.067431e+00
1.085013e+01
7.153894e+00
-5.160414e+00
-3.038293e+00
6.927165e+00
1.627214e+00
-5.484401e+00
-8.390342e+00
-3.216563e+00
-7.064079e+00
1.444033e+01
1.390875e+01
1.256738e+00
3.766007e+00
2.609787e+00
8.060058e+00
-3.086992e+00
-3.294474e+00
-4.895394e+00
-5.255327e+00
-1.330111e+01
-7.543497e+00
1.772007e+01
1.899818e+01
1.566278e+00
5.718361e+00
7.512553e+00
6.687057e+00
-2.188713e+00
-2.071768e+00
-9.806211e+00
-3.794091e+00
-1.201479e+01
-1.695571e+01
8.741462e+00
1.490535e+01
1.549958e+01
1.474930e+01
7.087006e+00
4.514239e+00
4.012197e+00
2.629052e+00
-1.187185e+01
-1.601576e+01
-9.451328e+00
-1.874788e+01
2.107649e+01
2.357550e+01
1.920679e+01
1.524186e+01
1.909407e+01
1.430395e+01
-6.169657e+00
-4.746414e+00
-5.437390e+00
-1.382637e+01
-2.252867e+01
-1.926124e+01
3.345100e+01
2.606937e+01
3.153999e+01
4.449651e+01
1.409545e+01
1.241843e+01
7.616803e+00
1.584428e+00
-2.784666e+01
-2.115302e+01
-2.140773e+01
-2.368896e+01
5.092639e+01
5.876129e+01
4.342782e+01
4.206347e+01
4.128675e+01
3.224974e+01
-3.688015e+00
-2.043210e+00
-1.701865e+01
-2.340519e+01
-3.049083e+01
-2.125553e+01
6.969847e+01
6.628449e+01
8.111504e+01
8.132536e+01
3.648319e+01
4.846254e+01
2.543898e+01
2.281566e+01
-2.156558e+01
-2.659685e+01
-2.909669e+01
-3.764725e+01
8.560794e+01
8.507320e+01
7.349816e+01
6.981525e+01
1.146548e+02
1.088590e+02
3.243808e+01
2.987416e+01
8.778905e+00
1.525418e+01
-5.289939e+00
-1.092818e+01
7.873649e+01
8.269225e+01
9.089468e+01
9.275575e+01
7.658193e+01
8.079583e+01
1.433025e+02
1.567474e+02
5.225901e+01
4.531452e+01
6.578487e+01
6.641949e+01
9.546129e+01
8.924135e+01
7.690624e+01
7.441923e+01
1.124999e+02
1.101581e+02
1.619092e+02
1.610581e+02
3.083860e+02
3.077802e+02
4.898275e+01
4.935098e+01
8.178205e+01
7.985092e+01
1.104823e+02
1.157564e+02
9.013117e+01
8.750119e+01
1.317252e+02
1.313901e+02
1.060570e+02
1.135675e+02
-2.367836e+01
-2.990506e+01
9.654941e+01
9.530824e+01
1.178922e+02
1.182350e+02
7.260599e+01
7.302938e+01
-2.437320e+02
-2.378034e+02
-3.448268e+02
-3.410894e+02
5.729063e+01
6.714738e+01
1.772361e+02
1.794695e+02
1.862594e+01
1.585936e+01
-1.144758e+02
-1.111111e+02
-1.671054e+02
-1.735584e+02
-1.905449e+02
-1.831587e+02
2.194846e+02
2.183103e+02
2.146031e+02
2.195812e+02
1.667171e+02
1.691572e+02
-1.887928e+01
-2.894872e+01
-8.677044e+01
-7.179114e+01
2.706171e+02
2.677964e+02
3.609770e+02
3.618892e+02
2.275464e+02
2.311597e+02
2.331848e+02
2.385632e+02
4.906876e+02
4.829140e+02
9.199714e+02
8.897463e+02
1.022637e+03
9.878213e+02
6.468554e+02
6.824204e+02
2.436953e+02
2.451582e+02
4.300545e+02
4.243889e+02
6.866601e+02
6.834490e+02
1.216391e+03
1.179173e+03
1.666840e+03
1.596613e+03
1.263866e+03
1.308499e+03
3.563132e+02
3.583279e+02
4.651913e+02
4.606418e+02
5.091111e+02
5.106994e+02
3.219021e+02
3.149787e+02
2.131898e+02
2.033917e+02
8.216576e+02
8.140161e+02
3.077380e+02
3.119707e+02
3.038461e+02
3.064688e+02
2.752443e+02
2.842237e+02
2.618248e+02
2.667697e+02
8.418203e+01
8.839060e+01
2.798604e+02
2.842511e+02
2.117846e+02
2.105422e+02
2.228748e+02
2.252229e+02
1.306488e+02
1.231174e+02
5.917018e+01
5.881833e+01
1.035626e+02
1.034858e+02
2.784513e+02
2.846421e+02
1.988476e+02
1.986290e+02
1.822514e+02
1.838375e+02
2.143105e+02
2.239537e+02
1.466078e+02
1.431488e+02
4.260448e+02
4.286190e+02
3.381160e+02
3.394078e+02
2.088089e+02
2.065607e+02
2.254155e+02
2.300719e+02
1.015327e+02
9.690975e+01
1.938688e+02
1.879902e+02
3.745164e+02
3.918030e+02
3.657286e+00
7.091986e+00
-1.423620e+00
-6.647545e-01
-3.584180e+00
-5.428837e+00
-3.092856e+00
5.522181e-01
-2.255860e+00
1.927181e+00
6.240089e-01
-3.211214e+00
3.050724e+00
1.066669e+01
4.379621e+00
6.034736e+00
2.038536e+01
1.417070e+01
7.019734e+00
7.604646e+00
4.105646e+01
4.537387e+01
-3.072919e+01
-3.293667e+01
-3.018236e+01
-1.826464e+01
5.697061e+01
5.833629e+01
2.502028e-01
-1.800052e+00
-1.128941e+02
-1.129413e+02
-9.882965e+01
-1.033797e+02
-1.058191e+02
-1.068923e+02
5.143383e+01
4.879743e+01
3.233717e+00
3.345933e+00
-5.013625e+00
-3.811202e+00
-1.063815e+01
-1.282114e+01
9.994861e+00
4.001571e+00
2.732610e+00
-4.704154e-01
-5.165033e+00
-4.668032e+00
-4.025053e+00
-5.009451e+00
1.905647e-02
-3.602421e+00
-3.081484e-01
-7.342530e+00
3.797578e+00
1.052266e+01
1.570025e+01
4.998279e+00
-4.055846e+00
3.675714e+00
2.481751e+01
1.769524e+01
5.649847e+00
1.573880e+01
6.674768e+00
3.749304e+00
-1.043896e+02
-1.161927e+02
-1.197891e+02
-1.197000e+02
-3.698420e+01
-2.878771e+01
-9.104116e+01
-9.704374e+01
-1.546762e+02
-1.595293e+02
-9.551205e+01
-9.977181e+01
-1.701442e+02
-1.701297e+02
-1.295190e+02
-1.300494e+02
-2.659107e+00
2.326594e-01
-2.554728e+01
-1.306208e+01
2.603988e+00
6.501099e+00
-9.328335e-01
2.010228e+00
3.705337e+00
-1.028812e+01
-1.046976e+01
-5.968773e+00
-7.180893e+00
-1.001232e+01
-2.081740e+00
-2.082467e+00
-2.973515e+00
-5.093542e+00
9.369255e-01
5.771026e+00
-7.582043e+00
-9.060661e+00
-1.574814e+01
-2.515554e+01
-7.964169e+00
-6.211236e+00
-7.818840e+01
-7.770977e+01
-1.904276e+02
-1.846326e+02
-4.340049e+02
-4.431952e+02
-4.169350e+02
-4.159038e+02
-9.199202e+01
-8.303849e+01
-1.065225e+02
-1.032415e+02
-4.162824e+02
-4.097782e+02
-5.085572e+02
-5.115015e+02
-2.586409e+02
-2.577997e+02
-6.916468e+01
-7.554932e+01
-1.291216e+01
-9.742901e+00
3.933405e+00
-2.636586e+00
-2.513091e+00
-1.730531e+00
-5.670913e+00
-3.132441e+00
-1.211231e+01
-1.056005e+01
-7.636434e+00
-1.468710e+01
-1.666667e+01
-4.250305e+00
-1.255545e+01
-8.591218e+00
-9.948453e+00
-1.126164e+01
-2.629409e+01
-2.034162e+01
-5.695554e+01
-4.519034e+01
-2.825291e+01
-3.279320e+01
-1.345854e+02
-1.291813e+02
-3.789633e+02
-3.771574e+02
-3.430150e+02
-3.398609e+02
-2.081313e+02
-1.983507e+02
-1.705344e+02
-1.631245e+02
-1.937492e+02
-1.837662e+02
-4.585297e+02
-4.526105e+02
-5.159138e+02
-5.139783e+02
-2.836590e+02
-2.829997e+02
-6.455351e+01
-5.381427e+01
4.880776e+01
2.585801e+01
-5.163062e-01
-8.621893e-01
-5.467430e+00
-6.315426e+00
-6.355656e+00
-1.200900e+01
-8.507264e+00
-9.573361e+00
-1.624056e+01
-1.524615e+01
-2.000212e+01
-1.742984e+01
-1.279588e+01
-1.602404e+01
-2.045668e+01
-2.103504e+01
-3.619558e+01
-3.160023e+01
-1.600256e+01
-1.414993e+01
-2.884772e+01
-3.127430e+01
-9.568441e+01
-9.223973e+01
-9.314682e+01
-1.042609e+02
3.299019e+01
3.772100e+01
2.251852e+02
2.275393e+02
1.402895e+02
1.765475e+02
-4.040833e+02
-3.409622e+02
-2.081984e+02
-2.017394e+02
2.388677e+01
1.952289e+01
-1.500386e+01
-1.571155e+01
8.055400e+01
7.387086e+01
1.389994e+02
1.302213e+02
0.000000e+00
0.000000e+00
0.000000e+00
0.000000e+00
0.000000e+00
0.000000e+00
-1.406176e+01
-3.224192e+00
3.135598e+00
8.687125e-03
-2.926102e+00
-8.002287e+00
-6.084218e+00
-1.214112e+00
5.947937e+00
8.123986e-01
-5.337332e+00
-1.249041e+01
-1.988246e+00
-3.320606e+00
9.415023e+00
2.489257e+00
-8.128950e+00
-1.268168e+01
-2.490846e+00
-4.666245e+00
7.586051e+00
2.008428e+00
-7.870318e+00
-1.354663e+01
-7.184084e+00
-4.373733e+00
6.814283e+00
6.736537e-01
-8.428309e+00
-1.322347e+01
-7.944760e+00
3.876691e-03
3.373625e+00
-1.453075e+00
-5.494204e+00
-1.347275e+01
-2.814937e+00
-3.308546e-01
2.555986e+00
-1.412812e+00
-5.531061e+00
-9.278387e+00
9.739171e-01
2.124077e-01
1.013384e+00
-1.888330e+00
-5.238589e+00
-5.917682e+00
-5.866902e-01
3.321975e-01
-1.680538e+00
-2.902678e+00
-3.661323e+00
-5.871370e+00
-1.199871e+00
-1.578823e+00
-2.267863e+00
-3.400692e+00
-4.993844e+00
-5.540988e+00
0.000000e+00
0.000000e+00
0.000000e+00
0.000000e+00
0.000000e+00
0.000000e+00
-3.732072e+00
-2.102044e+00
3.447800e+00
2.250249e+00
-2.821503e+00
-5.267327e+00
2.762449e+00
-4.123315e+00
1.158035e+01
4.928689e+00
-5.775430e+00
-9.104826e+00
2.160388e-01
-5.250892e+00
1.301405e+01
5.709738e+00
-4.347728e+00
-1.371682e+01
-2.785570e+00
-4.903456e+00
1.318310e+01
3.402711e+00
-5.441119e+00
-1.457400e+01
1.093120e+00
-7.647930e+00
9.550206e+00
3.811189e+00
-6.578839e+00
-1.320403e+01
6.548149e+00
-1.653968e+00
6.981687e+00
1.672865e+00
-8.167686e+00
-1.011667e+01
3.401261e+00
2.862720e+00
1.492725e+00
-1.133471e+00
-5.495018e+00
-9.594803e+00
2.274578e-01
1.125904e+00
-3.385430e-01
-2.444522e+00
-3.834743e+00
-7.454618e+00
2.793504e-01
-1.276891e-02
-7.042353e-01
-2.802264e+00
-4.658156e+00
-4.803272e+00
-1.100929e+00
-1.190485e+00
-3.406724e+00
-4.209255e+00
-4.842782e+00
-6.407488e+00
0.000000e+00
0.000000e+00
0.000000e+00
0.000000e+00
0.000000e+00
0.000000e+00
4.577895e+00
-1.820531e+00
6.010267e+00
4.079516e+00
2.980419e-01
-2.918695e+00
1.116660e+01
3.993369e+00
9.616760e+00
7.920480e+00
1.270784e+00
-9.614815e+00
2.328556e+01
-4.154936e+00
4.331961e+00
1.337169e+01
-4.847292e+00
-8.632063e+00
1.692720e+01
-1.866457e+01
4.979207e-01
1.340695e+01
-6.502256e+00
-8.712791e+00
2.225419e+01
5.349305e+00
4.770489e+00
7.989446e+00
-3.960194e+00
-1.241379e+01
1.209207e+01
2.940146e+00
6.745430e+00
2.677338e-01
-1.664807e+00
-1.262090e+01
1.189805e+01
-1.793756e+00
3.463902e+00
3.000704e-01
-5.743959e+00
-6.328499e+00
1.465358e+00
1.874716e+00
8.699777e-01
-1.273111e+00
-5.549808e+00
-4.301850e+00
-2.152425e+00
-7.666314e-01
-2.414328e+00
-3.285738e+00
-3.321692e+00
-5.468690e+00
1.083724e+00
-7.384091e-01
-2.218263e+00
-3.803768e+00
-5.819082e+00
-5.259059e+00
0.000000e+00
0.000000e+00
0.000000e+00
0.000000e+00
0.000000e+00
0.000000e+00
-2.547348e+00
4.262866e+00
4.801790e+00
5.887895e+00
-1.591942e+00
3.683922e+00
3.563876e+01
-1.825722e+01
-2.929276e+00
2.153283e+01
-7.999736e+00
2.615391e+00
7.772057e+01
-3.884635e+01
-8.456141e+00
1.292723e+01
-1.231357e+00
-2.970303e+00
9.035115e+01
-1.299653e+01
-7.249828e+00
5.240623e+00
1.633225e+00
-7.448145e+00
5.659087e+01
-4.029634e+01
-8.173478e+00
1.658657e+01
-8.869637e+00
-1.555275e+00
1.817928e+01
8.943920e+00
-4.958968e-01
1.343062e+01
-1.098918e+01
-2.685250e+00
2.012210e+00
1.036441e+01
7.300329e+00
-4.363870e+00
-4.484357e+00
-4.597964e+00
3.726858e+00
-1.485044e-01
-1.040571e+00
-3.201132e+00
-4.158251e+00
-3.016051e+00
-1.211214e+00
-2.144261e+00
-2.408237e+00
-3.343663e+00
-5.166490e+00
-3.129269e+00
5.982793e-01
-9.799783e-01
-2.646400e+00
-3.316145e+00
-4.447299e+00
-4.635825e+00
0.000000e+00
0.000000e+00
0.000000e+00
0.000000e+00
0.000000e+00
0.000000e+00
1.118374e+01
6.944065e+00
4.037593e+00
6.647063e+00
-2.321881e+00
5.347899e+00
-5.871360e+01
-7.903676e+00
1.765138e+01
1.323595e+01
6.098583e+00
6.816276e-01
-7.769539e+01
-2.549329e+01
-4.522653e+01
3.073436e+01
7.307857e+00
-5.445540e+00
1.361924e+01
1.365495e+01
-7.055007e+01
3.265336e+01
7.064114e+00
-4.695743e+00
-1.395292e+02
-2.416888e+01
-3.529015e+00
1.612187e+01
6.641451e+00
-6.354093e+00
2.036081e+01
5.267792e+00
1.947509e+01
3.947842e+00
-1.905609e+00
-3.261480e+00
2.797919e+01
1.648811e+01
-1.635396e+00
5.643039e+00
-7.286186e+00
-1.719259e+00
1.256037e+01
9.337359e+00
3.819638e+00
-3.989664e+00
-5.730383e+00
-1.461009e+00
-2.898080e+00
-5.403220e+00
-4.818218e+00
-4.323973e+00
-5.363315e+00
-2.765845e+00
1.561433e+00
7.890348e-01
-1.887141e-01
-1.424859e+00
-3.434860e+00
-3.294974e+00
0.000000e+00
0.000000e+00
0.000000e+00
0.000000e+00
0.000000e+00
0.000000e+00
-3.654768e+01
-3.786044e+01
1.902826e+01
1.607472e+01
5.146886e+00
1.600776e+01
-8.987120e+01
4.038307e+01
-5.294479e+01
2.425754e+01
6.674501e+00
1.104265e+01
4.327217e+01
1.789557e+02
-1.187347e+02
1.759579e+01
1.307283e+01
4.201934e-01
1.839870e+01
6.617077e+01
-1.110253e+02
2.479024e+01
1.264198e+01
-1.268531e+00
-9.414194e+01
1.802808e+02
-9.566937e+01
1.369903e+01
8.208757e+00
2.090820e+00
-6.955604e+01
-7.034101e+01
-2.105725e+00
1.610884e+01
-9.537657e-01
5.939603e+00
3.108133e+01
2.428929e+00
2.698725e+01
7.096806e-01
-5.543008e-01
2.866778e+00
2.548468e+01
1.942647e+01
3.695838e+00
3.593856e+00
-2.915939e-01
-1.744032e+00
7.311742e+00
5.601115e+00
3.141503e+00
8.055150e-01
-3.785961e+00
-2.968030e+00
5.157331e+00
4.338127e+00
2.717138e+00
-8.937767e-02
-2.534814e+00
-2.624565e+00
SCALARS Vy float 1
LOOKUP_TABLE default
-3.948663e+01
-5.984210e+01
-7.985645e+01
-5.410238e+01
-4.672884e+01
-5.500322e+01
-8.290731e+01
-5.333010e+01
-7.815476e+01
-9.373573e+01
-9.299827e+01
-4.662685e+01
-7.387145e+01
-1.038136e+02
-8.740924e+01
-5.219418e+01
3.068586e+01
-4.663999e+00
-8.546076e+00
2.783540e+01
1.214343e+01
-1.499110e+01
2.573345e+01
6.970118e+01
5.764835e+01
3.608427e+01
2.832731e+01
7.784190e+01
6.095908e+01
3.317453e+01
-1.126401e+01
4.847465e+01
-1.030419e+01
4.764879e+01
6.712261e+01
5.873926e+01
7.047455e+01
5.824693e+01
-1.485585e+01
-1.720539e+00
1.498070e+01
3.412947e+00
-2.251333e+01
1.789227e+00
9.987174e+00
4.421206e+00
1.321533e+01
2.287379e+01
3.613209e+01
8.169103e+00
1.514510e+01
2.058754e+01
2.739897e+01
8.392827e+00
-1.105400e+01
-8.925991e+01
-2.926280e+01
-2.748237e+01
-1.073129e+01
-9.305910e+01
-3.002537e+01
-2.200223e+01
-7.948969e+00
-7.954618e+01
-3.670586e-01
-7.794060e+01
-6.100592e+00
-1.494697e+01
-8.779935e+01
-6.020692e+01
-8.893454e+01
-6.262469e+01
-5.576368e+01
-8.668918e+01
-5.642718e+01
-8.936866e+01
-1.266061e+02
-1.220993e+02
-1.232963e+02
-1.170539e+02
2.862770e+01
2.383417e+01
-1.187009e+01
1.210008e+01
8.209119e+00
-4.185982e+00
9.408318e+00
9.722757e+00
5.840576e-02
4.196425e+00
-2.593690e-01
-2.135527e+01
-1.408629e+01
4.168895e+00
-7.445034e+00
-8.657456e+00
1.784216e+01
1.696936e+01
3.706266e+01
1.620039e+01
2.991295e+01
1.635734e+01
1.333781e+01
1.221132e+01
3.157377e+01
3.059265e+01
2.908324e+01
3.501556e+01
2.109739e+01
3.228104e+00
6.328642e+00
-2.032915e+00
9.042662e+00
1.160435e+01
-3.672544e+01
-3.741645e+01
-4.148282e+01
-3.333631e+01
1.636172e+01
1.933980e+01
1.241454e+01
1.597992e+01
2.153517e+01
2.400045e+01
1.259763e+01
7.914089e+00
3.741672e+00
7.258087e-01
8.465464e+00
1.437198e+01
7.231523e+00
7.023362e+00
1.873679e+01
1.140301e+01
4.220126e+00
5.552964e+00
1.242334e+00
8.634521e+00
7.302126e+00
8.447115e+00
-7.023553e+00
-9.974947e-01
-1.055222e+00
2.406504e+01
-5.485045e+00
2.100945e+01
1.382594e+00
3.589373e+00
6.913408e+00
1.136202e+00
-1.527418e+00
-1.321191e+00
8.307407e+00
1.028856e+01
3.619867e+00
1.085091e+01
5.981947e+00
1.234645e+01
-5.741101e+00
-7.104086e-01
-2.345379e-03
-5.075519e+00
2.641023e+00
7.643170e+00
-3.081643e+00
-7.709656e-01
2.729338e+00
1.117776e+01
-7.844281e+00
1.068129e+01
-7.104772e-01
2.219948e+00
-1.341358e+00
3.774776e+00
-3.267138e-01
-2.433400e+00
5.207031e+00
4.490551e-01
-2.926297e+00
6.126978e+00
-3.468729e-01
8.700125e+00
3.222894e+00
6.932953e-01
-1.346167e+00
-4.977507e-01
1.469238e+00
-1.273160e+00
2.332884e+00
1.929768e+00
1.218757e-01
1.099960e+01
1.745091e+00
9.586677e+00
-2.276691e+00
5.728709e-01
8.302644e+00
1.724794e+00
8.542582e+00
2.976629e+00
3.926533e+00
3.593576e-01
2.192626e+00
-7.849520e-01
-7.391392e+00
6.234180e+00
8.873118e-01
6.445065e+00
6.146191e+00
1.106583e+01
8.245028e+00
6.912908e+00
5.005528e+00
3.291474e+00
3.779370e+00
3.197219e+00
2.709220e+00
1.388093e+00
1.705287e+00
1.156632e+00
2.283331e+00
-7.078153e-01
1.619013e+00
5.058101e-01
4.669977e+00
2.797326e+00
1.992405e+00
-1.197260e+00
7.707511e+00
6.567969e+00
2.740018e+00
-4.032570e+00
-6.198993e+00
-4.325083e+00
-1.404101e+00
-2.775703e+00
-9.186670e-01
-2.244863e-01
3.277871e+00
3.635264e+00
-1.224207e+00
3.335883e+00
-6.747937e-01
7.397193e+00
2.159627e+00
1.491867e+00
-4.189654e+00
-2.656547e-01
-3.902343e+00
9.480519e-01
3.671950e-01
-7.000104e+00
4.038680e+00
6.496273e-01
2.052278e+00
2.072294e+00
1.841797e+00
9.264392e-01
1.706564e+00
-2.736214e+00
-5.566457e+00
-5.335462e-01
-2.912678e+00
1.255828e+00
5.968964e-01
-1.176723e+00
2.715469e+00
-5.071337e+00
-9.747509e-01
-1.690694e+00
7.639667e-01
-9.989215e-01
4.863234e+00
-3.236653e+00
-1.139096e+01
-6.124256e+00
-1.357705e+00
-6.554899e+00
-1.213411e+01
-3.474586e+00
1.498754e+00
-1.600618e+01
-5.932717e+00
-3.850296e+00
-5.616382e+00
-5.109001e-01
1.662426e+00
4.823278e+00
-3.976276e-02
3.310419e+00
-1.888451e-01
2.570558e+00
3.955691e+00
2.815673e+00
9.201446e+00
1.103942e+00
1.043167e+01
-2.655602e+00
-4.990800e+00
-4.578760e+00
-7.033358e+00
-4.168957e+00
-1.888475e+00
3.793968e-01
-5.509495e+00
-1.872957e+00
-4.231042e+00
-1.566744e+00
-3.384022e-01
-3.013400e+00
1.544129e+00
-4.382986e+00
-3.889353e+00
-2.943455e+00
-1.994225e+00
-8.213368e-01
-4.572595e-01
2.213475e+00
-1.076847e+00
4.027124e+00
-3.579687e+00
-5.134385e-01
1.340083e+00
1.623122e-01
-1.128326e+01
-3.016836e+00
-4.710394e-02
-9.234032e+00
7.263553e+00
7.501742e+00
4.501003e+00
6.340513e+00
1.126302e+00
3.067136e+00
1.999276e+00
-1.583290e+00
2.022491e-01
4.876517e+00
-4.373187e+00
-2.412101e+00
-2.409621e-02
-1.471202e-01
1.746515e+01
5.923616e+00
-1.203268e+00
9.878217e+00
-2.007566e+01
-1.872819e+01
1.298073e+01
1.375920e+01
-1.060328e+00
-7.072590e+00
8.697639e+00
2.321137e+00
-5.364236e+00
-2.806580e+00
-2.099251e+00
-1.289914e+00
4.371971e-01
4.518688e+00
9.155358e+00
1.415201e+01
3.509412e+00
3.388181e+00
1.890145e+01
1.822390e+01
1.590883e+00
-5.047781e+00
2.327989e+01
3.064541e+01
6.792126e+00
8.994648e+00
8.863454e-01
2.576405e+00
2.045642e+00
7.470133e+00
1.873588e+00
1.519636e+00
8.066488e+00
-2.363852e+00
2.126911e+01
1.071147e+01
9.487198e+00
5.218353e+00
6.101223e+00
1.466667e+01
7.888685e+00
9.827558e+00
4.994123e+00
2.654748e+01
2.833838e+01
2.289044e+01
6.346320e+00
1.495342e+01
3.983513e+01
1.563412e+01
2.067940e+01
2.799857e+01
3.374019e+01
5.685370e+00
1.954810e+01
4.684504e+01
1.412612e+01
4.169940e+01
1.435110e+01
4.206405e+01
-3.105848e+00
3.007148e+00
2.576221e+01
2.008735e+01
-1.845554e+01
-1.027393e+00
2.628499e+01
2.804009e+01
8.977461e+00
1.306862e+01
9.158795e+00
1.426694e+01
1.485454e+01
1.748794e+01
1.839745e+01
1.845076e+01
5.306416e+00
1.228041e+01
4.537678e+00
1.092734e+01
1.002627e+01
4.522255e+00
4.750560e+00
2.769574e+00
4.793254e+00
3.621784e+00
6.986963e-01
-2.367899e+00
6.792407e+00
-1.008089e-02
5.057983e+00
-2.594334e-01
4.493003e+01
3.881532e+01
8.839605e-01
2.848573e+00
7.957421e+00
9.153793e+00
2.725591e+01
1.049889e+01
1.776629e+00
2.127536e+01
3.815291e+01
-8.850748e-01
4.818376e+00
1.087494e+00
3.523953e+01
4.655776e+00
4.334249e+00
-5.670824e+00
5.302342e+00
3.865415e+00
6.854746e+00
1.239921e+01
6.019463e-01
2.418033e+00
-1.106064e+01
2.048478e+01
-8.916399e+00
-3.042997e+01
-1.063509e+01
2.225408e+01
-1.034898e+01
-2.579076e+01
-2.036436e+01
-2.431270e+01
-3.346794e+00
-1.517252e+00
2.914678e+01
2.657171e+01
5.637654e+00
2.970983e+00
-7.231681e-01
-1.060836e+00
-2.978633e+00
1.220668e+01
1.961951e+00
4.695324e+00
5.460299e+00
2.677977e+00
2.794486e+00
4.342790e+00
1.152978e+01
-3.510579e-01
1.781384e+00
7.517851e+00
3.176537e+00
4.986147e-01
-3.095743e+00
-1.103402e+00
1.097330e+00
1.011602e+00
-5.322229e+00
6.845329e+00
-6.277343e-01
1.717714e-01
-3.005122e+00
3.592994e+00
-4.402096e+00
-9.327123e-01
1.154241e+00
7.544865e-01
-3.468962e+00
-4.880765e+00
-5.433758e+00
-1.746489e+00
-3.272439e+00
3.681419e+00
-6.180201e-01
1.149188e+00
3.112865e+00
-5.392540e-01
7.883971e+00
4.041999e+00
6.052779e+00
2.199055e+00
-4.021148e+00
-5.399256e+00
4.378471e+00
2.578172e+00
9.519680e-01
4.708623e+00
5.638453e+00
-2.096576e+00
4.916915e+00
2.242914e+00
1.702558e+00
2.697431e+00
-3.830694e+00
-5.066806e-01
-1.069246e+00
-1.910398e+00
2.934011e+00
2.575114e+00
1.769297e+00
1.385968e+00
-6.896222e-01
-1.690017e+00
5.398097e-01
7.826108e+00
3.371160e+00
-3.842870e+00
-5.919855e-01
2.783489e+00
2.303471e+00
3.462294e+00
-1.815176e+00
-1.750868e+00
2.516229e+00
2.148694e+00
-2.542740e+00
3.670308e+00
7.075011e+00
4.421848e-01
2.294528e+00
-2.404477e+00
-8.128716e+00
-1.836633e+00
-4.781012e+00
-3.849400e+00
6.069949e+00
4.837133e+00
2.993135e+00
3.099684e+00
4.282927e+00
1.452608e+00
-5.345177e-02
-5.378944e+00
1.697154e+00
4.205843e+00
1.216725e+00
5.358301e+00
2.748678e+00
-3.597721e+00
1.467307e+00
5.715393e+00
3.492721e+00
2.153469e+00
-5.460401e-01
2.837258e+00
-3.728465e+00
-1.153279e+00
1.012317e+00
-3.863884e+00
-1.423702e+00
-2.968752e-01
-2.370025e+00
1.426953e+00
-1.579721e+00
4.897625e+00
1.167303e+00
3.473036e+00
9.404857e-01
2.257273e-01
4.626745e+00
2.764000e+00
-1.359903e-01
1.484809e-01
-5.062140e-01
-2.276566e+00
1.438112e+00
4.611741e+00
2.147254e+00
1.602177e+00
-5.697289e+00
7.394204e-01
-4.470755e+00
-3.491634e+00
-1.039367e+00
-4.400624e+00
-3.748848e+00
-4.953787e+00
-3.897729e+00
4.791459e+00
5.058063e+00
3.820429e+00
5.692828e+00
-3.182534e-01
6.599069e+00
-5.576629e-01
1.966791e+00
1.043273e+01
4.001296e+00
9.204314e-01
4.249471e+00
-7.952253e-01
-1.584705e+00
5.886209e+00
-1.816174e+00
1.550513e+00
-2.072731e+00
-3.738230e+00
-4.719664e+00
-7.288782e+00
-1.287334e+01
-4.697740e-01
-3.316481e+00
-4.983602e+00
4.276776e+00
3.100281e+00
-2.888502e+00
8.846059e+00
-7.344351e-01
-1.766737e+00
-2.401678e+00
8.153875e+00
-6.733121e-01
3.075269e+00
-4.965681e+00
-2.752608e+00
-3.397239e-01
3.792126e-01
6.504736e+00
5.615086e+00
2.683607e+00
3.023317e+00
-1.088428e+00
4.143148e+00
4.348428e+00
5.581368e-01
-1.121759e+00
4.747663e-01
2.614864e+00
6.100381e+00
7.419385e+00
9.975401e+00
4.675371e+00
5.471963e+00
1.487740e+00
-3.424249e+00
-6.670073e+00
-5.968615e+00
1.460733e+00
8.707657e-01
-7.823562e-01
-2.080949e+00
-3.496589e+00
-3.120287e+00
5.420878e+00
-5.897028e-01
9.246394e+00
1.159625e+01
8.542069e+00
1.366593e+01
1.934019e+00
6.488938e-01
1.196565e+00
1.016158e+00
2.696491e+00
-1.238902e-01
-4.715230e+00
-4.329508e+00
-4.210928e-02
4.348219e-01
-1.789276e-01
-1.015318e-01
-6.591812e+00
-4.046671e+00
6.186871e+00
1.261988e+01
7.977715e+00
1.129075e+01
3.504430e+00
1.926003e+00
-4.273579e+00
-5.111091e+00
-3.223891e+00
-1.123260e+00
3.111285e-01
2.318747e+00
-1.898037e+00
-2.219347e+00
8.418247e-01
-2.493750e+00
-1.188776e+00
1.300526e+00
3.678549e+00
1.085820e+01
-6.998726e-01
6.855616e+00
-7.338617e-01
-4.070344e+00
-2.179192e+00
4.393269e+00
7.904327e-01
-3.247086e+00
-1.613236e+00
-2.339545e+00
2.824663e-01
4.874083e-01
-1.701822e+00
2.461731e+00
3.839499e+00
3.423192e-01
-6.194424e+00
5.661509e+00
-5.566140e+00
6.128193e-01
-1.162993e-01
2.734540e+00
4.713912e+00
1.005851e+00
6.856027e-02
3.836537e+00
3.006604e+00
5.423804e+00
-2.656083e+00
-1.814355e+00
1.238340e+00
3.065621e+00
3.211313e+00
4.098955e+00
4.081378e+00
3.586120e+00
-8.407082e-01
1.037139e+00
1.698829e+00
5.851468e+00
3.144940e+00
4.388231e+00
2.374684e+00
8.577488e+00
3.597509e+00
-8.516607e-01
7.181059e-01
7.995908e+00
-7.580422e+00
9.584020e+00
-5.546375e+00
8.881356e+00
-2.303031e+00
1.005507e+01
1.415681e+00
3.991842e+00
-8.489189e-01
5.559619e+00
3.024654e+00
3.629626e+00
1.064658e+01
7.233526e+00
2.467134e+01
-2.248407e+00
-3.636715e+00
-3.160143e+00
-1.365686e+00
-3.083936e-01
2.198657e+00
3.132619e+00
2.300776e+00
1.865289e-01
-6.349768e+00
4.134343e+00
1.890995e-01
-2.703268e+00
-7.403899e-01
7.436542e+00
-4.850151e+00
1.806038e-01
2.212546e+01
1.785323e+01
-6.846746e-01
-1.066206e+00
2.182313e+00
-1.737713e-01
-9.893641e-02
-1.744421e+00
2.305688e+00
2.660452e-01
2.412275e-01
8.457185e-01
-4.568836e+00
-3.581520e+00
-3.335808e+00
-4.116255e+00
-2.908362e+00
-3.683301e+00
3.743586e-02
1.471793e+00
-4.422236e+00
-4.146075e+00
5.170814e+00
-1.596364e+00
-1.445138e+00
2.707130e-01
1.941971e+00
3.575698e+00
1.225902e-02
5.138681e-01
1.899467e+00
4.727800e-01
-2.015764e-01
1.482466e+00
-7.715968e+00
-4.747974e+00
-5.851653e+00
-8.816152e+00
-4.395513e+00
-7.311696e+00
-5.102208e+00
3.755974e+00
4.063068e+00
3.812334e+00
-9.874138e-01
7.219591e-01
-2.715811e+00
5.222872e-01
1.402497e+00
-4.627450e-01
2.300995e-01
-3.042037e+00
-7.388794e+00
-1.488568e+00
-8.059203e+00
1.648941e+00
-9.291016e+00
-9.845147e-01
-3.084317e+00
-1.443806e+00
3.978781e+00
1.330487e+00
1.028288e+00
3.205198e+00
-2.373954e+00
-2.076793e+00
8.364651e-01
7.010258e-01
4.504299e+00
4.391985e+00
8.150199e-01
-3.241170e-01
-2.478120e+00
-6.180283e+00
4.317309e-01
1.430860e+00
3.988773e+00
3.732143e+00
2.280583e+00
3.537246e+00
-3.522087e+00
-4.944183e+00
-2.415547e-01
1.799147e+00
-2.468415e+00
1.614657e+00
-1.623659e+00
7.692186e-01
1.510093e+00
3.555427e-01
-3.946357e+00
-2.321752e+00
2.190422e-03
-2.909716e+00
4.074962e-01
1.783565e+00
2.173508e-01
-6.867118e-01
-7.686426e-01
-2.809739e+00
3.491292e+00
2.767406e+00
5.452282e-01
4.542471e+00
2.820738e+00
2.221725e+00
-6.368390e-02
-2.646148e+00
-4.834148e+00
-3.210518e+00
6.760998e-03
2.311871e+00
5.443056e+00
1.956961e-01
1.998670e+00
1.152114e-01
-1.705105e+00
2.251371e+00
-4.065163e-01
1.479947e+00
-1.116606e+00
-5.392404e+00
-5.555998e+00
-2.077425e+00
3.300796e-01
-1.783627e+00
6.283777e+00
5.618208e+00
7.572305e+00
1.131748e+01
5.702953e+00
5.638502e+00
1.187571e+01
8.629508e+00
1.013929e+01
9.287048e+00
7.208017e+00
9.210884e+00
9.438954e+00
7.208538e+00
-6.727270e+00
-3.750197e+00
1.821841e+01
1.711697e+01
1.159408e+01
1.205546e+01
9.783749e+00
1.426009e+01
1.511152e+01
1.031319e+01
3.501214e+00
3.993797e+00
1.212132e+01
1.125598e+01
1.023303e+01
2.571541e+00
1.501337e+01
1.871644e+01
1.852283e+01
1.305404e+01
1.312542e+01
1.416411e+01
1.650768e+01
1.740220e+01
-1.824804e+00
-1.526512e+00
2.026184e+01
2.196542e+01
1.262910e+01
1.424081e+01
1.830058e+01
2.034620e+01
2.090834e+01
1.799824e+01
9.921359e+00
2.802454e+00
1.015259e+01
1.170224e+01
8.773160e+00
1.954404e+01
3.661952e+01
3.797409e+01
3.454284e+01
3.715010e+01
2.913852e+01
3.194644e+01
2.098397e+01
2.334762e+01
5.251618e+00
5.102428e+00
4.208869e+01
4.258355e+01
4.369414e+01
5.390281e+01
6.699499e+01
6.586936e+01
5.639333e+01
5.641506e+01
3.129829e+01
3.374551e+01
1.255184e+01
1.291165e+01
3.538756e+01
3.554446e+01
7.598772e+01
7.100020e+01
8.149224e+01
8.152139e+01
8.080936e+01
7.789152e+01
4.494709e+01
4.277715e+01
1.377627e+01
1.745578e+01
2.283141e+01
2.251899e+01
7.241411e+01
7.294168e+01
1.157798e+02
1.125257e+02
9.640710e+01
9.353275e+01
7.272239e+01
6.932284e+01
3.884742e+00
6.384694e+00
5.388498e+01
5.280078e+01
3.821402e+01
3.548793e+01
1.171677e+02
1.133593e+02
1.618400e+02
1.572078e+02
6.259575e+01
6.257163e+01
4.169173e+01
3.902622e+01
3.797494e+01
3.883687e+01
4.817675e+01
4.777635e+01
6.959036e+01
6.404740e+01
1.884712e+02
1.945538e+02
1.715975e+02
1.735290e+02
-6.324312e+01
-6.033690e+01
8.243031e+01
8.807525e+01
1.537230e+01
1.571478e+01
4.385523e+01
4.062298e+01
1.014997e+02
9.757722e+01
2.275695e+02
2.305277e+02
1.392963e+02
1.349356e+02
5.198667e+01
5.053241e+01
5.485226e+01
5.825808e+01
-5.438225e+00
-5.856052e+00
2.586517e+01
2.422984e+01
1.779462e+02
1.747416e+02
5.755314e+02
5.746152e+02
9.942997e+01
1.002395e+02
-4.753285e+01
-4.866229e+01
1.645946e+02
1.632568e+02
1.237960e+02
1.205113e+02
1.777256e+02
1.746405e+02
3.093982e+02
3.122187e+02
1.309086e+02
1.286903e+02
5.714130e+01
5.583739e+01
2.163799e+02
2.043185e+02
4.207854e+02
4.152267e+02
-8.585007e-01
6.872880e-02
-3.300143e+02
-3.276897e+02
1.213107e+02
1.182986e+02
2.570011e+02
2.492066e+02
3.001428e+02
2.904422e+02
4.121556e+02
4.063071e+02
-2.701726e+02
-2.274829e+02
-4.801684e+02
-4.455731e+02
1.432515e+02
1.391432e+02
2.539547e+02
2.490410e+02
1.985596e+02
1.963217e+02
1.423524e+02
1.581719e+02
-3.612678e+02
-3.714262e+02
-3.548369e+01
2.540862e+01
7.801208e+01
7.649360e+01
8.396899e+01
8.056192e+01
-1.859858e+02
-1.871713e+02
-4.313165e+02
-4.553033e+02
-3.436380e+02
-3.774235e+02
7.034438e+02
6.517213e+02
-2.516241e+01
-2.806770e+01
-1.299514e+02
-1.171041e+02
-3.167243e+02
-3.167599e+02
-6.500264e+02
-6.538712e+02
-4.331696e+02
-4.467097e+02
5.952037e+02
5.713066e+02
-1.718459e+02
-1.703173e+02
-1.161268e+02
-1.152004e+02
-3.641164e+02
-3.666889e+02
-3.787255e+02
-3.759348e+02
-3.597925e+02
-3.615672e+02
-2.195824e+02
-2.175599e+02
-1.943638e+02
-1.944330e+02
-1.094923e+02
-1.086622e+02
-2.574323e+02
-2.533537e+02
-4.011633e+02
-4.041030e+02
-1.969138e+02
-2.012327e+02
-7.376451e+02
-7.428284e+02
-1.630918e+02
-1.557704e+02
-1.313625e+02
-1.339677e+02
-1.827662e+02
-1.812504e+02
-3.134833e+02
-3.165284e+02
-5.656235e+02
-5.700875e+02
-4.314049e+02
-4.310361e+02
-2.070170e+02
-2.047061e+02
-1.281599e+02
-1.198357e+02
-1.079670e+02
-1.035398e+02
-4.240334e+02
-4.207084e+02
-9.486043e+02
-9.476358e+02
6.709608e+00
-3.139818e+00
6.049641e+00
6.239401e+00
1.398394e+01
5.012918e+00
5.827957e-02
8.336405e+00
4.928235e-01
1.048751e+00
-6.365734e+00
-2.589871e+00
2.952639e+00
3.744845e+00
-2.992578e+00
2.710070e-01
2.199324e+00
1.696656e+00
-5.327022e+00
-3.398390e+00
6.208514e+01
6.102250e+01
-9.419993e+00
-1.079978e+01
-3.455884e+01
-3.964337e+01
6.450991e+01
6.541792e+01
6.679196e+01
6.734671e+01
-2.845829e-01
-8.225497e+00
-2.952946e+01
-2.288269e+01
-4.148456e+01
-4.805190e+01
-6.985978e+01
-6.993310e+01
8.362920e+00
4.277719e+00
1.061297e+02
1.062250e+02
-7.097454e+01
-6.668606e+01
2.842693e+00
1.646742e+00
4.616920e+00
1.250376e-01
1.255367e+00
3.261992e+00
6.352060e+00
1.752498e-01
3.316252e+00
8.786919e-01
-8.323218e-01
3.687735e+00
-4.904234e+00
-6.132343e+00
1.256730e+01
1.327798e+01
-1.470235e+01
-1.035437e+01
2.378219e+01
2.611437e+01
3.505686e+01
3.606219e+01
8.983247e+01
9.174139e+01
-2.887198e+01
-2.486127e+01
-4.260561e+01
-4.262366e+01
1.512556e+02
1.428365e+02
6.732260e+01
6.377782e+01
-3.576595e+01
-3.538564e+01
-9.147952e+01
-9.880796e+01
-9.451367e+01
-9.038489e+01
2.134112e+01
2.468899e+01
-4.060225e+01
-3.853314e+01
9.359976e+01
9.179240e+01
-4.634689e+00
-2.228704e+00
-1.822530e+00
-6.620430e+00
7.451113e-01
-1.890832e+00
-2.714824e-01
5.579004e-01
-3.381869e+00
-5.810693e+00
-1.722681e+00
-2.114869e-01
1.372768e+00
2.048010e+00
-2.693780e+00
-1.709311e+00
2.980922e+01
2.781183e+01
-3.302421e+01
-2.980328e+01
1.024345e+02
1.023368e+02
1.275617e+02
1.370813e+02
1.732804e+02
1.716995e+02
3.309614e+01
3.442381e+01
-8.164728e+01
-8.458698e+01
1.601603e+01
1.507451e+01
6.849899e+01
7.817049e+01
4.020609e+01
4.280308e+01
-6.062157e+01
-6.425461e+01
-3.228363e+02
-3.209751e+02
-4.724736e+01
-4.136886e+01
6.060269e+01
5.114554e+01
1.045324e+00
-7.237044e+00
-6.306999e+00
-3.935952e+00
-8.174739e+00
-8.438273e+00
-3.327846e+00
-1.071860e+01
-3.049366e+00
7.044720e-01
8.883833e-01
-2.449169e+00
-3.525531e+00
-2.770499e-01
1.141190e+01
1.096355e+01
3.118466e+01
3.080075e+01
4.617437e+00
2.536204e+00
2.828995e+01
3.107935e+01
4.083083e+02
4.112596e+02
2.890212e+02
2.966934e+02
1.243334e+02
1.210724e+02
-3.468804e+02
-3.512336e+02
-8.869756e+01
-8.401977e+01
2.307961e+02
2.288395e+02
4.571033e+02
4.547201e+02
-3.265134e+02
-3.294576e+02
-5.207970e+02
-5.247791e+02
-2.486225e+02
-2.541249e+02
1.082988e+02
1.083253e+02
-3.471269e+00
-5.839783e+00
-4.623075e+00
-3.769941e+00
-2.950533e+00
-3.634118e+00
-4.401553e+00
2.817826e+00
3.730477e-01
-1.103246e+00
-2.462089e-02
4.228231e+00
9.333989e+00
1.245231e+01
3.960579e+00
-2.404332e+00
5.295284e+01
5.840501e+01
4.277170e+00
5.347536e+00
3.136168e+01
3.345383e+01
5.697811e+02
5.648337e+02
3.925804e+02
3.931755e+02
-1.345897e+02
-1.357865e+02
-4.198192e+02
-4.159152e+02
5.821468e+01
7.330053e+01
6.664102e+02
6.426799e+02
1.575351e+02
1.566645e+02
-1.972690e+02
-1.947864e+02
-8.136486e+02
-8.189992e+02
-2.405976e+02
-2.426043e+02
-3.996933e+01
-3.857278e+01
0.000000e+00
0.000000e+00
0.000000e+00
0.000000e+00
0.000000e+00
0.000000e+00
-5.879938e+00
1.349302e+00
-9.699103e-01
7.661356e-01
4.462903e-01
-2.481937e+00
-6.441079e+00
1.778504e+00
3.112118e+00
-2.124784e-01
-2.343261e+00
-1.148372e+00
-5.907496e+00
-4.735171e+00
-3.282034e-01
1.174591e+00
-5.456001e-01
1.386954e-01
-2.555654e+00
-2.200559e+00
-1.623438e+00
-7.183628e-01
1.105813e+00
3.333497e-01
1.854517e+00
-2.739724e+00
-3.238405e+00
-1.649316e-01
3.119633e+00
1.764890e+00
4.632525e+00
-4.150928e+00
-3.263717e+00
2.604434e-01
3.043066e+00
4.859015e+00
4.476749e+00
-4.203747e+00
-3.822729e+00
8.297115e-01
2.973653e+00
5.466056e+00
-3.679389e+00
-5.952135e+00
-4.529172e+00
8.881487e-01
4.526871e+00
3.464492e+00
-5.930349e+00
-6.404166e+00
-2.303741e+00
1.036503e+00
2.962237e+00
4.533087e+00
-7.911203e+00
-6.270316e+00
-3.225662e+00
5.898549e-01
3.444989e+00
3.717072e+00
0.000000e+00
0.000000e+00
0.000000e+00
0.000000e+00
0.000000e+00
0.000000e+00
-6.582443e+00
-2.505267e+00
2.196263e+00
3.641596e-01
-2.237530e+00
2.264520e+00
-1.319626e+01
-9.748344e+00
-6.608065e-01
5.045132e-01
1.458433e+00
-8.706294e-01
-8.867834e+00
-2.892388e+00
-1.015664e-01
-8.827344e-01
5.722619e-01
-5.601937e-01
2.082568e+00
-9.944053e-01
-5.037324e-01
1.306809e+00
1.399143e+00
1.290352e+00
1.114987e+01
3.504078e+00
-6.009170e-01
1.690994e+00
1.126093e+00
3.480999e+00
8.535289e+00
5.721257e+00
-2.294748e+00
2.957505e-01
3.305652e+00
3.145212e+00
4.522203e+00
-8.306453e-01
-2.372770e+00
5.630045e-01
4.593444e+00
3.602309e+00
2.128588e+00
-1.779908e+00
-4.635560e-01
2.042855e+00
3.025721e+00
5.829011e+00
-3.125346e+00
-3.190858e+00
-1.380048e+00
2.122401e+00
4.374247e+00
4.212188e+00
-4.822381e+00
-4.283016e+00
-4.448868e-01
2.339148e+00
3.586548e+00
5.283014e+00
0.000000e+00
0.000000e+00
0.000000e+00
0.000000e+00
0.000000e+00
0.000000e+00
-1.405571e-01
-6.319076e+00
-1.070943e+00
8.126359e-01
2.075395e+00
-1.533085e+00
-9.852070e+00
-7.265029e+00
3.954723e-02
6.583024e-01
5.940130e-01
-1.402863e+00
-2.258444e+00
-1.326991e+01
-5.908958e+00
6.906282e+00
-8.151229e-01
8.894068e-01
6.267119e-01
5.577069e+00
3.581178e+00
-8.445836e-01
2.984158e+00
1.193637e+00
8.948631e+00
1.254163e+01
4.916959e+00
-3.839202e+00
4.472480e+00
3.422184e+00
1.511732e+01
4.959294e+00
-2.840655e+00
1.710303e+00
1.040621e+00
6.935874e+00
1.206081e+00
9.470437e+00
-1.593754e+00
-4.546184e-01
3.669860e+00
6.613515e+00
4.066611e+00
2.148062e-01
-1.560760e+00
1.257897e+00
6.209930e+00
6.567364e+00
7.243978e-01
-1.172024e+00
8.349540e-01
4.215124e+00
5.522202e+00
7.329500e+00
-5.625488e+00
-2.668813e+00
5.391439e-01
3.483532e+00
6.087532e+00
6.472383e+00
0.000000e+00
0.000000e+00
0.000000e+00
0.000000e+00
0.000000e+00
0.000000e+00
1.634717e+01
-8.133453e+00
-3.682510e+00
4.554955e+00
2.854231e+00
-1.099350e+00
4.267039e+01
-8.758751e+00
-7.228088e+00
1.427358e+01
1.000661e+00
5.101666e+00
5.293790e+01
-1.521465e+00
2.177073e+01
-4.079671e+00
5.451006e+00
1.366022e+00
-2.512691e+01
-2.197452e+00
-1.169650e+01
4.794007e+00
5.013230e-01
1.633687e+00
-6.682835e+01
2.444512e+00
-1.558205e+01
-2.486959e+00
8.973755e-02
-1.016454e-01
-6.975972e+00
9.257540e+00
8.491542e+00
-1.893461e+01
7.770582e-01
1.648856e+00
8.034659e+00
6.068203e+00
-1.336794e+01
-6.256913e+00
-1.089504e+00
5.786389e+00
6.561673e-01
-1.811594e+00
-6.979395e+00
-1.910743e+00
4.917835e+00
5.233490e+00
-3.375064e+00
-5.614916e+00
-1.598825e+00
3.275058e+00
6.033566e+00
8.297953e+00
-1.021144e+01
-5.790636e+00
-5.728176e-01
3.720616e+00
6.653100e+00
7.670739e+00
0.000000e+00
0.000000e+00
0.000000e+00
0.000000e+00
0.000000e+00
0.000000e+00
3.250108e+01
-2.283723e+01
-1.305579e+01
5.246784e+00
2.283196e+00
8.847895e+00
4.695852e+01
-4.806306e+01
-2.942721e+01
-2.335098e+00
9.203836e+00
1.113262e+01
-4.261995e+01
-3.170358e+01
-2.528506e+01
-8.349549e+00
1.069655e+01
2.875948e+00
4.531632e+00
2.709621e+00
1.135083e+01
2.920803e+00
-3.094948e+00
-3.844810e-01
9.752486e+00
3.970671e+01
1.836779e+01
3.993794e+00
-1.071183e+01
-6.732731e+00
-4.304437e+01
3.703810e+01
6.340286e+00
-1.184666e+01
-7.089778e+00
-9.231210e+00
2.389822e+01
8.590534e+00
1.160281e+00
-1.481042e+01
-4.892712e+00
-3.791703e+00
7.209485e+00
1.485449e-01
-1.154360e+01
-5.724742e+00
-3.953521e-01
8.498687e-01
-1.101266e+01
-1.021136e+01
-6.947713e+00
-7.808049e-01
4.071604e+00
3.515229e+00
-1.854867e+01
-1.432042e+01
-5.254029e+00
4.120938e-01
3.610444e+00
6.263022e+00
0.000000e+00
0.000000e+00
0.000000e+00
0.000000e+00
0.000000e+00
0.000000e+00
9.292857e+01
9.239364e+00
-3.006974e+01
-4.573951e+00
-3.378130e+00
7.880600e+00
1.083714e+02
6.356714e+01
-3.810106e+01
-2.333989e+01
7.489925e+00
6.547718e+00
-1.078016e+02
6.541545e+01
1.931473e+00
-1.737596e+01
2.910436e+00
5.311436e+00
1.324722e+01
-4.120016e+01
-4.743948e+00
4.984065e+00
-9.872374e-01
-4.398951e+00
4.714317e+01
-9.259110e+01
5.276642e+00
1.886510e+01
-5.468242e+00
-7.909182e+00
-1.003532e+02
-2.780517e+01
3.129242e+01
7.119104e+00
-7.230036e+00
-4.891822e+00
1.093685e+01
2.331148e+01
5.956501e+00
-4.721800e+00
2.839529e+00
-6.175044e+00
3.710739e+01
1.799994e+01
-1.919698e+00
3.301451e+00
1.979895e+00
-1.575893e+00
2.349107e+00
1.880901e+00
-2.120751e-01
-9.746649e-01
2.607790e+00
1.467924e+00
-2.320955e+01
-1.895040e+01
-9.599220e+00
-2.628590e+00
1.920762e+00
3.313026e+00
SCALARS Vz float 1
LOOKUP_TABLE default
1.403800e+04
1.404554e+04
1.401277e+04
1.408008e+04
1.403724e+04
1.404260e+04
1.401107e+04
1.407914e+04
1.406263e+04
1.405265e+04
1.404819e+04
1.404661e+04
1.405954e+04
1.405224e+04
1.403323e+04
1.404866e+04
1.404173e+04
1.406515e+04
1.407711e+04
1.402466e+04
1.406650e+04
1.407274e+04
1.401111e+04
1.402417e+04
1.404924e+04
1.402765e+04
1.401619e+04
1.402706e+04
1.404065e+04
1.403258e+04
1.407603e+04
1.409034e+04
1.406865e+04
1.408803e+04
1.400951e+04
1.402709e+04
1.401040e+04
1.401683e+04
1.400939e+04
1.401970e+04
1.403202e+04
1.405622e+04
1.402742e+04
1.400924e+04
1.402947e+04
1.404825e+04
1.402335e+04
1.401312e+04
1.402536e+04
1.401857e+04
1.401195e+04
1.402076e+04
1.402543e+04
1.401944e+04
1.410554e+04
1.403965e+04
1.408836e+04
1.408050e+04
1.410121e+04
1.403845e+04
1.408300e+04
1.409386e+04
1.407825e+04
1.408671e+04
1.407737e+04
1.409271e+04
1.410251e+04
1.410712e+04
1.405890e+04
1.410035e+04
1.406712e+04
1.409362e+04
1.412974e+04
1.408685e+04
1.412507e+04
1.408470e+04
1.404429e+04
1.403914e+04
1.402097e+04
1.403370e+04
1.405463e+04
1.405496e+04
1.400509e+04
1.400455e+04
1.400609e+04
1.400610e+04
1.400228e+04
1.400899e+04
1.399581e+04
1.399692e+04
1.399578e+04
1.398560e+04
1.399025e+04
1.399738e+04
1.400066e+04
1.399220e+04
1.400920e+04
1.401574e+04
1.401242e+04
1.401554e+04
1.401759e+04
1.401638e+04
1.400883e+04
1.400201e+04
1.404428e+04
1.404637e+04
1.403547e+04
1.403322e+04
1.398807e+04
1.401058e+04
1.410045e+04
1.410801e+04
1.409691e+04
1.409055e+04
1.399975e+04
1.399267e+04
1.413776e+04
1.414290e+04
1.401131e+04
1.401082e+04
1.400388e+04
1.401194e+04
1.400358e+04
1.399967e+04
1.399791e+04
1.400204e+04
1.400053e+04
1.399534e+04
1.399088e+04
1.399949e+04
1.399610e+04
1.400277e+04
1.401125e+04
1.400399e+04
1.400183e+04
1.399864e+04
1.400270e+04
1.399685e+04
1.399426e+04
1.400432e+04
1.400299e+04
1.399434e+04
1.400377e+04
1.400184e+04
1.399928e+04
1.400113e+04
1.399546e+04
1.400427e+04
1.399981e+04
1.400002e+04
1.400020e+04
1.399981e+04
1.400307e+04
1.399792e+04
1.399880e+04
1.399261e+04
1.400244e+04
1.400960e+04
1.400086e+04
1.399919e+04
1.400195e+04
1.399839e+04
1.399951e+04
1.400095e+04
1.399616e+04
1.400521e+04
1.399803e+04
1.400101e+04
1.400306e+04
1.400069e+04
1.399794e+04
1.400225e+04
1.400302e+04
1.399722e+04
1.399971e+04
1.400088e+04
1.400057e+04
1.400086e+04
1.400702e+04
1.400088e+04
1.399336e+04
1.400073e+04
1.400016e+04
1.399989e+04
1.399939e+04
1.400080e+04
1.400361e+04
1.399684e+04
1.399405e+04
1.400699e+04
1.399747e+04
1.400231e+04
1.400260e+04
1.399815e+04
1.400044e+04
1.399956e+04
1.399964e+04
1.400025e+04
1.399988e+04
1.400021e+04
1.399947e+04
1.400122e+04
1.400051e+04
1.400179e+04
1.399953e+04
1.399841e+04
1.400160e+04
1.399825e+04
1.399879e+04
1.400094e+04
1.400047e+04
1.399943e+04
1.399824e+04
1.400206e+04
1.400379e+04
1.399855e+04
1.399603e+04
1.400137e+04
1.400300e+04
1.399694e+04
1.399598e+04
1.400403e+04
1.400022e+04
1.399985e+04
1.400021e+04
1.399995e+04
1.399873e+04
1.400022e+04
1.400105e+04
1.399965e+04
1.399992e+04
1.400010e+04
1.400082e+04
1.399941e+04
1.400022e+04
1.399995e+04
1.400086e+04
1.399937e+04
1.399668e+04
1.399957e+04
1.400325e+04
1.400028e+04
1.400287e+04
1.399699e+04
1.400296e+04
1.399699e+04
1.399966e+04
1.400048e+04
1.399742e+04
1.400276e+04
1.400470e+04
1.399453e+04
1.399523e+04
1.400558e+04
1.399764e+04
1.400224e+04
1.399891e+04
1.400105e+04
1.400051e+04
1.399953e+04
1.400055e+04
1.399963e+04
1.399827e+04
1.400592e+04
1.400178e+04
1.399409e+04
1.400023e+04
1.399980e+04
1.400028e+04
1.399976e+04
1.399980e+04
1.400020e+04
1.400366e+04
1.399632e+04
1.399713e+04
1.399477e+04
1.400320e+04
1.400558e+04
1.400033e+04
1.400004e+04
1.399957e+04
1.400074e+04
1.399535e+04
1.400486e+04
1.400078e+04
1.399936e+04
1.399904e+04
1.400116e+04
1.399912e+04
1.399803e+04
1.400005e+04
1.399866e+04
1.400073e+04
1.400147e+04
1.399750e+04
1.399786e+04
1.400266e+04
1.400219e+04
1.399850e+04
1.400083e+04
1.400167e+04
1.399933e+04
1.400075e+04
1.399928e+04
1.399946e+04
1.399981e+04
1.400071e+04
1.400026e+04
1.400011e+04
1.399997e+04
1.399950e+04
1.400065e+04
1.400055e+04
1.399945e+04
1.400161e+04
1.399846e+04
1.399911e+04
1.399937e+04
1.400094e+04
1.400051e+04
1.400141e+04
1.399869e+04
1.400210e+04
1.400509e+04
1.399817e+04
1.399522e+04
1.400115e+04
1.399913e+04
1.399918e+04
1.400802e+04
1.400773e+04
1.400651e+04
1.399957e+04
1.400491e+04
1.400091e+04
1.400216e+04
1.400003e+04
1.400284e+04
1.400052e+04
1.400206e+04
1.399979e+04
1.400138e+04
1.399621e+04
1.401569e+04
1.400985e+04
1.399523e+04
1.400376e+04
1.400029e+04
1.400113e+04
1.400283e+04
1.399861e+04
1.400528e+04
1.400747e+04
1.399712e+04
1.399650e+04
1.400494e+04
1.400258e+04
1.399717e+04
1.399799e+04
1.400315e+04
1.400364e+04
1.399896e+04
1.400014e+04
1.400008e+04
1.400037e+04
1.400187e+04
1.400096e+04
1.400441e+04
1.400905e+04
1.400494e+04
1.401534e+04
1.401052e+04
1.399071e+04
1.399843e+04
1.399992e+04
1.399102e+04
1.399290e+04
1.399401e+04
1.399601e+04
1.400348e+04
1.400915e+04
1.399883e+04
1.400363e+04
1.400584e+04
1.400442e+04
1.400667e+04
1.400149e+04
1.400629e+04
1.400484e+04
1.399819e+04
1.399900e+04
1.399834e+04
1.400232e+04
1.399587e+04
1.400083e+04
1.400088e+04
1.399617e+04
1.400436e+04
1.400739e+04
1.399360e+04
1.400032e+04
1.400370e+04
1.400638e+04
1.401408e+04
1.401211e+04
1.401113e+04
1.401659e+04
1.403162e+04
1.401473e+04
1.400331e+04
1.401872e+04
1.403556e+04
1.401506e+04
1.399934e+04
1.398759e+04
1.401234e+04
1.398830e+04
1.401616e+04
1.399698e+04
1.400874e+04
1.399631e+04
1.400230e+04
1.399898e+04
1.399304e+04
1.400008e+04
1.400297e+04
1.400581e+04
1.399854e+04
1.400182e+04
1.400290e+04
1.400595e+04
1.399807e+04
1.400054e+04
1.401197e+04
1.400680e+04
1.399582e+04
1.400570e+04
1.398590e+04
1.402035e+04
1.402308e+04
1.400122e+04
1.399968e+04
1.398994e+04
1.400134e+04
1.397743e+04
1.397925e+04
1.399717e+04
1.399672e+04
1.398884e+04
1.400724e+04
1.400776e+04
1.399989e+04
1.399364e+04
1.400212e+04
1.400275e+04
1.399651e+04
1.399570e+04
1.402793e+04
1.400352e+04
1.402544e+04
1.399093e+04
1.400023e+04
1.405537e+04
1.404290e+04
1.402734e+04
1.408015e+04
1.405644e+04
1.404274e+04
1.402745e+04
1.407916e+04
1.400841e+04
1.401318e+04
1.399555e+04
1.399990e+04
1.400034e+04
1.399912e+04
1.399992e+04
1.399673e+04
1.399420e+04
1.400099e+04
1.400803e+04
1.399050e+04
1.400041e+04
1.399620e+04
1.399624e+04
1.400174e+04
1.399961e+04
1.399908e+04
1.399855e+04
1.399949e+04
1.399927e+04
1.399691e+04
1.399952e+04
1.400218e+04
1.399608e+04
1.400401e+04
1.400284e+04
1.399555e+04
1.400218e+04
1.400069e+04
1.399728e+04
1.399908e+04
1.399987e+04
1.399709e+04
1.399965e+04
1.400287e+04
1.400347e+04
1.400024e+04
1.399657e+04
1.399960e+04
1.399529e+04
1.400393e+04
1.400457e+04
1.399600e+04
1.400168e+04
1.400107e+04
1.399824e+04
1.399868e+04
1.400013e+04
1.400152e+04
1.399961e+04
1.399837e+04
1.400055e+04
1.400010e+04
1.399965e+04
1.400003e+04
1.400231e+04
1.399690e+04
1.399774e+04
1.400311e+04
1.399963e+04
1.400339e+04
1.400028e+04
1.399670e+04
1.400284e+04
1.399989e+04
1.399745e+04
1.400027e+04
1.399737e+04
1.400164e+04
1.399877e+04
1.400061e+04
1.400476e+04
1.399492e+04
1.399390e+04
1.400626e+04
1.400085e+04
1.399930e+04
1.399872e+04
1.400144e+04
1.400295e+04
1.399724e+04
1.399716e+04
1.400282e+04
1.399474e+04
1.400498e+04
1.400056e+04
1.399936e+04
1.399919e+04
1.400093e+04
1.399941e+04
1.400064e+04
1.400172e+04
1.399851e+04
1.400053e+04
1.399938e+04
1.399772e+04
1.400263e+04
1.400076e+04
1.399930e+04
1.399849e+04
1.400178e+04
1.400147e+04
1.399871e+04
1.400111e+04
1.399908e+04
1.399958e+04
1.400053e+04
1.400113e+04
1.399914e+04
1.399953e+04
1.400030e+04
1.400022e+04
1.399957e+04
1.400213e+04
1.399794e+04
1.399235e+04
1.400773e+04
1.400400e+04
1.399623e+04
1.399993e+04
1.400026e+04
1.400230e+04
1.399743e+04
1.399973e+04
1.400159e+04
1.400182e+04
1.399883e+04
1.400211e+04
1.399846e+04
1.400159e+04
1.399900e+04
1.399957e+04
1.400086e+04
1.399986e+04
1.400066e+04
1.400255e+04
1.399775e+04
1.400196e+04
1.399811e+04
1.399561e+04
1.400434e+04
1.400234e+04
1.399780e+04
1.400372e+04
1.399643e+04
1.399957e+04
1.400066e+04
1.399932e+04
1.400070e+04
1.400475e+04
1.399512e+04
1.400289e+04
1.399912e+04
1.400091e+04
1.400025e+04
1.399961e+04
1.400181e+04
1.400230e+04
1.399890e+04
1.400330e+04
1.399802e+04
1.400588e+04
1.399491e+04
1.399939e+04
1.400133e+04
1.399606e+04
1.400423e+04
1.400365e+04
1.399667e+04
1.399444e+04
1.400572e+04
1.399907e+04
1.400125e+04
1.399748e+04
1.400276e+04
1.400128e+04
1.399865e+04
1.400035e+04
1.399969e+04
1.400076e+04
1.400037e+04
1.399892e+04
1.399983e+04
1.400103e+04
1.399838e+04
1.399988e+04
1.399961e+04
1.399400e+04
1.400597e+04
1.400091e+04
1.399920e+04
1.399753e+04
1.400237e+04
1.399823e+04
1.400174e+04
1.400024e+04
1.399994e+04
1.400140e+04
1.400203e+04
1.399827e+04
1.399800e+04
1.400177e+04
1.399752e+04
1.400025e+04
1.399941e+04
1.400268e+04
1.399717e+04
1.399855e+04
1.400153e+04
1.400279e+04
1.399723e+04
1.399762e+04
1.400228e+04
1.399896e+04
1.400123e+04
1.399939e+04
1.399903e+04
1.400016e+04
1.400115e+04
1.399980e+04
1.399960e+04
1.399877e+04
1.400098e+04
1.400216e+04
1.399781e+04
1.399954e+04
1.400037e+04
1.399896e+04
1.400114e+04
1.400245e+04
1.399745e+04
1.399614e+04
1.400395e+04
1.399785e+04
1.399699e+04
1.400169e+04
1.400302e+04
1.400063e+04
1.399906e+04
1.399908e+04
1.400072e+04
1.400235e+04
1.399755e+04
1.399700e+04
1.400305e+04
1.400014e+04
1.399979e+04
1.400221e+04
1.399782e+04
1.399955e+04
1.400037e+04
1.400061e+04
1.399699e+04
1.399896e+04
1.400286e+04
1.399951e+04
1.400026e+04
1.400099e+04
1.399893e+04
1.400215e+04
1.399772e+04
1.399897e+04
1.400106e+04
1.399899e+04
1.400099e+04
1.399865e+04
1.400131e+04
1.400253e+04
1.399741e+04
1.400191e+04
1.399929e+04
1.399796e+04
1.400022e+04
1.399902e+04
1.400062e+04
1.400159e+04
1.399816e+04
1.399919e+04
1.400083e+04
1.400077e+04
1.399914e+04
1.400319e+04
1.399696e+04
1.400007e+04
1.399984e+04
1.399659e+04
1.400322e+04
1.399944e+04
1.399986e+04
1.400128e+04
1.399926e+04
1.400009e+04
1.399974e+04
1.399810e+04
1.400001e+04
1.400334e+04
1.399471e+04
1.399535e+04
1.400408e+04
1.399309e+04
1.399924e+04
1.400532e+04
1.399943e+04
1.399747e+04
1.400039e+04
1.400049e+04
1.399830e+04
1.400071e+04
1.400284e+04
1.399678e+04
1.399456e+04
1.400054e+04
1.399695e+04
1.399707e+04
1.400100e+04
1.400584e+04
1.399843e+04
1.399173e+04
1.399727e+04
1.400115e+04
1.399999e+04
1.399865e+04
1.399979e+04
1.399799e+04
1.400120e+04
1.399887e+04
1.399993e+04
1.400346e+04
1.399516e+04
1.399571e+04
1.400219e+04
1.399405e+04
1.400370e+04
1.400209e+04
1.399361e+04
1.399825e+04
1.399775e+04
1.400201e+04
1.399790e+04
1.399755e+04
1.400238e+04
1.400076e+04
1.399906e+04
1.399558e+04
1.400441e+04
1.400506e+04
1.399504e+04
1.399724e+04
1.400296e+04
1.400415e+04
1.399598e+04
1.399528e+04
1.400473e+04
1.399892e+04
1.400126e+04
1.399919e+04
1.400076e+04
1.400010e+04
1.399991e+04
1.399914e+04
1.400078e+04
1.400242e+04
1.399757e+04
1.400045e+04
1.399951e+04
1.400030e+04
1.399968e+04
1.399305e+04
1.400718e+04
1.400085e+04
1.399941e+04
1.399643e+04
1.400390e+04
1.400260e+04
1.400026e+04
1.399740e+04
1.399929e+04
1.400090e+04
1.399698e+04
1.399862e+04
1.400291e+04
1.400108e+04
1.399832e+04
1.399944e+04
1.400168e+04
1.400203e+04
1.400160e+04
1.399746e+04
1.399826e+04
1.400046e+04
1.400064e+04
1.399934e+04
1.399918e+04
1.399905e+04
1.400060e+04
1.400273e+04
1.399719e+04
1.400122e+04
1.399877e+04
1.400112e+04
1.399889e+04
1.400167e+04
1.399806e+04
1.400158e+04
1.399832e+04
1.400025e+04
1.399985e+04
1.399840e+04
1.400156e+04
1.399926e+04
1.400061e+04
1.399908e+04
1.400075e+04
1.399672e+04
1.400340e+04
1.400190e+04
1.399808e+04
1.400084e+04
1.399917e+04
1.399627e+04
1.400372e+04
1.399898e+04
1.400096e+04
1.400646e+04
1.399367e+04
1.399718e+04
1.400287e+04
1.400204e+04
1.399791e+04
1.399995e+04
1.400004e+04
1.399872e+04
1.400132e+04
1.400044e+04
1.399945e+04
1.399976e+04
1.400012e+04
1.400130e+04
1.399861e+04
1.399958e+04
1.400046e+04
1.399862e+04
1.400151e+04
1.399804e+04
1.400190e+04
1.400044e+04
1.399945e+04
1.399951e+04
1.400045e+04
1.400261e+04
1.399738e+04
1.400147e+04
1.399851e+04
1.400205e+04
1.399810e+04
1.399695e+04
1.400319e+04
1.400273e+04
1.399728e+04
1.399734e+04
1.400244e+04
1.400415e+04
1.399550e+04
1.399884e+04
1.400053e+04
1.400167e+04
1.399693e+04
1.399893e+04
1.400066e+04
1.400000e+04
1.400017e+04
1.399865e+04
1.400075e+04
1.400238e+04
1.399648e+04
1.399953e+04
1.399878e+04
1.400223e+04
1.399595e+04
1.399847e+04
1.399977e+04
1.399889e+04
1.399971e+04
1.399651e+04
1.400252e+04
1.400016e+04
1.399762e+04
1.399880e+04
1.400566e+04
1.399966e+04
1.399924e+04
1.400040e+04
1.399823e+04
1.399981e+04
1.399925e+04
1.400124e+04
1.399605e+04
1.399864e+04
1.399934e+04
1.400055e+04
1.400281e+04
1.400314e+04
1.400429e+04
1.399981e+04
1.400074e+04
1.399724e+04
1.400313e+04
1.399851e+04
1.400130e+04
1.399584e+04
1.399971e+04
1.401671e+04
1.400634e+04
1.400308e+04
1.400289e+04
1.400755e+04
1.400224e+04
1.400323e+04
1.400265e+04
1.399948e+04
1.399995e+04
1.399998e+04
1.399666e+04
1.400459e+04
1.400375e+04
1.401484e+04
1.401053e+04
1.400240e+04
1.400778e+04
1.400778e+04
1.400271e+04
1.399840e+04
1.400373e+04
1.399460e+04
1.400089e+04
1.401710e+04
1.401333e+04
1.400260e+04
1.400926e+04
1.401275e+04
1.400847e+04
1.399854e+04
1.400398e+04
1.400231e+04
1.399620e+04
1.399325e+04
1.400059e+04
1.400617e+04
1.400387e+04
1.401142e+04
1.401912e+04
1.399790e+04
1.400327e+04
1.400327e+04
1.399927e+04
1.398777e+04
1.400042e+04
1.399450e+04
1.399056e+04
1.400880e+04
1.401381e+04
1.399796e+04
1.399994e+04
1.401203e+04
1.401977e+04
1.399470e+04
1.399422e+04
1.399068e+04
1.398116e+04
1.398273e+04
1.398017e+04
1.400185e+04
1.399592e+04
1.401089e+04
1.400685e+04
1.401065e+04
1.401025e+04
1.403287e+04
1.402932e+04
1.395458e+04
1.395019e+04
1.389047e+04
1.389536e+04
1.402464e+04
1.402143e+04
1.399851e+04
1.400616e+04
1.401713e+04
1.402174e+04
1.404447e+04
1.403598e+04
1.403732e+04
1.403414e+04
1.389393e+04
1.390201e+04
1.402751e+04
1.403228e+04
1.404825e+04
1.404538e+04
1.400496e+04
1.400490e+04
1.401954e+04
1.402044e+04
1.419109e+04
1.419326e+04
1.422416e+04
1.422622e+04
1.406953e+04
1.407130e+04
1.406715e+04
1.406879e+04
1.401570e+04
1.401857e+04
1.401007e+04
1.401284e+04
1.373882e+04
1.373925e+04
1.380396e+04
1.379649e+04
1.418201e+04
1.418060e+04
1.405826e+04
1.405504e+04
1.393105e+04
1.393232e+04
1.375574e+04
1.376549e+04
1.286498e+04
1.286098e+04
1.264216e+04
1.263436e+04
1.417886e+04
1.418200e+04
1.408711e+04
1.409583e+04
1.351316e+04
1.351681e+04
1.255463e+04
1.254761e+04
9.187625e+03
9.130961e+03
8.872186e+03
8.836912e+03
1.429723e+04
1.429804e+04
1.413441e+04
1.413301e+04
1.298944e+04
1.298369e+04
9.644585e+03
9.628355e+03
5.974841e+02
5.893600e+02
1.393396e+03
1.392251e+03
1.435790e+04
1.435374e+04
1.433174e+04
1.432494e+04
1.295538e+04
1.294613e+04
1.046990e+04
1.046136e+04
3.739633e+03
3.731798e+03
-2.861446e+03
-2.874649e+03
1.430024e+04
1.429755e+04
1.408658e+04
1.408813e+04
1.333350e+04
1.332977e+04
1.303071e+04
1.302044e+04
1.157391e+04
1.153688e+04
1.129059e+04
1.122319e+04
1.423788e+04
1.424173e+04
1.403208e+04
1.402853e+04
1.359371e+04
1.359184e+04
1.353037e+04
1.353711e+04
1.323655e+04
1.323691e+04
1.309607e+04
1.309215e+04
1.416205e+04
1.416638e+04
1.400487e+04
1.399787e+04
1.369874e+04
1.369793e+04
1.345058e+04
1.344811e+04
1.333749e+04
1.333569e+04
1.337727e+04
1.337400e+04
1.408676e+04
1.409138e+04
1.403766e+04
1.404235e+04
1.389203e+04
1.388707e+04
1.377643e+04
1.376744e+04
1.375891e+04
1.374797e+04
1.369312e+04
1.370297e+04
1.407535e+04
1.408048e+04
1.407635e+04
1.407872e+04
1.392909e+04
1.391529e+04
1.374816e+04
1.375214e+04
1.375746e+04
1.375243e+04
1.399849e+04
1.400062e+04
1.400061e+04
1.399881e+04
1.399705e+04
1.400167e+04
1.400368e+04
1.399395e+04
1.399623e+04
1.400220e+04
1.400043e+04
1.399509e+04
1.399883e+04
1.399813e+04
1.399500e+04
1.399852e+04
1.399372e+04
1.399637e+04
1.399347e+04
1.399618e+04
1.400241e+04
1.399172e+04
1.399088e+04
1.399674e+04
1.398228e+04
1.398398e+04
1.402505e+04
1.402882e+04
1.401035e+04
1.400552e+04
1.389502e+04
1.389919e+04
1.380474e+04
1.380501e+04
1.395281e+04
1.395399e+04
1.403547e+04
1.402743e+04
1.401464e+04
1.402139e+04
1.398804e+04
1.398432e+04
1.401083e+04
1.402479e+04
1.399857e+04
1.400184e+04
1.400514e+04
1.399385e+04
1.399753e+04
1.400200e+04
1.400269e+04
1.399582e+04
1.399389e+04
1.400343e+04
1.400303e+04
1.399554e+04
1.399875e+04
1.399623e+04
1.399651e+04
1.399934e+04
1.399582e+04
1.399595e+04
1.399611e+04
1.398768e+04
1.400363e+04
1.399331e+04
1.401250e+04
1.400866e+04
1.401919e+04
1.402213e+04
1.407107e+04
1.407066e+04
1.424155e+04
1.425169e+04
1.431896e+04
1.431869e+04
1.427870e+04
1.428108e+04
1.435234e+04
1.435128e+04
1.419470e+04
1.420341e+04
1.405660e+04
1.405504e+04
1.402190e+04
1.402956e+04
1.400399e+04
1.399883e+04
1.399954e+04
1.399934e+04
1.399485e+04
1.400526e+04
1.400189e+04
1.399665e+04
1.399933e+04
1.399910e+04
1.399924e+04
1.399862e+04
1.399375e+04
1.400310e+04
1.400123e+04
1.399670e+04
1.399854e+04
1.399755e+04
1.399689e+04
1.400265e+04
1.398239e+04
1.399402e+04
1.401157e+04
1.401137e+04
1.407171e+04
1.405798e+04
1.414586e+04
1.415173e+04
1.417869e+04
1.417184e+04
1.412084e+04
1.411570e+04
1.436011e+04
1.435824e+04
1.455288e+04
1.455012e+04
1.415217e+04
1.415391e+04
1.410686e+04
1.410352e+04
1.411028e+04
1.411838e+04
1.400125e+04
1.400075e+04
1.398943e+04
1.399920e+04
1.399478e+04
1.400523e+04
1.400154e+04
1.399703e+04
1.399725e+04
1.400161e+04
1.399534e+04
1.400221e+04
1.400410e+04
1.399173e+04
1.399960e+04
1.399832e+04
1.400008e+04
1.399651e+04
1.399693e+04
1.400287e+04
1.400014e+04
1.399500e+04
1.398769e+04
1.398517e+04
1.399528e+04
1.400038e+04
1.414157e+04
1.414818e+04
1.413837e+04
1.413230e+04
1.396653e+04
1.396415e+04
1.350093e+04
1.350059e+04
1.334843e+04
1.334306e+04
1.313934e+04
1.313903e+04
1.328625e+04
1.327932e+04
1.384277e+04
1.383996e+04
1.379171e+04
1.378843e+04
1.391411e+04
1.391997e+04
1.392562e+04
1.392681e+04
1.399745e+04
1.400130e+04
1.400282e+04
1.399588e+04
1.399770e+04
1.399989e+04
1.400362e+04
1.399279e+04
1.399574e+04
1.399968e+04
1.399960e+04
1.399509e+04
1.399926e+04
1.399829e+04
1.399267e+04
1.399535e+04
1.399092e+04
1.399752e+04
1.394999e+04
1.394650e+04
1.392317e+04
1.392649e+04
1.416256e+04
1.416510e+04
1.415920e+04
1.415438e+04
1.343944e+04
1.343714e+04
1.244308e+04
1.243951e+04
9.402807e+03
9.383629e+03
9.119279e+03
9.109492e+03
1.232340e+04
1.231703e+04
1.311285e+04
1.311268e+04
1.356024e+04
1.355670e+04
1.371492e+04
1.371055e+04
1.371990e+04
1.373000e+04
0.000000e+00
0.000000e+00
0.000000e+00
0.000000e+00
0.000000e+00
0.000000e+00
-5.480946e+00
7.621647e-02
-3.249541e+00
-3.494809e+00
-4.299637e+00
-2.113945e+00
-1.709808e+00
-4.618844e+00
-3.149711e+00
-2.928953e+00
-6.891299e+00
-6.001370e+00
4.553442e+00
-2.445731e+00
-6.774459e-01
-5.114167e+00
-4.865625e+00
-8.748955e+00
8.202384e+00
-2.593356e+00
3.676149e+00
-5.253738e+00
-3.992623e+00
-7.543885e+00
5.983039e+00
-4.557361e-01
-2.048065e+00
-2.185239e+00
-4.049527e+00
-6.000395e+00
-8.416715e-01
-1.738885e+00
-2.853619e+00
-1.181141e+00
-4.965445e+00
-2.532211e+00
-4.711231e+00
-1.841900e+00
-3.750858e+00
-3.208900e+00
-2.999959e+00
-2.768570e+00
-3.250793e+00
-2.799785e+00
-2.801359e+00
-3.358422e+00
-1.713539e+00
-2.982951e+00
-3.303130e+00
-2.383661e+00
-2.184492e+00
-1.632707e+00
-2.059103e+00
-1.123004e+00
-3.816076e+00
-4.293170e+00
-4.112474e+00
-3.423853e+00
-1.786092e+00
-1.629941e+00
0.000000e+00
0.000000e+00
0.000000e+00
0.000000e+00
0.000000e+00
0.000000e+00
7.699226e+00
4.556679e+00
6.080064e+00
1.665911e+00
6.907800e-01
-2.598646e+00
1.217995e+01
8.975322e+00
1.090982e+01
2.600816e+00
2.343150e+00
-2.296850e+00
1.588254e+01
1.700121e+01
9.853433e+00
8.696306e+00
1.050584e+00
3.695794e-01
2.094858e+01
1.848587e+01
8.215731e+00
9.992879e+00
2.440468e+00
5.640053e-01
1.522263e+01
1.214323e+01
1.091039e+01
6.615217e+00
3.450405e+00
1.479139e+00
1.364156e+01
5.206110e+00
8.784851e+00
1.856988e+00
4.391957e+00
-1.646178e+00
6.528103e+00
1.274951e+00
3.911074e+00
2.722049e+00
9.315923e-01
-4.274632e-01
-3.420635e+00
1.510209e+00
1.252753e+00
1.927597e+00
-6.476266e-01
6.397559e-01
-2.249200e+00
1.959102e-02
3.989681e-01
-9.851469e-01
1.465238e-01
-8.983706e-01
-4.433557e+00
-3.375454e+00
-2.591223e+00
-1.518893e+00
-1.491747e+00
-5.137252e-01
0.000000e+00
0.000000e+00
0.000000e+00
0.000000e+00
0.000000e+00
0.000000e+00
-4.116598e+00
6.444759e+00
9.539393e+00
7.682164e+00
2.341921e+00
-4.948956e-01
1.163469e+01
6.529645e+00
1.850544e+00
1.232042e+01
1.824040e+00
1.471504e+00
3.834607e+01
-7.994252e+00
8.087183e+00
7.423805e+00
5.470475e+00
-3.031347e-01
1.814867e+01
9.258935e-01
6.396112e+00
6.849967e+00
8.730583e+00
8.128461e-01
3.901684e+01
-7.168131e+00
4.240565e+00
1.061089e+01
5.481089e+00
3.578123e+00
-2.858790e+00
1.206986e+01
7.746835e-01
1.359259e+01
4.615855e+00
5.494536e+00
3.086207e+00
7.430083e+00
1.199594e+01
5.782341e+00
5.970818e+00
1.416109e+00
5.884341e+00
5.107523e+00
7.280396e+00
3.380626e+00
3.051246e+00
2.465946e-01
-3.735485e+00
2.430864e+00
1.874713e+00
1.958104e+00
3.641790e-01
7.509149e-01
-5.199840e+00
-4.166359e+00
-1.950317e+00
-1.703717e+00
-4.340538e-01
-1.306877e+00
0.000000e+00
0.000000e+00
0.000000e+00
0.000000e+00
0.000000e+00
0.000000e+00
1.729438e+00
-9.578154e+00
1.614799e+00
2.297295e+00
-2.153140e+00
-6.068006e+00
-1.046286e+01
-2.065512e+01
3.989841e+00
-1.423754e+01
-4.886842e+00
-8.498357e+00
-6.397565e+01
-4.339611e+01
-2.116590e+01
-1.079532e+01
-6.323247e+00
-1.040801e+01
-5.308745e+01
-5.202568e+01
-4.079877e+01
4.085576e-01
-6.868335e+00
-7.518350e+00
-3.957666e+01
-2.335890e+01
8.250620e-02
-1.478870e+01
9.325992e-01
-5.002426e+00
3.830912e+01
-1.228770e+01
8.234709e+00
-2.873199e+00
2.058246e+00
1.767950e-01
-3.167075e+00
1.138254e+01
1.681968e+00
1.122290e+01
2.890701e+00
5.248429e-01
9.151452e+00
1.041301e+01
1.213691e+01
4.926256e+00
3.028471e+00
-1.338314e+00
-1.721691e+00
4.332762e+00
3.254163e+00
2.235618e+00
1.023126e-01
-5.463513e-01
-7.929817e+00
-5.202521e+00
-2.430138e+00
-2.389988e+00
-1.244330e+00
-2.457137e+00
0.000000e+00
0.000000e+00
0.000000e+00
0.000000e+00
0.000000e+00
0.000000e+00
-1.326913e+01
-3.654765e+01
-1.607336e+00
4.618146e+00
-6.125062e+00
-1.631050e+01
-6.270436e+01
3.470616e+01
-2.332611e+01
-6.187666e+00
-1.243488e+01
-2.120309e+01
-1.090264e+02
6.523113e+01
1.147616e+01
3.926777e-01
-2.068976e+01
-1.652096e+01
-1.231489e+01
-1.922423e+01
2.455557e+01
1.523689e+01
-2.153508e+01
-1.309840e+01
-1.240733e+02
9.041222e+01
-1.746259e+01
2.424276e-01
-5.237910e+00
-9.627329e+00
-9.858340e+00
-2.012722e+01
-9.722563e+00
3.923978e+00
2.304523e+00
-8.128757e+00
2.890418e+01
-5.382606e+00
1.858172e+01
1.182038e+01
2.864849e-01
-3.490230e+00
1.212390e+01
2.026948e+01
1.463025e+01
6.915788e+00
2.366347e-02
-3.448503e+00
-2.435332e+00
5.058044e+00
5.521266e+00
2.187183e-01
-1.117628e+00
-4.130539e+00
-1.091458e+01
-6.322486e+00
-5.259478e+00
-3.926012e+00
-5.075237e+00
-4.518921e+00
0.000000e+00
0.000000e+00
0.000000e+00
0.000000e+00
0.000000e+00
0.000000e+00
-4.978572e+01
-4.591469e+01
5.403058e+00
1.716698e+01
1.189711e+01
-1.142440e+01
-5.105729e+00
-6.612143e+01
-4.694911e+01
4.034017e+00
6.065124e+00
2.350580e-01
2.857672e+02
2.034324e+01
-5.778561e+01
-1.272823e+01
1.143228e+01
1.128821e+01
3.369925e+02
-4.250712e+01
-5.556140e+01
-8.916573e+00
1.831588e+01
1.520732e+01
1.567611e+02
-3.494737e+00
-5.344453e+01
2.307397e+00
1.764907e+01
1.877218e+01
-8.275408e+01
-7.240437e+01
-1.665443e+01
1.423170e+01
1.917518e+01
1.028429e+01
1.243551e+01
2.368118e+01
2.434656e+01
1.765146e+01
1.307694e+01
-1.960159e+00
2.385431e+01
3.097099e+01
2.149102e+01
1.521213e+01
1.978498e+00
-5.759762e+00
-7.468653e+00
4.524740e+00
1.033166e+01
2.051759e+00
-1.986311e+00
-5.205241e+00
-1.344630e+01
-7.774950e+00
-7.897871e+00
-4.868922e+00
-6.337658e+00
-6.910819e+00
SCALARS E11 float 1
LOOKUP_TABLE default
4.694807e-05
-3.049236e-06
-4.066036e-05
8.838073e-06
4.694807e-05
-3.049236e-06
-4.066036e-05
8.838073e-06
-4.549942e-05
-1.815723e-05
-2.171410e-05
-2.837663e-05
-4.549942e-05
-1.815723e-05
-2.171410e-05
-2.837663e-05
1.570151e-05
1.612867e-05
1.350775e-05
1.570151e-05
1.612867e-05
1.350775e-05
-1.545108e-05
4.600236e-06
2.867924e-05
1.437923e-05
-1.545108e-05
4.600236e-06
2.867924e-05
1.437923e-05
1.489948e-06
-2.150237e-05
1.489948e-06
-2.150237e-05
-1.769059e-05
5.811016e-06
-1.769059e-05
5.811016e-06
-2.345870e-05
-1.266803e-05
-1.365281e-05
-2.327846e-05
-2.345870e-05
-1.266803e-05
-1.365281e-05
-2.327846e-05
2.409280e-06
5.117318e-06
-1.592726e-07
1.641114e-06
2.409280e-06
5.117318e-06
-1.592726e-07
1.641114e-06
-6.213364e-05
-7.109318e-05
-6.652876e-05
-4.553770e-05
-6.213364e-05
-7.109318e-05
-6.652876e-05
-4.553770e-05
8.429385e-07
-3.202942e-05
8.429385e-07
-3.202942e-05
1.066668e-05
1.066668e-05
-4.149355e-06
-3.048641e-06
-4.149355e-06
-3.048641e-06
-4.257196e-05
-4.064622e-05
-4.257196e-05
-4.064622e-05
-1.690897e-05
-1.690897e-05
5.325534e-06
5.325534e-06
1.375591e-05
1.375591e-05
9.806705e-07
1.599325e-06
-3.521595e-07
9.806705e-07
1.599325e-06
-3.521595e-07
3.087169e-06
4.901205e-06
2.371467e-06
1.019987e-06
3.087169e-06
4.901205e-06
2.371467e-06
1.019987e-06
3.406383e-06
3.406383e-06
-1.851896e-05
-9.024984e-07
-1.851896e-05
-9.024984e-07
-1.615321e-05
-1.615321e-05
-1.504227e-05
-1.504227e-05
-1.021163e-05
-1.021163e-05
-4.024377e-06
-4.024377e-06
-8.069701e-05
-8.069701e-05
-3.662977e-06
-3.662977e-06
-5.001879e-06
-5.001879e-06
-2.750552e-05
-2.750552e-05
4.379609e-06
1.109130e-05
4.379609e-06
1.109130e-05
3.622227e-06
3.622227e-06
1.921534e-06
1.921534e-06
2.211339e-06
2.211339e-06
1.854540e-06
1.854540e-06
6.430881e-06
7.520697e-07
6.430881e-06
7.520697e-07
4.617373e-06
4.617373e-06
3.531250e-06
3.531250e-06
2.522216e-06
2.522216e-06
2.421760e-06
2.421760e-06
4.164564e-06
5.540070e-06
4.164564e-06
5.540070e-06
7.803712e-07
7.803712e-07
6.720154e-07
6.720154e-07
1.183455e-06
1.183455e-06
2.565754e-06
2.565754e-06
8.105336e-07
5.364140e-06
8.105336e-07
5.364140e-06
-1.161935e-06
-1.161935e-06
-9.696799e-07
-9.696799e-07
-3.022853e-07
-3.022853e-07
6.847662e-07
6.847662e-07
2.826480e-06
2.855431e-06
2.826480e-06
2.855431e-06
1.853831e-06
1.853831e-06
2.434438e-07
2.434438e-07
-5.999585e-07
-5.999585e-07
-1.146054e-06
-1.146054e-06
6.567099e-06
5.458528e-06
6.567099e-06
5.458528e-06
4.249166e-06
4.249166e-06
-5.403591e-07
-5.403591e-07
-3.487971e-06
-3.487971e-06
-3.685600e-06
-3.685600e-06
7.948168e-06
8.005416e-06
7.948168e-06
8.005416e-06
2.456258e-06
2.456258e-06
-4.108556e-06
-4.108556e-06
-6.600164e-06
-6.600164e-06
-7.743600e-06
-7.743600e-06
6.773968e-06
8.497311e-06
6.773968e-06
8.497311e-06
-2.196915e-08
-2.196915e-08
-5.031644e-06
-5.031644e-06
-6.550270e-06
-6.550270e-06
-7.057987e-06
-7.057987e-06
2.386656e-06
6.322338e-06
2.386656e-06
6.322338e-06
-1.003968e-06
-1.003968e-06
-2.266111e-06
-2.266111e-06
-2.903396e-06
-2.903396e-06
-3.344479e-06
-3.344479e-06
2.676374e-08
3.452892e-06
2.676374e-08
3.452892e-06
1.168553e-06
1.168553e-06
2.402615e-06
2.402615e-06
2.188679e-06
2.188679e-06
1.774097e-06
1.774097e-06
2.579705e-06
1.888064e-06
2.579705e-06
1.888064e-06
4.690916e-06
4.690916e-06
6.652181e-06
6.652181e-06
5.356111e-06
5.356111e-06
4.990758e-06
4.990758e-06
4.391768e-06
1.487782e-06
4.391768e-06
1.487782e-06
7.856392e-06
7.856392e-06
8.429379e-06
8.429379e-06
5.940830e-06
5.940830e-06
5.077218e-06
5.077218e-06
5.927568e-06
3.102670e-06
5.927568e-06
3.102670e-06
8.433704e-06
8.433704e-06
7.976894e-06
7.976894e-06
5.418409e-06
5.418409e-06
4.499288e-06
4.499288e-06
7.611068e-06
4.608975e-06
7.611068e-06
4.608975e-06
7.825600e-06
7.825600e-06
7.179726e-06
7.179726e-06
4.826736e-06
4.826736e-06
3.474199e-06
3.474199e-06
2.406190e-06
6.187698e-06
7.859210e-06
3.777580e-06
2.406190e-06
6.187698e-06
7.859210e-06
3.777580e-06
7.831964e-06
8.782936e-06
7.831964e-06
8.782936e-06
7.670548e-06
5.973057e-06
7.670548e-06
5.973057e-06
7.175541e-06
7.175541e-06
2.721994e-06
3.047094e-06
2.721994e-06
3.047094e-06
2.035852e-06
2.035852e-06
-1.200882e-06
7.061919e-07
-1.200882e-06
7.061919e-07
-8.291590e-07
-8.291590e-07
-1.752403e-06
-4.750241e-07
-1.752403e-06
-4.750241e-07
2.375190e-07
2.375190e-07
-1.783881e-06
-1.756419e-06
-1.783881e-06
-1.756419e-06
1.675969e-06
1.675969e-06
3.087871e-06
1.933162e-05
3.087871e-06
1.933162e-05
4.283560e-06
4.283560e-06
6.732018e-06
6.732018e-06
3.833295e-06
3.833295e-06
3.115415e-06
3.115415e-06
5.809804e-06
5.809804e-06
1.124648e-05
2.290077e-05
1.124648e-05
2.290077e-05
1.440356e-06
1.440356e-06
4.180745e-06
4.180745e-06
3.254394e-06
3.254394e-06
2.205015e-06
2.205015e-06
3.467823e-06
3.467823e-06
7.912473e-07
7.912473e-07
-2.975251e-06
-2.975251e-06
-3.212220e-06
-3.212220e-06
-3.221617e-06
-3.221617e-06
-6.220692e-06
-6.220692e-06
6.573300e-07
6.573300e-07
6.255166e-06
6.255166e-06
7.367008e-06
7.367008e-06
-1.406282e-05
-6.537065e-06
7.600631e-07
-1.905766e-06
-1.406282e-05
-6.537065e-06
7.600631e-07
-1.905766e-06
-4.668336e-06
-1.544475e-06
-1.397220e-06
2.463695e-07
-4.668336e-06
-1.544475e-06
-1.397220e-06
2.463695e-07
-8.234260e-06
-3.166376e-06
-1.300347e-06
3.607153e-06
-8.234260e-06
-3.166376e-06
-1.300347e-06
3.607153e-06
5.058513e-08
-4.761841e-06
2.833972e-07
5.058513e-08
-4.761841e-06
2.833972e-07
-3.801488e-06
7.432276e-06
-3.801488e-06
7.432276e-06
8.932258e-06
-7.395062e-06
3.300660e-06
-2.522011e-06
8.932258e-06
-7.395062e-06
3.300660e-06
-2.522011e-06
-2.987873e-06
-2.918450e-05
-2.987873e-06
-2.918450e-05
-4.432191e-06
-5.261206e-06
-4.432191e-06
-5.261206e-06
1.202855e-06
-2.103053e-07
-5.679535e-07
1.202855e-06
-2.103053e-07
-5.679535e-07
2.899033e-06
2.899033e-06
5.093787e-06
3.179565e-06
5.093787e-06
3.179565e-06
-3.279536e-07
1.328058e-05
-3.279536e-07
1.328058e-05
-3.233217e-05
-3.233217e-05
1.877554e-06
1.877554e-06
-2.592277e-06
-1.034531e-05
1.720174e-05
-2.592277e-06
-1.034531e-05
1.720174e-05
-1.506846e-05
-4.716605e-06
-1.570333e-05
-2.308402e-05
-1.506846e-05
-4.716605e-06
-1.570333e-05
-2.308402e-05
9.009862e-06
-2.810269e-06
9.009862e-06
-2.810269e-06
1.847726e-06
1.847726e-06
-1.902378e-05
-9.459698e-06
3.736479e-06
1.171998e-05
-1.902378e-05
-9.459698e-06
3.736479e-06
1.171998e-05
3.126006e-06
3.126006e-06
-1.012322e-05
-1.012322e-05
-2.349319e-05
-2.349319e-05
-2.003432e-06
-2.003432e-06
-5.520421e-06
-5.520421e-06
1.939284e-06
1.939284e-06
2.410079e-06
-2.624673e-06
2.410079e-06
-2.624673e-06
1.368754e-06
-2.116787e-06
1.368754e-06
-2.116787e-06
-5.502337e-08
-1.125090e-07
-5.502337e-08
-1.125090e-07
-9.527069e-07
2.342151e-06
-9.527069e-07
2.342151e-06
-6.014249e-07
3.212416e-06
-6.014249e-07
3.212416e-06
-4.371178e-07
3.423437e-06
-4.371178e-07
3.423437e-06
-8.598568e-07
1.779499e-06
-8.598568e-07
1.779499e-06
-2.180291e-06
-9.526082e-07
-2.180291e-06
-9.526082e-07
-3.807690e-06
-2.222514e-06
-3.807690e-06
-2.222514e-06
-4.988596e-06
-2.088151e-06
-4.988596e-06
-2.088151e-06
-2.669228e-06
-2.741112e-07
-2.669228e-06
-2.741112e-07
1.406871e-06
2.025233e-06
1.406871e-06
2.025233e-06
3.391984e-06
2.082110e-06
3.391984e-06
2.082110e-06
3.703330e-06
1.583231e-06
3.703330e-06
1.583231e-06
-2.803236e-06
-2.803236e-06
-2.440552e-06
-2.440552e-06
7.827424e-07
7.827424e-07
4.094318e-06
4.094318e-06
5.756724e-06
5.756724e-06
5.447472e-06
5.447472e-06
2.808671e-06
2.808671e-06
2.235765e-07
2.235765e-07
5.587574e-07
5.587574e-07
1.439910e-06
1.439910e-06
2.514256e-06
2.514256e-06
2.833611e-06
2.833611e-06
1.280157e-06
1.280157e-06
-9.029222e-08
-9.029222e-08
9.551493e-07
9.551493e-07
1.966701e-06
1.966701e-06
3.019712e-06
3.019712e-06
4.193829e-06
4.193829e-06
4.897297e-06
4.897297e-06
3.168997e-06
3.168997e-06
1.073466e-06
1.073466e-06
5.881194e-07
5.881194e-07
2.640493e-06
2.640493e-06
4.546228e-06
4.546228e-06
4.849523e-06
4.849523e-06
3.815562e-06
3.815562e-06
2.272540e-06
2.272540e-06
1.342889e-06
1.342889e-06
4.636475e-06
4.636475e-06
5.197645e-06
5.197645e-06
5.078606e-06
5.078606e-06
4.471606e-06
4.471606e-06
3.230522e-06
3.230522e-06
6.234067e-07
6.234067e-07
-6.722949e-07
-6.722949e-07
2.993723e-07
2.993723e-07
2.597249e-06
2.597249e-06
5.198722e-06
5.198722e-06
5.446890e-06
5.446890e-06
5.238534e-06
5.238534e-06
4.539738e-06
4.539738e-06
3.988352e-06
3.988352e-06
6.565746e-06
6.565746e-06
6.391712e-06
6.391712e-06
5.057154e-06
5.057154e-06
4.652160e-06
4.652160e-06
3.451886e-06
3.451886e-06
2.492132e-07
2.492132e-07
-1.064151e-06
-1.064151e-06
1.151716e-07
1.151716e-07
2.774896e-06
2.774896e-06
4.644199e-06
4.644199e-06
5.102230e-06
5.102230e-06
5.388915e-06
5.388915e-06
6.009089e-06
6.009089e-06
5.902947e-06
5.902947e-06
-2.285647e-06
-5.870780e-06
-2.285647e-06
-5.870780e-06
5.949908e-07
5.949908e-07
2.290919e-06
2.290919e-06
2.791188e-06
2.791188e-06
3.073547e-06
3.073547e-06
3.141262e-06
3.141262e-06
2.851221e-06
2.851221e-06
2.267683e-06
2.267683e-06
-3.975019e-06
-5.361837e-06
-3.975019e-06
-5.361837e-06
-1.064508e-06
-1.064508e-06
2.578590e-06
2.578590e-06
2.193419e-06
2.193419e-06
-9.315426e-08
-9.315426e-08
9.826888e-07
9.826888e-07
2.906652e-06
2.906652e-06
2.071824e-06
2.071824e-06
-1.617901e-06
-5.239978e-06
-1.617901e-06
-5.239978e-06
-5.282335e-07
-5.282335e-07
9.986706e-07
9.986706e-07
3.207136e-08
3.207136e-08
-2.048206e-06
-2.048206e-06
-9.841038e-07
-9.841038e-07
-5.646116e-08
-5.646116e-08
-9.164439e-07
-9.164439e-07
4.774619e-06
-1.722734e-07
4.774619e-06
-1.722734e-07
5.064940e-06
5.064940e-06
9.967234e-07
9.967234e-07
-3.443305e-06
-3.443305e-06
-2.194266e-06
-2.194266e-06
-9.047395e-07
-9.047395e-07
-2.467640e-06
-2.467640e-06
-3.041852e-06
-3.041852e-06
6.929910e-06
3.386858e-06
6.929910e-06
3.386858e-06
6.135629e-06
6.135629e-06
1.422312e-06
1.422312e-06
-2.048646e-06
-2.048646e-06
-4.822239e-07
-4.822239e-07
-3.485460e-07
-3.485460e-07
-1.458342e-06
-1.458342e-06
-1.337956e-06
-1.337956e-06
2.548043e-06
3.439726e-06
2.548043e-06
3.439726e-06
-8.614342e-07
-8.614342e-07
-7.330056e-07
-7.330056e-07
4.387930e-07
4.387930e-07
1.379350e-06
1.379350e-06
2.813854e-06
2.813854e-06
2.745615e-06
2.745615e-06
1.901008e-06
1.901008e-06
2.876395e-07
-3.193774e-06
-3.798243e-06
-3.343937e-07
2.876395e-07
-3.193774e-06
-3.798243e-06
-3.343937e-07
-5.555716e-06
-1.419494e-06
-5.555716e-06
-1.419494e-06
-4.032150e-06
-2.422254e-06
-4.032150e-06
-2.422254e-06
-1.659107e-06
-2.641819e-06
-1.659107e-06
-2.641819e-06
2.335026e-06
-5.810901e-07
2.335026e-06
-5.810901e-07
7.155133e-06
-6.739560e-07
7.155133e-06
-6.739560e-07
5.638912e-06
-5.433433e-06
5.638912e-06
-5.433433e-06
-3.886402e-06
-3.876675e-06
-3.886402e-06
-3.876675e-06
-4.609541e-06
-4.609541e-06
-3.515415e-06
-3.515415e-06
-1.301137e-06
-1.301137e-06
2.387605e-06
2.387605e-06
6.402191e-06
6.402191e-06
6.181158e-06
6.181158e-06
-5.826629e-06
-5.826629e-06
-4.492512e-06
-4.492512e-06
-3.150699e-06
-3.150699e-06
-3.670505e-07
-3.670505e-07
-4.675925e-06
-4.675925e-06
-2.785462e-06
-2.785462e-06
-1.131330e-06
-1.131330e-06
-2.979433e-06
-2.979433e-06
-2.152733e-06
-2.152733e-06
-1.996692e-06
-1.996692e-06
9.417299e-07
9.417299e-07
9.220785e-08
9.220785e-08
-2.023288e-06
-2.023288e-06
2.078919e-06
2.078919e-06
5.722007e-07
5.722007e-07
-1.685232e-06
-1.685232e-06
1.856474e-06
1.856474e-06
-8.190971e-08
-8.190971e-08
-1.328596e-06
-1.328596e-06
8.320639e-07
2.600566e-06
8.320639e-07
2.600566e-06
-2.188282e-07
2.031936e-06
-2.188282e-07
2.031936e-06
-1.941544e-06
-7.604259e-07
-1.941544e-06
-7.604259e-07
-1.553819e-06
-2.317975e-06
-1.553819e-06
-2.317975e-06
1.475673e-06
-1.933824e-06
1.475673e-06
-1.933824e-06
1.343738e-06
1.343738e-06
-6.261895e-07
-6.261895e-07
-6.872957e-07
-6.872957e-07
-7.736822e-07
-7.736822e-07
-3.835536e-06
-3.835536e-06
1.569680e-07
1.569680e-07
-8.083513e-07
-8.083513e-07
1.462841e-06
1.462841e-06
1.109371e-06
1.109371e-06
-1.705499e-06
-1.705499e-06
2.368696e-07
2.368696e-07
1.575962e-06
1.575962e-06
2.257367e-06
2.257367e-06
-2.036111e-07
-2.036111e-07
-6.148908e-07
-6.148908e-07
-1.199245e-06
-1.199245e-06
5.256584e-07
5.256584e-07
1.365355e-06
1.365355e-06
2.628024e-07
2.628024e-07
3.355056e-07
3.355056e-07
-5.242036e-06
-5.242036e-06
-3.912251e-06
-3.912251e-06
-4.919292e-07
-4.919292e-07
2.030808e-06
2.030808e-06
3.970849e-06
3.970849e-06
-4.502348e-06
-4.502348e-06
-4.149641e-06
-4.149641e-06
-1.319699e-06
-1.319699e-06
2.030410e-06
2.030410e-06
4.234049e-06
4.234049e-06
-1.461116e-06
-1.461116e-06
-2.627808e-06
-2.627808e-06
-9.254751e-07
-9.254751e-07
1.893440e-06
1.893440e-06
2.425926e-06
2.425926e-06
-8.285999e-06
-8.285999e-06
-7.435543e-06
-7.435543e-06
-9.517304e-06
-9.517304e-06
-7.777565e-06
-7.777565e-06
-1.747202e-06
-1.747202e-06
1.499143e-06
1.499143e-06
-8.335549e-06
-8.335549e-06
-7.452002e-06
-7.452002e-06
-1.012314e-05
-1.012314e-05
-1.142266e-05
-1.142266e-05
-7.558578e-06
-7.558578e-06
-1.121431e-07
-1.121431e-07
-1.112230e-05
-1.112230e-05
-1.139564e-05
-1.139564e-05
-1.205713e-05
-1.205713e-05
-1.413667e-05
-1.413667e-05
-1.176896e-05
-1.176896e-05
2.741873e-07
2.741873e-07
-1.317707e-05
-1.317707e-05
-1.704673e-05
-1.704673e-05
-1.596632e-05
-1.596632e-05
-1.459929e-05
-1.459929e-05
-1.012904e-05
-1.012904e-05
5.078682e-06
5.078682e-06
-1.291574e-05
-1.291574e-05
-1.920286e-05
-1.920286e-05
-2.074537e-05
-2.074537e-05
-1.488390e-05
-1.488390e-05
-1.038275e-05
-1.038275e-05
6.961345e-06
6.961345e-06
-1.743545e-05
-1.743545e-05
-2.346738e-05
-2.346738e-05
-2.776957e-05
-2.776957e-05
-2.270415e-05
-2.270415e-05
-1.489182e-05
-1.489182e-05
1.246184e-05
1.246184e-05
-2.954130e-05
-2.954130e-05
-3.550994e-05
-3.550994e-05
-4.387751e-05
-4.387751e-05
-4.111982e-05
-4.111982e-05
-2.632691e-05
-2.632691e-05
1.691572e-05
1.691572e-05
-3.562051e-05
-3.562051e-05
-4.213967e-05
-4.213967e-05
-7.136216e-05
-7.136216e-05
-7.780981e-05
-7.780981e-05
-5.174188e-05
-5.174188e-05
1.854870e-05
1.854870e-05
-3.019056e-05
-3.019056e-05
-2.919042e-05
-2.919042e-05
-9.377249e-05
-9.377249e-05
-1.427890e-04
-1.427890e-04
-9.052119e-05
-9.052119e-05
3.736497e-05
3.736497e-05
-4.232890e-05
-4.232890e-05
-2.126651e-05
-2.126651e-05
-7.724567e-05
-7.724567e-05
-1.993738e-04
-1.993738e-04
-1.675171e-04
-1.675171e-04
4.636312e-05
4.636312e-05
-7.039563e-05
-7.039563e-05
-4.782347e-05
-4.782347e-05
-2.527227e-05
-2.527227e-05
-1.729136e-04
-1.729136e-04
-3.727823e-04
-3.727823e-04
-1.473546e-04
-1.473546e-04
-8.316683e-05
-8.316683e-05
-1.018195e-04
-1.018195e-04
-2.509264e-06
-2.509264e-06
-2.410360e-05
-2.410360e-05
-3.916123e-04
-3.916123e-04
-3.232621e-04
-3.232621e-04
-7.634434e-05
-7.634434e-05
-1.626802e-04
-1.626802e-04
3.482673e-05
3.482673e-05
3.040743e-04
3.040743e-04
3.896796e-04
3.896796e-04
1.653597e-04
1.653597e-04
-5.655691e-05
-5.655691e-05
-1.804976e-04
-1.804976e-04
3.254035e-04
3.254035e-04
3.202642e-03
3.202642e-03
6.749729e-03
6.749729e-03
4.838882e-03
4.838882e-03
-4.262162e-05
-4.262162e-05
-7.702669e-05
-7.702669e-05
6.109516e-04
6.109516e-04
7.450808e-03
7.450808e-03
1.474537e-02
1.474537e-02
1.142428e-02
1.142428e-02
-8.666070e-05
-8.666070e-05
-3.755826e-05
-3.755826e-05
-7.605993e-04
-7.605993e-04
1.471585e-03
1.471585e-03
3.961052e-03
3.961052e-03
1.516894e-04
1.516894e-04
-1.032065e-04
-1.032065e-04
-4.372597e-05
-4.372597e-05
-6.868493e-04
-6.868493e-04
-9.773457e-04
-9.773457e-04
3.031832e-03
3.031832e-03
-1.346330e-07
-1.346330e-07
-6.972128e-05
-6.972128e-05
-1.155705e-05
-1.155705e-05
5.206108e-04
5.206108e-04
2.898118e-03
2.898118e-03
1.068463e-02
1.068463e-02
9.114286e-03
9.114286e-03
-7.692076e-05
-7.692076e-05
-4.602814e-05
-4.602814e-05
2.833280e-04
2.833280e-04
1.300682e-03
1.300682e-03
3.685848e-03
3.685848e-03
2.746279e-03
2.746279e-03
-9.868637e-05
-9.868637e-05
-2.149518e-05
-2.149518e-05
3.243087e-04
3.243087e-04
8.058627e-04
8.058627e-04
8.477716e-04
8.477716e-04
5.555526e-04
5.555526e-04
-9.493510e-05
-9.493510e-05
4.241327e-06
4.241327e-06
2.371344e-04
2.371344e-04
4.178102e-04
4.178102e-04
3.701015e-04
3.701015e-04
3.377608e-04
3.377608e-04
-8.130155e-05
-8.130155e-05
-1.569234e-05
-1.569234e-05
1.477127e-04
1.477127e-04
1.525999e-04
1.525999e-04
6.799030e-05
6.799030e-05
-1.733705e-06
-1.733705e-06
-2.675510e-06
-2.675510e-06
-2.420812e-06
-2.420812e-06
-7.019656e-06
-7.019656e-06
-1.578312e-05
-1.578312e-05
-2.022067e-05
-2.022067e-05
-1.923603e-05
-1.923603e-05
-1.708139e-05
-1.708139e-05
-1.537580e-05
-1.537580e-05
-3.029162e-05
-3.029162e-05
-3.808421e-05
-3.808421e-05
5.590365e-06
5.590365e-06
1.059866e-05
1.059866e-05
-5.155612e-05
-5.155612e-05
-1.217024e-05
-1.217024e-05
1.004421e-04
1.004421e-04
1.271014e-04
1.271014e-04
1.030623e-04
1.030623e-04
7.017308e-05
7.017308e-05
4.068399e-05
4.068399e-05
1.404889e-05
1.404889e-05
-6.399714e-06
-6.399714e-06
-4.806140e-06
-4.806140e-06
-4.347221e-06
-4.347221e-06
-3.163591e-06
-3.163591e-06
-8.637279e-06
-8.637279e-06
-1.830512e-05
-1.830512e-05
-2.332321e-05
-2.332321e-05
-2.102826e-05
-2.102826e-05
-1.856137e-05
-1.856137e-05
-1.026980e-05
-1.026980e-05
-2.256056e-06
-2.256056e-06
-4.949868e-05
-4.949868e-05
-4.181194e-05
-4.181194e-05
9.586578e-05
9.586578e-05
1.375056e-04
1.375056e-04
1.110911e-04
1.110911e-04
1.360339e-04
1.360339e-04
1.949951e-04
1.949951e-04
2.675383e-04
2.675383e-04
2.867375e-04
2.867375e-04
1.750978e-04
1.750978e-04
-9.808604e-06
-9.808604e-06
-8.666866e-05
-8.666866e-05
-5.513091e-06
-5.513091e-06
-4.049762e-06
-4.049762e-06
-2.491781e-06
-2.491781e-06
-7.051540e-06
-7.051540e-06
-1.344782e-05
-1.344782e-05
-1.488251e-05
-1.488251e-05
-1.161451e-05
-1.161451e-05
-3.112115e-06
-3.112115e-06
1.315027e-05
1.315027e-05
4.364570e-05
4.364570e-05
1.555525e-05
1.555525e-05
-5.980651e-05
-5.980651e-05
1.482406e-04
1.482406e-04
5.190514e-04
5.190514e-04
4.878678e-04
4.878678e-04
4.170650e-05
4.170650e-05
1.996615e-04
1.996615e-04
6.319978e-04
6.319978e-04
5.966755e-04
5.966755e-04
3.258520e-04
3.258520e-04
1.928598e-05
1.928598e-05
-4.781391e-05
-4.781391e-05
-1.162755e-06
-1.162755e-06
8.800141e-07
8.800141e-07
1.795967e-06
1.795967e-06
-1.812825e-06
-1.812825e-06
-1.976253e-06
-1.976253e-06
1.142360e-06
1.142360e-06
9.150269e-06
9.150269e-06
2.597786e-05
2.597786e-05
5.235119e-05
5.235119e-05
8.731407e-05
8.731407e-05
1.005431e-04
1.005431e-04
3.918094e-06
3.918094e-06
1.053409e-04
1.053409e-04
9.105908e-04
9.105908e-04
1.369582e-03
1.369582e-03
-2.201601e-03
-2.201601e-03
-2.580566e-03
-2.580566e-03
9.552387e-04
9.552387e-04
9.567829e-04
9.567829e-04
3.041107e-04
3.041107e-04
1.030885e-04
1.030885e-04
5.961766e-05
5.961766e-05
2.413034e-06
2.413034e-06
4.866495e-06
4.866495e-06
7.574261e-06
7.574261e-06
9.599288e-06
9.599288e-06
1.371178e-05
1.371178e-05
2.250241e-05
2.250241e-05
3.597221e-05
3.597221e-05
5.714439e-05
5.714439e-05
8.997341e-05
8.997341e-05
1.353055e-04
1.353055e-04
1.360554e-04
1.360554e-04
3.856868e-05
3.856868e-05
-3.661274e-05
-3.661274e-05
1.352435e-03
1.352435e-03
4.490148e-03
4.490148e-03
-3.701356e-03
-3.701356e-03
-5.978978e-03
-5.978978e-03
1.336429e-03
1.336429e-03
6.681397e-04
6.681397e-04
3.456232e-04
3.456232e-04
2.610800e-04
2.610800e-04
8.724282e-05
8.724282e-05
-9.558433e-06
-7.419293e-06
-2.834628e-06
-4.657159e-07
-2.472345e-07
4.785972e-08
-1.518723e-05
-1.051741e-05
-2.825766e-06
-1.940950e-07
-9.389236e-07
-1.293601e-06
-2.331125e-05
-1.348693e-05
-8.126083e-07
8.843794e-07
-2.189947e-06
-4.111255e-06
-2.869871e-05
-1.478574e-05
1.817123e-06
2.460276e-06
-2.840565e-06
-6.094666e-06
-3.056968e-05
-1.576794e-05
1.984354e-06
2.730066e-06
-2.933799e-06
-6.392816e-06
-2.551126e-05
-1.382712e-05
1.774126e-07
1.066858e-06
-2.937329e-06
-5.510575e-06
-1.627706e-05
-1.025877e-05
-1.957140e-06
-7.279444e-07
-2.917907e-06
-4.053736e-06
-7.699725e-06
-6.100242e-06
-2.943300e-06
-1.810877e-06
-2.389539e-06
-2.543162e-06
-4.201773e-06
-3.866343e-06
-3.002544e-06
-1.899780e-06
-1.365829e-06
-1.406275e-06
-3.447984e-06
-3.177307e-06
-2.450991e-06
-1.494657e-06
-1.126692e-06
-1.259421e-06
-2.811878e-06
-2.636378e-06
-2.040536e-06
-1.452719e-06
-1.403897e-06
-1.522548e-06
-4.858688e-06
-2.454688e-06
8.283812e-07
1.439941e-06
1.870522e-07
-7.983263e-07
-9.785992e-06
-4.498777e-06
2.665967e-06
3.296390e-06
-2.900796e-08
-2.107299e-06
-2.061855e-05
-9.368571e-06
6.406269e-06
7.448940e-06
-3.119904e-07
-4.590728e-06
-3.055419e-05
-1.478146e-05
8.368349e-06
1.068497e-05
-2.342449e-07
-6.092995e-06
-3.213372e-05
-1.590129e-05
8.221254e-06
1.091942e-05
-3.548682e-07
-6.437208e-06
-2.307438e-05
-1.074853e-05
6.831647e-06
7.963370e-06
-1.131794e-06
-6.104353e-06
-1.196110e-05
-5.451936e-06
3.119470e-06
3.124620e-06
-1.852592e-06
-4.772707e-06
-6.122378e-06
-3.821574e-06
-5.880019e-07
-1.185325e-07
-1.703184e-06
-2.824537e-06
-4.129947e-06
-3.448119e-06
-1.845120e-06
-7.996373e-07
-1.077137e-06
-1.478948e-06
-3.414846e-06
-3.080483e-06
-2.120755e-06
-1.249467e-06
-1.247691e-06
-1.491839e-06
-3.358272e-06
-3.067135e-06
-2.317714e-06
-1.673170e-06
-1.685721e-06
-1.884535e-06
2.359209e-06
2.207467e-06
3.462255e-06
3.490708e-06
3.323629e-07
-1.447905e-06
2.796638e-06
3.040977e-06
6.104487e-06
6.027870e-06
1.252025e-08
-3.107043e-06
-8.262405e-06
-2.899830e-06
9.838732e-06
1.132588e-05
-5.694959e-07
-6.576037e-06
-3.127565e-05
-1.743565e-05
9.966495e-06
1.610147e-05
-2.521802e-07
-9.178657e-06
-3.434075e-05
-1.962503e-05
9.726027e-06
1.689540e-05
-1.008609e-07
-9.631157e-06
-1.078235e-05
-4.784801e-06
1.002387e-05
1.215331e-05
-1.524694e-06
-8.521009e-06
4.692051e-06
3.653229e-06
6.002091e-06
5.376515e-06
-2.541635e-06
-6.446525e-06
-4.156056e-07
-5.928750e-07
6.927540e-07
9.366420e-07
-1.875870e-06
-3.469371e-06
-5.719886e-06
-4.268959e-06
-1.672754e-06
-5.331482e-07
-8.006562e-07
-1.062492e-06
-5.590035e-06
-4.752080e-06
-2.772360e-06
-1.270582e-06
-9.090456e-07
-9.075220e-07
-5.631230e-06
-4.975144e-06
-3.219952e-06
-1.722591e-06
-1.405607e-06
-1.486877e-06
6.777318e-06
3.677457e-06
-2.529086e-07
-1.961791e-06
-1.309312e-06
2.215445e-07
3.006722e-06
1.644729e-06
7.580276e-07
-1.543338e-06
-3.684910e-06
-3.049826e-06
-1.626698e-05
-1.188481e-05
7.091037e-07
2.470269e-06
-7.825923e-06
-1.167153e-05
-3.060286e-05
-2.666104e-05
-1.757703e-06
9.969030e-06
-9.195945e-06
-1.912614e-05
-2.510388e-05
-2.485788e-05
-1.093988e-06
1.279907e-05
-8.203861e-06
-1.958195e-05
-1.458515e-05
-1.145702e-05
3.305675e-06
7.286989e-06
-7.298009e-06
-1.422976e-05
3.259505e-06
3.541288e-06
4.495129e-06
1.876348e-07
-6.192962e-06
-7.594007e-06
8.477015e-06
4.868135e-06
-1.089528e-07
-3.148264e-06
-3.884537e-06
-2.949708e-06
-4.666300e-06
-4.997039e-06
-4.637987e-06
-3.226593e-06
-1.523949e-06
-5.429092e-07
-1.005871e-05
-8.361313e-06
-4.919049e-06
-2.249881e-06
-6.165363e-07
9.250551e-08
-8.747987e-06
-7.213576e-06
-4.135611e-06
-1.869897e-06
-5.571712e-07
3.339435e-08
1.968493e-05
1.231617e-05
1.972380e-07
-3.764724e-06
-1.650228e-06
-3.239348e-07
1.286044e-06
4.491485e-07
-5.630199e-06
-7.132310e-06
-2.505986e-06
-1.620003e-06
-3.374884e-05
-2.606853e-05
-1.742975e-05
-9.800077e-06
-4.182389e-06
-5.235899e-06
-2.464823e-05
-3.622928e-05
-2.880686e-05
-5.736749e-06
-5.150825e-06
-8.631534e-06
-4.978784e-06
-2.915353e-05
-2.911667e-05
-2.143648e-06
-3.745283e-06
-8.108343e-06
-2.045498e-05
-1.990635e-05
-1.431984e-05
-3.286973e-06
-7.276146e-07
-4.163227e-06
-9.148288e-06
-2.478909e-06
-2.267355e-06
-3.345789e-06
5.942995e-07
-8.450035e-07
1.436822e-05
9.511564e-06
1.337499e-06
-1.665180e-06
-6.684650e-07
1.352020e-08
6.242119e-06
3.448022e-06
-4.498156e-07
-2.602457e-06
-2.098082e-06
-5.448068e-07
-6.046257e-06
-4.764375e-06
-3.385925e-06
-3.120657e-06
-1.797248e-06
-6.425393e-07
-7.407747e-06
-5.688867e-06
-3.280690e-06
-2.335072e-06
-1.187138e-06
-2.955263e-07
3.069259e-05
1.918244e-05
3.333413e-06
2.995303e-08
-6.384438e-07
-2.342257e-06
6.536671e-06
2.170938e-06
-8.725180e-06
-5.909079e-06
1.501982e-06
-4.334439e-07
-3.356269e-05
-2.891689e-05
-3.022539e-05
-1.590243e-05
4.582110e-06
4.789396e-06
-1.823238e-05
-3.923061e-05
-4.908489e-05
-1.811827e-05
5.213805e-06
8.723226e-06
5.266446e-06
-3.180672e-05
-5.105147e-05
-1.520340e-05
6.491373e-06
1.016651e-05
-1.266685e-05
-1.879833e-05
-2.868916e-05
-1.170119e-05
9.417659e-06
9.789184e-06
-7.786357e-06
-4.088831e-06
-9.716867e-06
-3.291001e-06
9.278531e-06
6.096635e-06
1.549623e-05
9.644014e-06
2.511115e-06
3.265639e-06
3.697234e-06
2.093624e-06
1.443519e-05
1.138210e-05
5.718530e-06
-1.185287e-07
-1.961134e-06
-5.771577e-07
2.265483e-07
6.733753e-07
-6.879535e-07
-3.278440e-06
-2.810823e-06
-1.560876e-06
-4.677312e-06
-3.402979e-06
-2.135170e-06
-2.481910e-06
-2.103601e-06
-1.385074e-06
SCALARS E22 float 1
LOOKUP_TABLE default
7.172717e-07
4.836114e-05
5.459482e-05
-2.423834e-05
7.172717e-07
4.836114e-05
5.459482e-05
-2.423834e-05
1.375827e-04
8.576254e-05
5.008235e-05
9.043330e-05
1.375827e-04
8.576254e-05
5.008235e-05
9.043330e-05
2.584829e-05
-2.424489e-05
-2.878526e-05
2.584829e-05
-2.424489e-05
-2.878526e-05
3.996157e-05
3.853952e-05
4.096951e-05
6.295928e-05
3.996157e-05
3.853952e-05
4.096951e-05
6.295928e-05
9.407447e-06
3.366215e-05
9.407447e-06
3.366215e-05
2.464391e-05
5.553434e-05
2.464391e-05
5.553434e-05
2.173005e-05
5.557668e-06
2.596208e-05
5.058291e-05
2.173005e-05
5.557668e-06
2.596208e-05
5.058291e-05
4.734071e-05
5.587455e-05
4.244311e-05
2.223539e-05
4.734071e-05
5.587455e-05
4.244311e-05
2.223539e-05
6.348444e-05
1.215937e-04
8.419631e-05
3.219063e-05
6.348444e-05
1.215937e-04
8.419631e-05
3.219063e-05
1.551725e-05
2.037822e-05
1.551725e-05
2.037822e-05
-2.755581e-05
-2.755581e-05
9.264035e-05
4.210572e-05
9.264035e-05
4.210572e-05
3.759715e-05
3.938039e-05
3.759715e-05
3.938039e-05
7.050442e-06
7.050442e-06
-2.337523e-05
-2.337523e-05
4.481479e-05
4.481479e-05
-3.125750e-06
6.907848e-06
1.692454e-05
-3.125750e-06
6.907848e-06
1.692454e-05
-1.996179e-06
-4.856864e-06
-8.709516e-06
-5.225329e-06
-1.996179e-06
-4.856864e-06
-8.709516e-06
-5.225329e-06
7.368515e-06
7.368515e-06
2.934464e-05
3.327385e-07
2.934464e-05
3.327385e-07
2.949132e-05
2.949132e-05
6.956785e-05
6.956785e-05
5.492814e-05
5.492814e-05
-1.720902e-06
-1.720902e-06
6.756944e-05
6.756944e-05
8.022468e-05
8.022468e-05
2.297234e-06
2.297234e-06
3.744570e-05
3.744570e-05
-1.265701e-05
-9.031848e-06
-1.265701e-05
-9.031848e-06
3.900751e-06
3.900751e-06
6.559599e-06
6.559599e-06
2.760150e-06
2.760150e-06
1.938251e-06
1.938251e-06
-1.332833e-05
-5.074175e-06
-1.332833e-05
-5.074175e-06
-1.942846e-06
-1.942846e-06
4.256631e-06
4.256631e-06
4.510751e-06
4.510751e-06
1.789394e-06
1.789394e-06
-5.983108e-06
-1.044978e-05
-5.983108e-06
-1.044978e-05
4.551415e-06
4.551415e-06
6.767184e-06
6.767184e-06
2.775350e-06
2.775350e-06
-1.308377e-07
-1.308377e-07
-1.137181e-06
-1.022916e-05
-1.137181e-06
-1.022916e-05
4.430900e-06
4.430900e-06
5.333479e-06
5.333479e-06
2.309069e-06
2.309069e-06
-8.178455e-07
-8.178455e-07
-2.567285e-06
-5.933366e-06
-2.567285e-06
-5.933366e-06
-1.673451e-06
-1.673451e-06
7.660547e-08
7.660547e-08
2.273704e-06
2.273704e-06
2.286760e-06
2.286760e-06
-9.950751e-06
-8.033192e-06
-9.950751e-06
-8.033192e-06
-5.900047e-06
-5.900047e-06
2.558968e-07
2.558968e-07
3.829780e-06
3.829780e-06
5.091764e-06
5.091764e-06
-1.445781e-05
-1.297605e-05
-1.445781e-05
-1.297605e-05
-4.794796e-06
-4.794796e-06
6.116728e-06
6.116728e-06
9.064738e-06
9.064738e-06
6.629755e-06
6.629755e-06
-7.646107e-06
-1.125618e-05
-7.646107e-06
-1.125618e-05
1.079092e-06
1.079092e-06
9.102402e-06
9.102402e-06
1.016340e-05
1.016340e-05
8.306115e-06
8.306115e-06
-7.141145e-07
-7.430711e-06
-7.141145e-07
-7.430711e-06
3.752782e-06
3.752782e-06
3.418630e-06
3.418630e-06
2.724339e-06
2.724339e-06
3.063888e-06
3.063888e-06
-3.176595e-07
-4.381470e-06
-3.176595e-07
-4.381470e-06
4.131409e-07
4.131409e-07
-3.895412e-06
-3.895412e-06
-3.633146e-06
-3.633146e-06
-1.466847e-06
-1.466847e-06
-2.238922e-06
-3.850986e-07
-2.238922e-06
-3.850986e-07
-6.558346e-06
-6.558346e-06
-8.403179e-06
-8.403179e-06
-6.256889e-06
-6.256889e-06
-2.975387e-06
-2.975387e-06
-5.611019e-06
3.778585e-07
-5.611019e-06
3.778585e-07
-9.867465e-06
-9.867465e-06
-1.035406e-05
-1.035406e-05
-8.027987e-06
-8.027987e-06
-5.355747e-06
-5.355747e-06
-7.108564e-06
-3.728839e-06
-7.108564e-06
-3.728839e-06
-9.272728e-06
-9.272728e-06
-8.535838e-06
-8.535838e-06
-5.795117e-06
-5.795117e-06
-3.943103e-06
-3.943103e-06
-6.358380e-06
-6.156263e-06
-6.358380e-06
-6.156263e-06
-9.084853e-06
-9.084853e-06
-6.850905e-06
-6.850905e-06
-3.496722e-06
-3.496722e-06
-2.730976e-06
-2.730976e-06
-3.717792e-06
-7.023882e-06
-1.261366e-05
-5.042214e-06
-3.717792e-06
-7.023882e-06
-1.261366e-05
-5.042214e-06
-8.465555e-06
-1.267437e-05
-8.465555e-06
-1.267437e-05
-1.198289e-05
-4.233747e-06
-1.198289e-05
-4.233747e-06
-1.031464e-05
-1.031464e-05
-3.361479e-06
-2.880909e-06
-3.361479e-06
-2.880909e-06
-2.703653e-06
-2.703653e-06
3.950401e-06
1.744839e-07
3.950401e-06
1.744839e-07
3.036755e-06
3.036755e-06
4.215391e-06
1.405538e-06
4.215391e-06
1.405538e-06
3.511168e-07
3.511168e-07
2.539109e-06
3.608259e-07
2.539109e-06
3.608259e-07
-2.897224e-06
-2.897224e-06
3.572178e-06
-2.438159e-05
3.572178e-06
-2.438159e-05
-4.147594e-06
-4.147594e-06
-8.790773e-06
-8.790773e-06
-3.300444e-06
-3.300444e-06
-1.682252e-06
-1.682252e-06
-3.643359e-06
-3.643359e-06
-1.160870e-05
-4.090869e-05
-1.160870e-05
-4.090869e-05
-8.866242e-06
-8.866242e-06
-8.548728e-06
-8.548728e-06
-5.899816e-06
-5.899816e-06
-3.957383e-06
-3.957383e-06
-4.704451e-06
-4.704451e-06
-3.133870e-06
-3.133870e-06
-3.176914e-06
-3.176914e-06
-3.426058e-06
-3.426058e-06
-4.740417e-06
-4.740417e-06
-7.361460e-06
-7.361460e-06
-9.115846e-06
-9.115846e-06
-2.931666e-05
-2.931666e-05
-2.700675e-05
-2.700675e-05
6.180942e-06
6.183806e-06
-4.469116e-06
3.608886e-06
6.180942e-06
6.183806e-06
-4.469116e-06
3.608886e-06
8.685902e-06
6.679071e-06
2.497860e-06
9.717114e-08
8.685902e-06
6.679071e-06
2.497860e-06
9.717114e-08
1.631200e-06
9.794775e-06
7.872995e-06
3.475503e-06
1.631200e-06
9.794775e-06
7.872995e-06
3.475503e-06
1.408724e-05
2.204571e-05
1.025654e-05
1.408724e-05
2.204571e-05
1.025654e-05
4.855245e-06
8.853096e-06
4.855245e-06
8.853096e-06
-3.089895e-05
-3.294335e-05
-4.028197e-07
1.391335e-05
-3.089895e-05
-3.294335e-05
-4.028197e-07
1.391335e-05
-4.298439e-06
5.876791e-06
-4.298439e-06
5.876791e-06
1.212749e-05
1.288112e-05
1.212749e-05
1.288112e-05
1.275516e-06
-4.682791e-06
-6.762323e-07
1.275516e-06
-4.682791e-06
-6.762323e-07
-3.623000e-06
-3.623000e-06
-4.809946e-06
-4.414996e-06
-4.809946e-06
-4.414996e-06
3.566702e-06
-3.695182e-05
3.566702e-06
-3.695182e-05
2.259254e-05
2.259254e-05
8.511728e-07
8.511728e-07
-7.396382e-06
1.208116e-06
-3.137310e-05
-7.396382e-06
1.208116e-06
-3.137310e-05
5.852253e-06
-6.081954e-06
-8.556318e-06
8.261585e-06
5.852253e-06
-6.081954e-06
-8.556318e-06
8.261585e-06
-2.416686e-05
-4.576463e-05
-2.416686e-05
-4.576463e-05
3.601193e-06
3.601193e-06
-5.448585e-05
-5.511502e-05
-3.329617e-05
-4.375901e-05
-5.448585e-05
-5.511502e-05
-3.329617e-05
-4.375901e-05
-2.930666e-05
-2.930666e-05
9.861318e-06
9.861318e-06
1.276393e-05
1.276393e-05
3.545918e-07
3.545918e-07
6.972749e-06
6.972749e-06
9.425311e-07
9.425311e-07
-3.981967e-06
5.826796e-06
-3.981967e-06
5.826796e-06
-2.446495e-06
1.568869e-06
-2.446495e-06
1.568869e-06
3.458084e-07
-1.081827e-06
3.458084e-07
-1.081827e-06
3.572475e-07
-3.560640e-06
3.572475e-07
-3.560640e-06
2.208600e-06
-6.896718e-06
2.208600e-06
-6.896718e-06
2.309269e-06
-6.451335e-06
2.309269e-06
-6.451335e-06
1.859941e-06
-4.383758e-06
1.859941e-06
-4.383758e-06
2.864855e-06
-5.944165e-07
2.864855e-06
-5.944165e-07
5.189436e-06
2.868270e-06
5.189436e-06
2.868270e-06
6.555113e-06
3.433500e-06
6.555113e-06
3.433500e-06
4.296329e-06
2.073902e-06
4.296329e-06
2.073902e-06
-1.731746e-06
-2.435266e-06
-1.731746e-06
-2.435266e-06
-4.202134e-06
-3.631491e-06
-4.202134e-06
-3.631491e-06
-3.282968e-06
-1.515198e-06
-3.282968e-06
-1.515198e-06
5.992957e-06
5.992957e-06
3.548598e-06
3.548598e-06
-1.757267e-06
-1.757267e-06
-5.821198e-06
-5.821198e-06
-9.439948e-06
-9.439948e-06
-8.477765e-06
-8.477765e-06
-4.470589e-06
-4.470589e-06
-6.796390e-07
-6.796390e-07
-8.958345e-07
-8.958345e-07
-3.015009e-06
-3.015009e-06
-2.886683e-06
-2.886683e-06
-2.870844e-06
-2.870844e-06
-4.475000e-07
-4.475000e-07
1.920852e-06
1.920852e-06
9.417639e-08
9.417639e-08
-7.482056e-07
-7.482056e-07
-4.262565e-06
-4.262565e-06
-6.242546e-06
-6.242546e-06
-5.213382e-06
-5.213382e-06
-3.938629e-06
-3.938629e-06
-6.670704e-07
-6.670704e-07
5.160067e-07
5.160067e-07
-3.908643e-06
-3.908643e-06
-7.237087e-06
-7.237087e-06
-6.459764e-06
-6.459764e-06
-5.033285e-06
-5.033285e-06
-1.836890e-06
-1.836890e-06
3.814978e-07
3.814978e-07
-4.665028e-06
-4.665028e-06
-4.644407e-06
-4.644407e-06
-5.152555e-06
-5.152555e-06
-5.904623e-06
-5.904623e-06
-3.064494e-06
-3.064494e-06
-7.498170e-08
-7.498170e-08
1.495130e-06
1.495130e-06
2.394690e-07
2.394690e-07
-4.243921e-06
-4.243921e-06
-6.708118e-06
-6.708118e-06
-6.734780e-06
-6.734780e-06
-5.098018e-06
-5.098018e-06
-4.831093e-06
-4.831093e-06
-5.396312e-06
-5.396312e-06
-6.548881e-06
-6.548881e-06
-5.030070e-06
-5.030070e-06
-5.244624e-06
-5.244624e-06
-6.822887e-06
-6.822887e-06
-3.036549e-06
-3.036549e-06
7.889672e-07
7.889672e-07
1.448947e-06
1.448947e-06
-4.896972e-08
-4.896972e-08
-2.411806e-06
-2.411806e-06
-5.215820e-06
-5.215820e-06
-6.225465e-06
-6.225465e-06
-4.427528e-06
-4.427528e-06
-5.054622e-06
-5.054622e-06
-7.428489e-06
-7.428489e-06
2.743591e-06
5.002942e-06
2.743591e-06
5.002942e-06
8.449402e-07
8.449402e-07
-7.508439e-07
-7.508439e-07
-1.524086e-06
-1.524086e-06
-2.084080e-06
-2.084080e-06
-2.205068e-06
-2.205068e-06
-1.704299e-06
-1.704299e-06
-1.896953e-06
-1.896953e-06
2.574634e-06
5.311287e-06
2.574634e-06
5.311287e-06
5.658715e-07
5.658715e-07
-5.204099e-07
-5.204099e-07
-1.352798e-06
-1.352798e-06
-1.605070e-06
-1.605070e-06
-1.301394e-06
-1.301394e-06
-1.260670e-06
-1.260670e-06
-2.164019e-06
-2.164019e-06
1.024828e-06
3.459570e-06
1.024828e-06
3.459570e-06
-7.397252e-07
-7.397252e-07
-9.258946e-08
-9.258946e-08
6.335893e-07
6.335893e-07
-2.503212e-07
-2.503212e-07
-1.765379e-07
-1.765379e-07
1.849639e-07
1.849639e-07
-3.244077e-07
-3.244077e-07
-3.132788e-06
1.290268e-07
-3.132788e-06
1.290268e-07
-2.981170e-06
-2.981170e-06
-7.767289e-07
-7.767289e-07
9.858377e-07
9.858377e-07
1.741457e-06
1.741457e-06
1.912842e-06
1.912842e-06
2.113056e-06
2.113056e-06
2.369031e-06
2.369031e-06
-5.365665e-06
-2.693977e-06
-5.365665e-06
-2.693977e-06
-3.677815e-06
-3.677815e-06
-5.458328e-07
-5.458328e-07
6.187806e-07
6.187806e-07
1.264015e-06
1.264015e-06
4.617567e-07
4.617567e-07
4.547836e-07
4.547836e-07
1.318057e-06
1.318057e-06
-1.939721e-06
-2.516100e-06
-1.939721e-06
-2.516100e-06
-5.224685e-07
-5.224685e-07
5.134045e-07
5.134045e-07
2.293933e-07
2.293933e-07
-5.375409e-07
-5.375409e-07
-1.694047e-06
-1.694047e-06
-1.415919e-06
-1.415919e-06
-7.344876e-07
-7.344876e-07
9.333047e-07
3.523283e-06
5.654824e-06
9.798203e-07
9.333047e-07
3.523283e-06
5.654824e-06
9.798203e-07
8.246103e-06
3.038734e-06
8.246103e-06
3.038734e-06
8.020688e-06
2.848888e-06
8.020688e-06
2.848888e-06
3.581334e-06
1.573979e-06
3.581334e-06
1.573979e-06
-3.208054e-07
2.378655e-06
-3.208054e-07
2.378655e-06
-2.437883e-06
5.156004e-06
-2.437883e-06
5.156004e-06
4.254980e-06
1.036582e-05
4.254980e-06
1.036582e-05
3.934507e-06
6.426128e-06
3.934507e-06
6.426128e-06
7.963117e-06
7.963117e-06
7.905866e-06
7.905866e-06
4.503944e-06
4.503944e-06
-1.550162e-08
-1.550162e-08
-7.257287e-06
-7.257287e-06
-4.307970e-06
-4.307970e-06
7.466589e-06
7.466589e-06
4.646949e-06
4.646949e-06
3.395343e-06
3.395343e-06
4.081197e-07
4.081197e-07
7.412896e-06
7.412896e-06
4.623542e-06
4.623542e-06
2.061443e-07
2.061443e-07
4.573449e-06
4.573449e-06
3.017944e-06
3.017944e-06
1.251281e-06
1.251281e-06
-4.642586e-07
-4.642586e-07
7.324410e-08
7.324410e-08
1.602555e-06
1.602555e-06
-3.077798e-06
-3.077798e-06
-2.572747e-06
-2.572747e-06
-2.884177e-07
-2.884177e-07
-3.519214e-06
-3.519214e-06
-3.917461e-06
-3.917461e-06
-1.239555e-06
-1.239555e-06
-1.528358e-06
-1.640553e-06
-1.528358e-06
-1.640553e-06
8.711443e-07
-3.835684e-07
8.711443e-07
-3.835684e-07
2.950325e-06
7.721824e-07
2.950325e-06
7.721824e-07
2.647644e-06
2.148338e-06
2.647644e-06
2.148338e-06
3.089515e-07
1.879926e-06
3.089515e-07
1.879926e-06
-1.445173e-06
-1.445173e-06
-5.568580e-07
-5.568580e-07
3.753180e-07
3.753180e-07
1.902919e-06
1.902919e-06
2.331279e-06
2.331279e-06
-5.579584e-07
-5.579584e-07
1.940079e-09
1.940079e-09
-1.657568e-07
-1.657568e-07
2.485540e-07
2.485540e-07
1.030630e-06
1.030630e-06
-3.064156e-07
-3.064156e-07
-4.514119e-07
-4.514119e-07
-1.055241e-06
-1.055241e-06
-9.648458e-07
-9.648458e-07
-7.895914e-08
-7.895914e-08
8.236014e-07
8.236014e-07
-3.221992e-07
-3.221992e-07
-6.333030e-07
-6.333030e-07
-7.960341e-07
-7.960341e-07
-1.158518e-06
-1.158518e-06
1.415640e-06
1.415640e-06
1.632687e-06
1.632687e-06
1.247764e-06
1.247764e-06
-4.333452e-07
-4.333452e-07
-1.407984e-06
-1.407984e-06
2.153851e-06
2.153851e-06
2.875202e-06
2.875202e-06
1.404791e-06
1.404791e-06
-6.171212e-07
-6.171212e-07
-1.385981e-06
-1.385981e-06
3.593013e-06
3.593013e-06
2.214364e-06
2.214364e-06
2.646249e-07
2.646249e-07
-5.939789e-07
-5.939789e-07
-1.706691e-06
-1.706691e-06
5.579895e-06
5.579895e-06
5.627158e-06
5.627158e-06
5.003174e-06
5.003174e-06
3.061851e-06
3.061851e-06
1.766868e-06
1.766868e-06
-1.062378e-06
-1.062378e-06
5.148931e-06
5.148931e-06
5.090880e-06
5.090880e-06
6.055365e-06
6.055365e-06
6.328714e-06
6.328714e-06
5.730890e-06
5.730890e-06
2.329368e-06
2.329368e-06
4.232227e-06
4.232227e-06
4.998188e-06
4.998188e-06
5.620257e-06
5.620257e-06
6.691289e-06
6.691289e-06
6.340832e-06
6.340832e-06
2.264515e-06
2.264515e-06
2.861237e-06
2.861237e-06
5.069318e-06
5.069318e-06
5.057965e-06
5.057965e-06
4.612963e-06
4.612963e-06
4.164669e-06
4.164669e-06
1.809832e-07
1.809832e-07
-1.801724e-07
-1.801724e-07
1.938386e-06
1.938386e-06
1.420115e-07
1.420115e-07
-2.160947e-06
-2.160947e-06
-9.712469e-07
-9.712469e-07
-1.560235e-06
-1.560235e-06
-1.759242e-06
-1.759242e-06
-4.256292e-06
-4.256292e-06
-7.444317e-06
-7.444317e-06
-1.062319e-05
-1.062319e-05
-6.445046e-06
-6.445046e-06
-3.291800e-06
-3.291800e-06
-2.017598e-06
-2.017598e-06
-8.581968e-06
-8.581968e-06
-1.139616e-05
-1.139616e-05
-1.294470e-05
-1.294470e-05
-6.993087e-06
-6.993087e-06
-5.800239e-06
-5.800239e-06
-3.933293e-06
-3.933293e-06
-1.458079e-05
-1.458079e-05
-1.173651e-05
-1.173651e-05
-1.144311e-05
-1.144311e-05
-6.957094e-06
-6.957094e-06
-8.120660e-06
-8.120660e-06
-8.893338e-06
-8.893338e-06
-2.477909e-05
-2.477909e-05
-1.507427e-05
-1.507427e-05
-1.161897e-06
-1.161897e-06
-2.215399e-06
-2.215399e-06
-2.127453e-05
-2.127453e-05
-7.847300e-06
-7.847300e-06
-3.139033e-05
-3.139033e-05
-2.969173e-05
-2.969173e-05
5.893294e-06
5.893294e-06
2.429937e-05
2.429937e-05
4.174431e-06
4.174431e-06
2.945509e-06
2.945509e-06
-2.724640e-05
-2.724640e-05
-5.385349e-05
-5.385349e-05
-2.022188e-05
-2.022188e-05
6.541977e-05
6.541977e-05
5.181880e-05
5.181880e-05
1.797548e-06
1.797548e-06
-2.972517e-05
-2.972517e-05
-6.485246e-05
-6.485246e-05
-7.234367e-05
-7.234367e-05
-2.252086e-05
-2.252086e-05
-1.160693e-04
-1.160693e-04
-2.665180e-05
-2.665180e-05
-5.080644e-05
-5.080644e-05
-1.664426e-04
-1.664426e-04
-1.042160e-04
-1.042160e-04
4.875987e-05
4.875987e-05
-6.211393e-05
-6.211393e-05
-4.326475e-05
-4.326475e-05
-1.234429e-04
-1.234429e-04
-2.362290e-04
-2.362290e-04
-4.965019e-03
-4.965019e-03
-1.226269e-02
-1.226269e-02
-8.627023e-03
-8.627023e-03
-3.710546e-05
-3.710546e-05
-1.618098e-04
-1.618098e-04
-9.000703e-04
-9.000703e-04
-2.995249e-03
-2.995249e-03
-1.108798e-02
-1.108798e-02
-1.184138e-02
-1.184138e-02
1.943758e-06
1.943758e-06
1.193170e-04
1.193170e-04
1.189744e-04
1.189744e-04
4.821410e-03
4.821410e-03
1.879947e-03
1.879947e-03
-3.448304e-03
-3.448304e-03
-1.211726e-05
-1.211726e-05
2.750515e-04
2.750515e-04
1.252801e-03
1.252801e-03
2.183736e-03
2.183736e-03
-2.537172e-03
-2.537172e-03
-1.274749e-04
-1.274749e-04
-7.716393e-05
-7.716393e-05
5.745332e-05
5.745332e-05
1.927881e-04
1.927881e-04
-1.759352e-03
-1.759352e-03
-7.362836e-03
-7.362836e-03
-4.461395e-03
-4.461395e-03
-6.355447e-05
-6.355447e-05
-5.182650e-05
-5.182650e-05
-1.536969e-04
-1.536969e-04
-1.023468e-03
-1.023468e-03
-4.144153e-03
-4.144153e-03
-4.566716e-03
-4.566716e-03
-1.386997e-05
-1.386997e-05
-4.011735e-05
-4.011735e-05
-2.709963e-05
-2.709963e-05
-1.024967e-06
-1.024967e-06
9.258674e-05
9.258674e-05
5.185370e-05
5.185370e-05
8.526761e-06
8.526761e-06
-2.484692e-05
-2.484692e-05
-4.669916e-05
-4.669916e-05
-4.069843e-05
-4.069843e-05
-7.936838e-06
-7.936838e-06
-6.772402e-05
-6.772402e-05
7.770838e-06
7.770838e-06
-1.730405e-05
-1.730405e-05
-6.327361e-05
-6.327361e-05
-5.271340e-05
-5.271340e-05
-3.196288e-05
-3.196288e-05
5.108116e-07
5.108116e-07
2.259823e-06
2.259823e-06
2.192126e-06
2.192126e-06
4.157305e-06
4.157305e-06
9.449606e-06
9.449606e-06
1.641715e-05
1.641715e-05
1.787904e-05
1.787904e-05
1.410465e-05
1.410465e-05
1.127730e-05
1.127730e-05
1.311110e-05
1.311110e-05
2.144259e-05
2.144259e-05
8.524387e-06
8.524387e-06
-4.669851e-06
-4.669851e-06
3.518175e-05
3.518175e-05
3.532506e-05
3.532506e-05
-5.079687e-05
-5.079687e-05
-9.346292e-05
-9.346292e-05
-6.673942e-05
-6.673942e-05
-4.207196e-05
-4.207196e-05
-1.700388e-05
-1.700388e-05
1.056371e-05
1.056371e-05
2.013250e-05
2.013250e-05
3.011250e-06
3.011250e-06
3.648681e-06
3.648681e-06
3.143976e-06
3.143976e-06
6.987002e-06
6.987002e-06
1.598062e-05
1.598062e-05
2.294173e-05
2.294173e-05
2.320297e-05
2.320297e-05
2.114022e-05
2.114022e-05
1.873499e-05
1.873499e-05
1.646828e-05
1.646828e-05
2.526049e-05
2.526049e-05
4.434257e-05
4.434257e-05
-2.500342e-05
-2.500342e-05
-8.952608e-05
-8.952608e-05
-5.989957e-05
-5.989957e-05
-8.405573e-05
-8.405573e-05
-1.727315e-04
-1.727315e-04
-2.188958e-04
-2.188958e-04
-1.938714e-04
-1.938714e-04
-7.021954e-05
-7.021954e-05
3.630322e-05
3.630322e-05
4.173767e-05
4.173767e-05
4.876188e-06
4.876188e-06
4.131474e-06
4.131474e-06
4.101982e-06
4.101982e-06
1.041889e-05
1.041889e-05
1.802266e-05
1.802266e-05
2.315077e-05
2.315077e-05
2.514342e-05
2.514342e-05
2.242557e-05
2.242557e-05
1.825733e-05
1.825733e-05
1.959336e-05
1.959336e-05
2.124940e-06
2.124940e-06
-7.673173e-06
-7.673173e-06
-8.749418e-05
-8.749418e-05
-3.295231e-04
-3.295231e-04
-3.598639e-04
-3.598639e-04
3.427260e-04
3.427260e-04
2.380036e-04
2.380036e-04
-4.042369e-04
-4.042369e-04
-3.310692e-04
-3.310692e-04
-1.676875e-04
-1.676875e-04
-1.333793e-05
-1.333793e-05
6.333671e-06
6.333671e-06
4.356352e-06
4.356352e-06
2.942565e-06
2.942565e-06
3.607650e-06
3.607650e-06
9.184165e-06
9.184165e-06
1.543921e-05
1.543921e-05
1.893790e-05
1.893790e-05
2.117245e-05
2.117245e-05
1.910409e-05
1.910409e-05
8.074604e-06
8.074604e-06
2.525174e-05
2.525174e-05
5.558573e-06
5.558573e-06
-1.313721e-04
-1.313721e-04
-2.104074e-04
-2.104074e-04
-1.308565e-04
-1.308565e-04
-6.852480e-04
-6.852480e-04
1.294991e-03
1.294991e-03
2.340458e-03
2.340458e-03
6.083092e-04
6.083092e-04
4.626967e-05
4.626967e-05
-2.275281e-04
-2.275281e-04
-7.643147e-05
-7.643147e-05
-3.597348e-05
-3.597348e-05
-1.820410e-07
-1.820410e-07
-4.163562e-08
-4.163562e-08
6.983227e-07
6.983227e-07
1.953192e-06
1.953192e-06
4.841840e-06
4.841840e-06
4.838058e-06
4.838058e-06
4.144431e-06
4.144431e-06
8.215256e-07
8.215256e-07
-1.795358e-05
-1.795358e-05
1.089402e-05
1.089402e-05
7.447692e-06
7.447692e-06
-2.242355e-04
-2.242355e-04
-2.186891e-04
-2.186891e-04
-1.089131e-03
-1.089131e-03
-3.411380e-03
-3.411380e-03
3.966578e-04
3.966578e-04
5.642742e-03
5.642742e-03
1.897573e-03
1.897573e-03
-1.085979e-03
-1.085979e-03
-1.556398e-04
-1.556398e-04
-1.264926e-04
-1.264926e-04
-5.120947e-05
-5.120947e-05
2.826723e-06
3.999438e-06
3.669537e-06
7.712201e-07
-1.567187e-06
-2.509894e-06
1.592355e-06
2.930785e-06
3.212127e-06
1.063805e-06
-8.648386e-07
-1.702249e-06
-2.277633e-06
-1.562670e-06
1.018717e-07
1.382009e-06
1.782502e-06
1.852436e-06
-4.686178e-06
-5.085407e-06
-3.305323e-06
9.791410e-07
4.382859e-06
5.681423e-06
-4.435486e-06
-5.305805e-06
-4.020066e-06
7.234083e-07
4.942028e-06
6.573232e-06
-4.334732e-06
-4.585945e-06
-2.626857e-06
1.314847e-06
4.033549e-06
5.020849e-06
-3.040323e-06
-1.985966e-06
5.011270e-08
1.524635e-06
2.316497e-06
2.615560e-06
-1.887999e-07
1.009972e-06
1.966740e-06
1.275158e-06
6.005908e-07
3.756013e-07
2.606458e-06
3.181957e-06
2.743888e-06
8.013663e-07
-5.891458e-07
-1.050702e-06
3.294829e-06
3.476441e-06
2.532583e-06
5.794588e-07
-4.665284e-07
-6.848621e-07
2.822190e-06
2.837223e-06
2.137388e-06
7.907614e-07
3.468553e-08
-8.963142e-08
-5.016970e-06
-1.746362e-06
1.695504e-06
1.211529e-06
-8.213275e-07
-2.198950e-06
-5.418784e-06
-2.184303e-06
1.660555e-06
1.577326e-06
-2.580737e-07
-1.399867e-06
-1.322722e-06
-9.582837e-07
4.309378e-07
1.598798e-06
1.930244e-06
2.118611e-06
4.448323e-06
1.821419e-06
-6.680324e-07
1.162686e-06
4.443317e-06
6.030681e-06
4.349492e-06
1.599202e-06
-1.204249e-06
1.007162e-06
5.245676e-06
7.219616e-06
-1.782579e-07
-1.892366e-06
-2.009099e-06
1.308560e-06
4.482821e-06
5.936799e-06
-5.374228e-06
-3.945517e-06
-6.254834e-07
2.010537e-06
2.931348e-06
3.107463e-06
-4.607978e-06
-1.716375e-06
1.692435e-06
1.818397e-06
9.268633e-07
4.265741e-07
4.221995e-08
1.511115e-06
2.391659e-06
7.789617e-07
-7.042103e-07
-1.163037e-06
1.957231e-06
2.503424e-06
2.208342e-06
5.812723e-07
-5.309371e-07
-8.573516e-07
2.028518e-06
2.396927e-06
2.087169e-06
8.940359e-07
1.431929e-07
-9.268333e-08
-1.317280e-05
-7.488539e-06
1.304599e-06
3.715631e-06
2.198565e-08
-2.973815e-06
-1.496974e-05
-8.768472e-06
1.594149e-06
4.637461e-06
1.015923e-06
-1.487577e-06
-5.439878e-06
-2.425464e-06
1.981483e-06
2.959117e-06
3.158143e-06
3.772070e-06
2.034071e-05
1.289011e-05
1.165278e-06
-7.790271e-07
4.779383e-06
8.007874e-06
2.459028e-05
1.396496e-05
-1.183209e-06
-1.836459e-06
5.446651e-06
8.860165e-06
-7.592430e-07
-1.985039e-06
-2.883711e-06
4.642165e-09
5.646104e-06
8.726338e-06
-1.335542e-05
-9.439738e-06
-1.227671e-06
3.736975e-06
4.905850e-06
5.406465e-06
-8.793239e-06
-4.459118e-06
2.690345e-06
4.712366e-06
2.250574e-06
5.821047e-07
-3.308346e-06
3.334117e-07
4.040296e-06
2.328447e-06
-7.412651e-07
-2.034002e-06
1.442964e-06
2.484984e-06
2.792884e-06
7.822221e-07
-1.090413e-06
-1.686505e-06
2.722425e-06
2.947120e-06
2.191493e-06
6.235389e-07
-3.576029e-07
-7.511113e-07
-2.137778e-05
-1.121386e-05
8.128662e-06
1.312417e-05
2.693733e-06
-3.553607e-06
-1.962084e-05
-1.069934e-05
7.205387e-06
1.341142e-05
5.092268e-06
-4.496782e-07
-8.515673e-07
1.993486e-06
3.539303e-06
3.764171e-06
5.985088e-06
6.681900e-06
2.634108e-05
1.564093e-05
-4.040102e-06
-9.151640e-06
2.073605e-06
9.429516e-06
2.799264e-05
1.205581e-05
-1.027493e-05
-1.182667e-05
8.458575e-07
8.676217e-06
2.229938e-06
-9.972765e-07
-8.449267e-06
-6.681839e-06
4.706435e-06
1.010251e-05
-1.769156e-05
-1.260162e-05
-1.854093e-06
5.700244e-06
7.979479e-06
8.361963e-06
-1.627666e-05
-8.927560e-06
6.918590e-06
1.251033e-05
5.856554e-06
2.108076e-06
-4.688041e-06
2.188253e-06
1.009311e-05
7.655745e-06
1.023597e-06
-2.142618e-06
4.462680e-06
5.438065e-06
5.204179e-06
1.990740e-06
-1.126615e-06
-2.239802e-06
6.127235e-06
4.851612e-06
2.542123e-06
4.468880e-07
-1.157281e-06
-1.700083e-06
-3.613978e-05
-1.963111e-05
1.096228e-05
2.139505e-05
1.044959e-05
3.156079e-06
-1.368303e-05
-9.883678e-06
8.513957e-06
2.184901e-05
1.307574e-05
5.565704e-06
2.534298e-05
1.244253e-05
9.066366e-08
4.680478e-06
7.924518e-06
7.127321e-06
9.776897e-06
1.159911e-05
-3.280904e-06
-1.849219e-05
-6.261290e-06
4.478664e-06
-8.084651e-06
2.304032e-07
-6.822415e-06
-2.240758e-05
-9.714151e-06
3.196563e-06
1.763629e-05
3.854362e-06
-1.505697e-05
-1.272304e-05
4.625556e-07
6.184829e-06
8.144180e-06
-2.751391e-06
-5.857165e-06
6.754278e-06
1.020238e-05
8.828843e-06
-2.078984e-05
-1.065315e-05
1.025313e-05
1.788202e-05
1.028837e-05
5.835415e-06
-1.778045e-05
-5.452918e-06
1.128089e-05
1.223519e-05
5.104693e-06
1.426160e-06
-1.174269e-07
1.860949e-06
4.453223e-06
3.678746e-06
1.044305e-06
-2.017602e-07
6.541438e-06
4.249049e-06
1.418676e-06
4.693032e-07
-2.651163e-07
-5.881475e-07
-4.300895e-05
-2.431943e-05
8.554955e-06
2.232119e-05
1.563115e-05
9.359747e-06
-5.633958e-06
-8.606228e-06
5.696455e-06
2.405926e-05
1.765010e-05
1.015309e-05
4.187715e-05
1.640107e-05
-3.694317e-06
5.935259e-06
8.117163e-06
6.050195e-06
-6.029772e-06
8.968344e-06
1.879696e-06
-2.158539e-05
-1.161480e-05
-2.658941e-07
-3.610848e-05
-4.225109e-06
2.927041e-06
-2.612564e-05
-1.577604e-05
-1.104978e-06
2.531600e-05
4.931985e-06
-1.759148e-05
-1.337539e-05
-2.127644e-06
2.764574e-06
3.266877e-05
6.726046e-06
-9.160407e-06
7.085580e-06
1.071131e-05
8.147324e-06
-1.758567e-05
-7.926695e-06
1.063165e-05
1.780648e-05
1.211164e-05
8.141341e-06
-3.027949e-05
-1.445579e-05
8.416711e-06
1.305923e-05
7.498936e-06
4.344923e-06
-6.893922e-06
-3.714672e-06
2.199756e-06
4.357370e-06
2.756360e-06
1.732915e-06
5.038410e-06
2.732483e-06
9.914405e-08
2.945977e-07
8.174240e-07
8.173843e-07
SCALARS E33 float 1
LOOKUP_TABLE default
-5.241831e-05
-6.208697e-05
-2.662991e-05
5.473599e-06
-5.241831e-05
-6.208697e-05
-2.662991e-05
5.473599e-06
-7.624787e-05
-5.113668e-05
-1.471338e-05
-5.469560e-05
-7.624787e-05
-5.113668e-05
-1.471338e-05
-5.469560e-05
-3.984222e-05
5.994463e-06
9.618829e-06
-3.984222e-05
5.994463e-06
9.618829e-06
-1.326404e-05
-3.120520e-05
-6.460629e-05
-7.646506e-05
-1.326404e-05
-3.120520e-05
-6.460629e-05
-7.646506e-05
-1.034149e-05
-3.557750e-06
-1.034149e-05
-3.557750e-06
1.931640e-06
-6.691393e-05
1.931640e-06
-6.691393e-05
1.972399e-05
2.164220e-05
-2.755336e-06
-1.902213e-05
1.972399e-05
2.164220e-05
-2.755336e-06
-1.902213e-05
-4.717145e-05
-6.505887e-05
-4.514255e-05
-1.917395e-05
-4.717145e-05
-6.505887e-05
-4.514255e-05
-1.917395e-05
1.291062e-05
-4.935184e-05
-2.947016e-05
1.157676e-05
1.291062e-05
-4.935184e-05
-2.947016e-05
1.157676e-05
-1.747099e-05
7.175533e-06
-1.747099e-05
7.175533e-06
6.753626e-06
6.753626e-06
-7.769649e-05
-3.574559e-05
-7.769649e-05
-3.574559e-05
8.334916e-06
1.156317e-05
8.334916e-06
1.156317e-05
2.139387e-05
2.139387e-05
3.241904e-05
3.241904e-05
-5.840430e-05
-5.840430e-05
1.109543e-05
-8.720821e-06
-1.586025e-05
1.109543e-05
-8.720821e-06
-1.586025e-05
-8.096680e-07
-1.013162e-06
9.885223e-06
4.506233e-06
-8.096680e-07
-1.013162e-06
9.885223e-06
4.506233e-06
-8.452121e-06
-8.452121e-06
-5.609514e-06
5.335322e-06
-5.609514e-06
5.335322e-06
-7.087650e-06
-7.087650e-06
-4.543551e-05
-4.543551e-05
-3.995271e-05
-3.995271e-05
1.726369e-05
1.726369e-05
2.454853e-05
2.454853e-05
-7.281693e-05
-7.281693e-05
1.377770e-05
1.377770e-05
-1.351750e-05
-1.351750e-05
1.593921e-06
-3.449320e-06
1.593921e-06
-3.449320e-06
-1.680960e-05
-1.680960e-05
-1.699775e-05
-1.699775e-05
-8.857328e-06
-8.857328e-06
-6.035820e-06
-6.035820e-06
-3.254505e-06
-6.018051e-06
-3.254505e-06
-6.018051e-06
-1.253857e-05
-1.253857e-05
-1.226854e-05
-1.226854e-05
-7.957363e-06
-7.957363e-06
-6.607909e-06
-6.607909e-06
-2.131406e-06
-7.547837e-06
-2.131406e-06
-7.547837e-06
-3.498470e-06
-3.498470e-06
-3.280364e-06
-3.280364e-06
-4.440604e-06
-4.440604e-06
-5.308589e-06
-5.308589e-06
1.877130e-07
-2.912115e-06
1.877130e-07
-2.912115e-06
-8.699109e-07
-8.699109e-07
-1.075771e-06
-1.075771e-06
-1.939386e-06
-1.939386e-06
-3.398981e-06
-3.398981e-06
-7.468172e-07
6.462239e-07
-7.468172e-07
6.462239e-07
-3.820541e-06
-3.820541e-06
-2.988265e-06
-2.988265e-06
5.328371e-08
5.328371e-08
8.732963e-07
8.732963e-07
-8.799263e-06
-3.057683e-06
-8.799263e-06
-3.057683e-06
-7.140401e-06
-7.140401e-06
-1.508144e-06
-1.508144e-06
2.723869e-06
2.723869e-06
4.467038e-06
4.467038e-06
-1.394526e-05
-1.021618e-05
-1.394526e-05
-1.021618e-05
-5.713136e-06
-5.713136e-06
5.044263e-06
5.044263e-06
8.558032e-06
8.558032e-06
6.287796e-06
6.287796e-06
-6.943331e-06
-1.025931e-05
-6.943331e-06
-1.025931e-05
1.641171e-06
1.641171e-06
9.152473e-06
9.152473e-06
9.880648e-06
9.880648e-06
8.031715e-06
8.031715e-06
-1.523011e-07
-7.265167e-06
-1.523011e-07
-7.265167e-06
5.044995e-06
5.044995e-06
4.229366e-06
4.229366e-06
2.467591e-06
2.467591e-06
2.801066e-06
2.801066e-06
-3.781001e-07
-4.346686e-06
-3.781001e-07
-4.346686e-06
1.085080e-06
1.085080e-06
-3.191725e-06
-3.191725e-06
-3.890546e-06
-3.890546e-06
-1.631808e-06
-1.631808e-06
-2.830855e-06
-6.851799e-08
-2.830855e-06
-6.851799e-08
-7.179084e-06
-7.179084e-06
-8.505348e-06
-8.505348e-06
-6.528766e-06
-6.528766e-06
-3.068617e-06
-3.068617e-06
-6.303499e-06
5.831785e-07
-6.303499e-06
5.831785e-07
-1.101960e-05
-1.101960e-05
-1.092924e-05
-1.092924e-05
-8.169244e-06
-8.169244e-06
-5.343668e-06
-5.343668e-06
-7.504843e-06
-3.742666e-06
-7.504843e-06
-3.742666e-06
-9.851613e-06
-9.851613e-06
-8.764819e-06
-8.764819e-06
-5.717359e-06
-5.717359e-06
-3.853866e-06
-3.853866e-06
-6.593868e-06
-6.229364e-06
-6.593868e-06
-6.229364e-06
-9.245652e-06
-9.245652e-06
-6.811843e-06
-6.811843e-06
-3.319818e-06
-3.319818e-06
-2.555441e-06
-2.555441e-06
-5.325276e-06
-7.987803e-06
-1.303570e-05
-5.146433e-06
-5.325276e-06
-7.987803e-06
-1.303570e-05
-5.146433e-06
-8.156997e-06
-1.270915e-05
-8.156997e-06
-1.270915e-05
-1.129729e-05
-1.881490e-06
-1.129729e-05
-1.881490e-06
-1.026604e-05
-1.026604e-05
-2.488518e-06
1.240788e-06
-2.488518e-06
1.240788e-06
-2.453301e-06
-2.453301e-06
4.742180e-06
3.791675e-06
4.742180e-06
3.791675e-06
3.226818e-06
3.226818e-06
3.971447e-06
3.119311e-06
3.971447e-06
3.119311e-06
3.482933e-09
3.482933e-09
1.214436e-06
1.193065e-06
1.214436e-06
1.193065e-06
-3.665793e-06
-3.665793e-06
-1.298399e-05
-2.046980e-05
-1.298399e-05
-2.046980e-05
-1.448914e-05
-1.448914e-05
-1.052268e-05
-1.052268e-05
-3.196227e-06
-3.196227e-06
-1.133331e-07
-1.133331e-07
-2.432218e-06
-2.432218e-06
7.494489e-07
-6.832143e-06
7.494489e-07
-6.832143e-06
-4.891041e-06
-4.891041e-06
-1.023630e-05
-1.023630e-05
-9.632083e-06
-9.632083e-06
-6.685301e-06
-6.685301e-06
-5.908766e-06
-5.908766e-06
-6.687584e-06
-6.687584e-06
-1.049148e-05
-1.049148e-05
-1.084381e-05
-1.084381e-05
-6.436377e-06
-6.436377e-06
7.778341e-07
7.778341e-07
9.130295e-06
9.130295e-06
4.977928e-06
4.977928e-06
-2.500733e-06
-2.500733e-06
1.253510e-06
-2.186865e-06
3.161827e-06
2.249544e-06
1.253510e-06
-2.186865e-06
3.161827e-06
2.249544e-06
-4.069190e-07
-4.255243e-06
-4.645453e-06
-2.694807e-06
-4.069190e-07
-4.255243e-06
-4.645453e-06
-2.694807e-06
1.241549e-05
1.702352e-06
1.925877e-06
1.061867e-07
1.241549e-05
1.702352e-06
1.925877e-06
1.061867e-07
-1.421473e-05
-1.686333e-05
-8.098321e-06
-1.421473e-05
-1.686333e-05
-8.098321e-06
-1.060352e-06
-1.459228e-05
-1.060352e-06
-1.459228e-05
1.235995e-05
4.257097e-05
2.200927e-06
-1.308342e-05
1.235995e-05
4.257097e-05
2.200927e-06
-1.308342e-05
4.649000e-06
2.034756e-05
4.649000e-06
2.034756e-05
-4.685587e-06
-2.068189e-06
-4.685587e-06
-2.068189e-06
-4.434021e-06
-3.166807e-06
-2.182975e-07
-4.434021e-06
-3.166807e-06
-2.182975e-07
-6.400724e-06
-6.400724e-06
-4.519622e-06
-3.029242e-06
-4.519622e-06
-3.029242e-06
-5.178796e-06
2.806456e-05
-5.178796e-06
2.806456e-05
9.919252e-06
9.919252e-06
-5.095430e-06
-5.095430e-06
8.362374e-06
1.168535e-05
1.115374e-05
8.362374e-06
1.168535e-05
1.115374e-05
1.840312e-05
3.242792e-05
4.467456e-05
2.382434e-05
1.840312e-05
3.242792e-05
4.467456e-05
2.382434e-05
7.168591e-06
5.199481e-05
7.168591e-06
5.199481e-05
-8.208909e-06
-8.208909e-06
7.742096e-05
6.076937e-05
4.101437e-05
4.513361e-05
7.742096e-05
6.076937e-05
4.101437e-05
4.513361e-05
4.301277e-05
4.301277e-05
-2.634511e-06
-2.634511e-06
6.621498e-07
6.621498e-07
2.036550e-06
2.036550e-06
-9.025583e-06
-9.025583e-06
-4.311214e-06
-4.311214e-06
-6.310981e-06
8.420167e-06
-6.310981e-06
8.420167e-06
-3.093580e-06
6.628423e-06
-3.093580e-06
6.628423e-06
-2.753424e-06
1.979686e-06
-2.753424e-06
1.979686e-06
-1.083603e-06
-1.953548e-06
-1.083603e-06
-1.953548e-06
1.788347e-06
-5.674977e-06
1.788347e-06
-5.674977e-06
2.584253e-06
-6.127823e-06
2.584253e-06
-6.127823e-06
2.249184e-06
-4.647524e-06
2.249184e-06
-4.647524e-06
2.875722e-06
-6.150078e-07
2.875722e-06
-6.150078e-07
5.349207e-06
3.518910e-06
5.349207e-06
3.518910e-06
6.702382e-06
4.227980e-06
6.702382e-06
4.227980e-06
4.111947e-06
2.629519e-06
4.111947e-06
2.629519e-06
-1.858603e-06
-1.976462e-06
-1.858603e-06
-1.976462e-06
-4.068202e-06
-3.512974e-06
-4.068202e-06
-3.512974e-06
-3.064732e-06
-1.585481e-06
-3.064732e-06
-1.585481e-06
3.278284e-06
3.278284e-06
2.761306e-06
2.761306e-06
-8.479682e-08
-8.479682e-08
-4.076645e-06
-4.076645e-06
-8.248199e-06
-8.248199e-06
-7.975459e-06
-7.975459e-06
-4.566994e-06
-4.566994e-06
-8.450280e-07
-8.450280e-07
-4.593712e-07
-4.593712e-07
-2.705282e-06
-2.705282e-06
-2.834924e-06
-2.834924e-06
-2.627827e-06
-2.627827e-06
-3.007389e-07
-3.007389e-07
1.991393e-06
1.991393e-06
-3.580378e-06
-3.580378e-06
-2.530440e-06
-2.530440e-06
-4.245749e-06
-4.245749e-06
-5.141774e-06
-5.141774e-06
-4.054156e-06
-4.054156e-06
-2.864075e-06
-2.864075e-06
-6.245904e-08
-6.245904e-08
6.819928e-07
6.819928e-07
-3.732227e-06
-3.732227e-06
-7.390864e-06
-7.390864e-06
-6.936838e-06
-6.936838e-06
-5.393494e-06
-5.393494e-06
-1.951483e-06
-1.951483e-06
4.050093e-07
4.050093e-07
-7.774373e-06
-7.774373e-06
-5.990524e-06
-5.990524e-06
-5.368258e-06
-5.368258e-06
-5.732348e-06
-5.732348e-06
-2.369290e-06
-2.369290e-06
6.936905e-07
6.936905e-07
1.985735e-06
1.985735e-06
4.624090e-07
4.624090e-07
-4.090380e-06
-4.090380e-06
-6.675323e-06
-6.675323e-06
-6.927482e-06
-6.927482e-06
-5.302492e-06
-5.302492e-06
-4.990991e-06
-4.990991e-06
-5.565290e-06
-5.565290e-06
-8.114168e-06
-8.114168e-06
-6.746096e-06
-6.746096e-06
-5.790674e-06
-5.790674e-06
-6.712430e-06
-6.712430e-06
-2.741929e-06
-2.741929e-06
1.305844e-06
1.305844e-06
2.027113e-06
2.027113e-06
3.084818e-07
3.084818e-07
-2.305458e-06
-2.305458e-06
-5.291618e-06
-5.291618e-06
-6.390991e-06
-6.390991e-06
-4.601456e-06
-4.601456e-06
-5.247887e-06
-5.247887e-06
-7.643438e-06
-7.643438e-06
-3.972351e-06
-6.761888e-06
-3.972351e-06
-6.761888e-06
-5.856513e-07
-5.856513e-07
1.920364e-06
1.920364e-06
2.788052e-06
2.788052e-06
3.306188e-06
3.306188e-06
2.808886e-06
2.808886e-06
1.886252e-06
1.886252e-06
1.237402e-06
1.237402e-06
-5.142357e-06
-5.783946e-06
-5.142357e-06
-5.783946e-06
-2.248723e-06
-2.248723e-06
2.233017e-06
2.233017e-06
2.153431e-06
2.153431e-06
3.922929e-07
3.922929e-07
1.326817e-06
1.326817e-06
2.553946e-06
2.553946e-06
1.673839e-06
1.673839e-06
-2.296301e-06
-4.650572e-06
-2.296301e-06
-4.650572e-06
-1.897096e-06
-1.897096e-06
4.973747e-07
4.973747e-07
4.209027e-08
4.209027e-08
-1.652273e-06
-1.652273e-06
-2.933021e-07
-2.933021e-07
3.305101e-07
3.305101e-07
-6.683975e-07
-6.683975e-07
4.950557e-06
1.967566e-06
4.950557e-06
1.967566e-06
4.629180e-06
4.629180e-06
7.005570e-07
7.005570e-07
-3.364866e-06
-3.364866e-06
-2.285369e-06
-2.285369e-06
-9.280647e-07
-9.280647e-07
-2.224399e-06
-2.224399e-06
-2.861532e-06
-2.861532e-06
7.413465e-06
5.785413e-06
7.413465e-06
5.785413e-06
5.971789e-06
5.971789e-06
1.042337e-06
1.042337e-06
-2.363306e-06
-2.363306e-06
-8.633848e-07
-8.633848e-07
-7.608221e-07
-7.608221e-07
-1.620027e-06
-1.620027e-06
-1.341170e-06
-1.341170e-06
3.299201e-06
2.713547e-06
3.299201e-06
2.713547e-06
-6.396441e-07
-6.396441e-07
-1.182002e-06
-1.182002e-06
2.003232e-07
2.003232e-07
1.374288e-06
1.374288e-06
2.292187e-06
2.292187e-06
2.239135e-06
2.239135e-06
1.955550e-06
1.955550e-06
3.230960e-06
2.862555e-06
4.708736e-06
4.151187e-06
3.230960e-06
2.862555e-06
4.708736e-06
4.151187e-06
6.423895e-06
4.937071e-06
6.423895e-06
4.937071e-06
4.550770e-06
1.956635e-06
4.550770e-06
1.956635e-06
-1.960918e-06
-3.856378e-06
-1.960918e-06
-3.856378e-06
-1.149201e-05
-5.997585e-06
-1.149201e-05
-5.997585e-06
-2.033573e-05
-1.188939e-05
-2.033573e-05
-1.188939e-05
-2.105140e-05
-1.666292e-05
-2.105140e-05
-1.666292e-05
3.170720e-06
5.632882e-06
3.170720e-06
5.632882e-06
6.565047e-06
6.565047e-06
5.097527e-06
5.097527e-06
-4.932886e-07
-4.932886e-07
-9.056988e-06
-9.056988e-06
-1.762201e-05
-1.762201e-05
-2.177270e-05
-2.177270e-05
-1.954980e-05
-1.954980e-05
4.285925e-06
4.285925e-06
3.051953e-06
3.051953e-06
1.652578e-06
1.652578e-06
7.184242e-06
7.184242e-06
4.198547e-06
4.198547e-06
-3.292353e-08
-3.292353e-08
4.233608e-06
4.233608e-06
2.547891e-06
2.547891e-06
-9.321782e-07
-9.321782e-07
-5.269731e-07
-5.269731e-07
3.356548e-07
3.356548e-07
-6.820423e-07
-6.820423e-07
-1.981916e-06
-1.981916e-06
-8.915644e-07
-8.915644e-07
-1.898433e-06
-1.898433e-06
-1.504290e-06
-1.504290e-06
-1.242586e-06
-1.242586e-06
-3.020622e-06
-3.020622e-06
2.020765e-06
3.779179e-06
2.020765e-06
3.779179e-06
-4.408874e-07
2.081083e-06
-4.408874e-07
2.081083e-06
-4.155433e-06
-1.464074e-06
-4.155433e-06
-1.464074e-06
-5.523019e-06
-4.633863e-06
-5.523019e-06
-4.633863e-06
-2.387446e-06
-2.791167e-06
-2.387446e-06
-2.791167e-06
1.786880e-06
1.786880e-06
-6.915676e-07
-6.915676e-07
-1.245816e-06
-1.245816e-06
-1.634274e-06
-1.634274e-06
-3.879861e-06
-3.879861e-06
2.370058e-07
2.370058e-07
-7.455996e-07
-7.455996e-07
1.467199e-06
1.467199e-06
1.336672e-06
1.336672e-06
-1.690295e-06
-1.690295e-06
-9.042127e-08
-9.042127e-08
1.576083e-06
1.576083e-06
2.327945e-06
2.327945e-06
5.379848e-08
5.379848e-08
-3.471032e-07
-3.471032e-07
-1.338414e-06
-1.338414e-06
5.518925e-07
5.518925e-07
1.461806e-06
1.461806e-06
5.643805e-07
5.643805e-07
7.666080e-07
7.666080e-07
-3.997862e-06
-3.997862e-06
-3.280664e-06
-3.280664e-06
-3.871727e-07
-3.871727e-07
1.900412e-06
1.900412e-06
3.491940e-06
3.491940e-06
-3.715150e-06
-3.715150e-06
-3.548697e-06
-3.548697e-06
-1.636963e-06
-1.636963e-06
9.910750e-07
9.910750e-07
3.315576e-06
3.315576e-06
-1.980822e-06
-1.980822e-06
-2.324397e-06
-2.324397e-06
-1.402195e-06
-1.402195e-06
5.171695e-07
5.171695e-07
1.894161e-06
1.894161e-06
-7.881121e-06
-7.881121e-06
-5.715134e-06
-5.715134e-06
-6.837741e-06
-6.837741e-06
-3.649318e-06
-3.649318e-06
2.196545e-06
2.196545e-06
-1.209657e-06
-1.209657e-06
-3.839370e-06
-3.839370e-06
4.478827e-08
4.478827e-08
-3.443266e-06
-3.443266e-06
-5.790674e-06
-5.790674e-06
-3.460839e-06
-3.460839e-06
-7.845704e-06
-7.845704e-06
-7.598415e-07
-7.598415e-07
2.970318e-06
2.970318e-06
8.800509e-07
8.800509e-07
-3.526614e-06
-3.526614e-06
-4.409609e-06
-4.409609e-06
-1.108261e-05
-1.108261e-05
5.921097e-06
5.921097e-06
6.558937e-06
6.558937e-06
8.791644e-06
8.791644e-06
8.305692e-06
8.305692e-06
6.102576e-06
6.102576e-06
-7.944047e-06
-7.944047e-06
1.333092e-05
1.333092e-05
1.564873e-05
1.564873e-05
2.506734e-05
2.506734e-05
2.784150e-05
2.784150e-05
2.004843e-05
2.004843e-05
-8.561701e-06
-8.561701e-06
2.318504e-05
2.318504e-05
3.116297e-05
3.116297e-05
4.718029e-05
4.718029e-05
4.906743e-05
4.906743e-05
3.469321e-05
3.469321e-05
-8.793822e-06
-8.793822e-06
3.802705e-05
3.802705e-05
5.565332e-05
5.565332e-05
7.191800e-05
7.191800e-05
7.390011e-05
7.390011e-05
5.233764e-05
5.233764e-05
-8.918333e-06
-8.918333e-06
4.805353e-05
4.805353e-05
7.469067e-05
7.469067e-05
1.045924e-04
1.045924e-04
1.082457e-04
1.082457e-04
7.067205e-05
7.067205e-05
-1.450737e-05
-1.450737e-05
5.992105e-05
5.992105e-05
8.061742e-05
8.061742e-05
1.362752e-04
1.362752e-04
1.625178e-04
1.625178e-04
9.785968e-05
9.785968e-05
-2.213670e-05
-2.213670e-05
8.166910e-05
8.166910e-05
8.589689e-05
8.589689e-05
1.384408e-04
1.384408e-04
2.159358e-04
2.159358e-04
1.541465e-04
1.541465e-04
-5.562257e-05
-5.562257e-05
9.723993e-05
9.723993e-05
1.061614e-04
1.061614e-04
1.098473e-04
1.098473e-04
2.208616e-04
2.208616e-04
3.291088e-04
3.291088e-04
1.039641e-04
1.039641e-04
1.019088e-04
1.019088e-04
1.582636e-04
1.582636e-04
8.922310e-05
8.922310e-05
1.182629e-04
1.182629e-04
4.391424e-04
4.391424e-04
4.568795e-04
4.568795e-04
1.246087e-04
1.246087e-04
2.440085e-04
2.440085e-04
1.554724e-04
1.554724e-04
-1.793942e-04
-1.793942e-04
-4.171912e-04
-4.171912e-04
-9.296193e-05
-9.296193e-05
1.233440e-04
1.233440e-04
3.384200e-04
3.384200e-04
-6.547043e-05
-6.547043e-05
1.775652e-03
1.775652e-03
5.513060e-03
5.513060e-03
3.772093e-03
3.772093e-03
9.883462e-05
9.883462e-05
2.590677e-04
2.590677e-04
2.633222e-04
2.633222e-04
-4.542232e-03
-4.542232e-03
-3.748911e-03
-3.748911e-03
3.434878e-04
3.434878e-04
9.772562e-05
9.772562e-05
-7.621356e-05
-7.621356e-05
5.771801e-04
5.771801e-04
-6.438520e-03
-6.438520e-03
-5.940642e-03
-5.940642e-03
3.268373e-03
3.268373e-03
1.107646e-04
1.107646e-04
-2.365548e-04
-2.365548e-04
-5.988664e-04
-5.988664e-04
-1.281987e-03
-1.281987e-03
-5.217106e-04
-5.217106e-04
2.433941e-04
2.433941e-04
1.261182e-04
1.261182e-04
-6.012283e-05
-6.012283e-05
-7.361296e-04
-7.361296e-04
-1.169148e-03
-1.169148e-03
-3.325976e-03
-3.325976e-03
-4.604840e-03
-4.604840e-03
1.190958e-04
1.190958e-04
7.983920e-05
7.983920e-05
-1.480626e-04
-1.480626e-04
-2.871691e-04
-2.871691e-04
4.677172e-04
4.677172e-04
1.787564e-03
1.787564e-03
1.049778e-04
1.049778e-04
5.218468e-05
5.218468e-05
-2.989341e-04
-2.989341e-04
-8.047216e-04
-8.047216e-04
-9.360496e-04
-9.360496e-04
-6.041759e-04
-6.041759e-04
8.905210e-05
8.905210e-05
1.676898e-05
1.676898e-05
-2.009778e-04
-2.009778e-04
-3.907012e-04
-3.907012e-04
-3.721420e-04
-3.721420e-04
-2.802191e-04
-2.802191e-04
7.488475e-05
7.488475e-05
2.266377e-05
2.266377e-05
-9.876101e-05
-9.876101e-05
-1.211202e-04
-1.211202e-04
-6.295575e-05
-6.295575e-05
-1.420945e-06
-1.420945e-06
-3.563079e-06
-3.563079e-06
-1.176815e-06
-1.176815e-06
-4.877209e-06
-4.877209e-06
-1.754799e-05
-1.754799e-05
-2.358088e-05
-2.358088e-05
-1.903821e-05
-1.903821e-05
-1.340069e-05
-1.340069e-05
-1.326066e-05
-1.326066e-05
3.335601e-06
3.335601e-06
6.085853e-06
6.085853e-06
-2.414047e-05
-2.414047e-05
-1.202194e-05
-1.202194e-05
1.687812e-05
1.687812e-05
-2.170002e-05
-2.170002e-05
-4.203122e-05
-4.203122e-05
-1.579583e-05
-1.579583e-05
-1.470391e-05
-1.470391e-05
-1.164191e-05
-1.164191e-05
-1.244471e-05
-1.244471e-05
-2.048634e-05
-2.048634e-05
-1.848540e-05
-1.848540e-05
-6.566438e-06
-6.566438e-06
-5.831781e-06
-5.831781e-06
-3.460699e-06
-3.460699e-06
-1.058460e-05
-1.058460e-05
-2.648280e-05
-2.648280e-05
-3.594252e-05
-3.594252e-05
-3.276259e-05
-3.276259e-05
-2.689341e-05
-2.689341e-05
-3.176842e-05
-3.176842e-05
-3.101162e-05
-3.101162e-05
1.216742e-05
1.216742e-05
-1.367984e-05
-1.367984e-05
-7.518765e-05
-7.518765e-05
-4.135689e-05
-4.135689e-05
-3.180708e-05
-3.180708e-05
-3.036465e-05
-3.036465e-05
-1.081703e-06
-1.081703e-06
-1.824659e-05
-1.824659e-05
-6.775302e-05
-6.775302e-05
-9.213095e-05
-9.213095e-05
-1.812581e-05
-1.812581e-05
5.110398e-05
5.110398e-05
-1.034586e-05
-1.034586e-05
-1.079618e-05
-1.079618e-05
-1.083292e-05
-1.083292e-05
-2.216387e-05
-2.216387e-05
-3.682330e-05
-3.682330e-05
-4.489918e-05
-4.489918e-05
-5.047226e-05
-5.047226e-05
-5.072024e-05
-5.072024e-05
-5.477737e-05
-5.477737e-05
-8.723781e-05
-8.723781e-05
-3.548455e-05
-3.548455e-05
6.713406e-05
6.713406e-05
-5.085311e-05
-5.085311e-05
-1.728868e-04
-1.728868e-04
-1.066340e-04
-1.066340e-04
-3.587410e-04
-3.587410e-04
-4.109644e-04
-4.109644e-04
-1.949051e-04
-1.949051e-04
-2.259137e-04
-2.259137e-04
-1.361649e-04
-1.361649e-04
4.702115e-06
4.702115e-06
5.394228e-05
5.394228e-05
-9.217092e-06
-9.217092e-06
-1.075253e-05
-1.075253e-05
-1.608710e-05
-1.608710e-05
-3.002349e-05
-3.002349e-05
-4.287021e-05
-4.287021e-05
-5.252513e-05
-5.252513e-05
-6.331355e-05
-6.331355e-05
-7.378856e-05
-7.378856e-05
-8.441464e-05
-8.441464e-05
-1.336688e-04
-1.336688e-04
-1.211701e-04
-1.211701e-04
1.323933e-04
1.323933e-04
1.321247e-04
1.321247e-04
-7.511066e-04
-7.511066e-04
-6.884620e-04
-6.884620e-04
8.980156e-04
8.980156e-04
2.662293e-04
2.662293e-04
-1.503022e-03
-1.503022e-03
-9.530374e-04
-9.530374e-04
-6.304743e-05
-6.304743e-05
-1.850128e-05
-1.850128e-05
-1.598151e-05
-1.598151e-05
-6.421436e-06
-6.421436e-06
-1.060975e-05
-1.060975e-05
-1.680447e-05
-1.680447e-05
-2.650583e-05
-2.650583e-05
-3.801405e-05
-3.801405e-05
-4.947560e-05
-4.947560e-05
-5.911536e-05
-5.911536e-05
-7.738261e-05
-7.738261e-05
-9.373717e-05
-9.373717e-05
-1.631520e-04
-1.631520e-04
-1.505223e-04
-1.505223e-04
1.917457e-04
1.917457e-04
2.722499e-04
2.722499e-04
-2.539154e-04
-2.539154e-04
-1.124062e-03
-1.124062e-03
3.274610e-03
3.274610e-03
4.418523e-04
4.418523e-04
-3.148755e-03
-3.148755e-03
4.065601e-04
4.065601e-04
-1.969247e-04
-1.969247e-04
-1.371100e-04
-1.371100e-04
-3.481961e-05
-3.481961e-05
6.686215e-06
3.583660e-06
-4.404726e-07
-1.111611e-07
1.851900e-06
2.564071e-06
1.343851e-05
7.569527e-06
-2.512534e-07
-7.062232e-07
1.852616e-06
2.914629e-06
2.542070e-05
1.493492e-05
6.725804e-07
-2.201774e-06
4.319677e-07
2.163509e-06
3.332050e-05
1.987193e-05
1.558731e-06
-3.398404e-06
-1.628516e-06
2.338745e-07
3.494296e-05
2.108134e-05
2.085927e-06
-3.401110e-06
-2.069364e-06
-3.843747e-07
2.962610e-05
1.833801e-05
2.501369e-06
-2.342740e-06
-1.125071e-06
3.881668e-07
1.919022e-05
1.219788e-05
1.977612e-06
-7.540027e-07
4.810824e-07
1.219861e-06
8.020733e-06
5.214853e-06
1.053460e-06
6.136334e-07
1.790030e-06
2.050739e-06
1.720542e-06
7.907789e-07
3.133163e-07
1.162928e-06
2.060773e-06
2.561307e-06
2.028981e-07
-3.106849e-07
-8.117009e-08
9.285623e-07
1.611882e-06
2.028566e-06
-1.758714e-08
-2.262296e-07
-9.612603e-08
6.887354e-07
1.341063e-06
1.547276e-06
9.679096e-06
4.056037e-06
-2.557053e-06
-2.373909e-06
8.955213e-07
2.991777e-06
1.496346e-05
6.518628e-06
-4.310675e-06
-4.679668e-06
4.231634e-07
3.510520e-06
2.160384e-05
1.013308e-05
-6.818074e-06
-8.969160e-06
-1.594024e-06
2.451805e-06
2.582065e-05
1.279945e-05
-7.694300e-06
-1.174608e-05
-4.192709e-06
-6.011134e-08
2.754360e-05
1.418323e-05
-7.006041e-06
-1.186561e-05
-4.885994e-06
-8.757053e-07
2.289377e-05
1.245947e-05
-4.814720e-06
-9.200692e-06
-3.318772e-06
1.092382e-07
1.714986e-05
9.311160e-06
-2.442741e-06
-5.067863e-06
-1.132158e-06
1.513468e-06
1.070418e-05
5.562010e-06
-1.052751e-06
-1.689098e-06
7.535421e-07
2.359935e-06
4.108236e-06
1.985083e-06
-5.049021e-07
6.597574e-08
1.860083e-06
2.716480e-06
1.502041e-06
5.989084e-07
-8.975937e-08
6.725075e-07
1.784591e-06
2.348872e-06
1.278021e-06
5.957845e-07
1.761586e-07
7.611639e-07
1.508297e-06
1.933035e-06
1.044023e-05
5.000408e-06
-4.831569e-06
-6.993239e-06
-1.650783e-07
4.432601e-06
1.180031e-05
5.464340e-06
-7.721622e-06
-1.048856e-05
-8.884431e-07
4.628630e-06
1.328391e-05
5.106671e-06
-1.178869e-05
-1.418251e-05
-2.518934e-06
2.820333e-06
1.060100e-05
4.357101e-06
-1.114567e-05
-1.523000e-05
-4.426821e-06
1.201814e-06
9.462338e-06
5.477716e-06
-8.552590e-06
-1.499787e-05
-5.288165e-06
8.211342e-07
1.118833e-05
6.609508e-06
-7.144132e-06
-1.211616e-05
-4.050065e-06
-1.867640e-07
8.398463e-06
5.684024e-06
-4.811457e-06
-9.125645e-06
-2.309806e-06
1.039177e-06
9.012914e-06
4.926176e-06
-3.393951e-06
-5.665878e-06
-4.000932e-07
2.904230e-06
8.970817e-06
3.851077e-06
-2.377442e-06
-1.739640e-06
1.551697e-06
3.096452e-06
4.156312e-06
2.255694e-06
-3.484125e-08
4.902585e-07
1.986107e-06
2.566938e-06
2.846444e-06
1.986256e-06
1.011491e-06
1.063871e-06
1.736865e-06
2.242901e-06
1.434692e-05
7.346816e-06
-7.618316e-06
-1.092939e-05
-1.489166e-06
3.297099e-06
1.627291e-05
8.888287e-06
-7.831519e-06
-1.169685e-05
-1.392650e-06
3.441696e-06
1.688529e-05
9.752507e-06
-4.207518e-06
-6.085587e-06
1.934805e-06
5.006027e-06
4.231914e-06
1.104284e-05
5.873664e-06
-7.307535e-07
7.240927e-06
9.836923e-06
-2.895734e-06
1.289743e-05
1.145492e-05
-9.119198e-07
7.489930e-06
1.102294e-05
1.235296e-05
1.240851e-05
5.171537e-06
-5.083702e-07
2.664634e-06
4.225008e-06
1.435782e-05
8.986537e-06
-2.683962e-06
-5.849511e-06
-1.706986e-06
-6.981275e-07
7.642554e-06
3.923918e-06
-6.889818e-06
-9.350999e-06
-1.920122e-06
8.768349e-07
9.222177e-06
2.646934e-06
-5.568385e-06
-4.432703e-06
5.147935e-07
2.686531e-06
5.538388e-06
2.883060e-06
-3.022232e-07
2.577390e-07
1.734739e-06
2.121823e-06
2.591411e-06
2.379609e-06
1.671489e-06
1.430361e-06
1.679135e-06
1.672721e-06
1.612062e-05
7.034181e-06
-1.100810e-05
-1.729796e-05
-8.773857e-06
-2.915736e-06
1.224359e-05
9.413835e-06
-2.683096e-06
-1.451969e-05
-1.057222e-05
-4.055337e-06
8.376415e-06
1.371399e-05
1.762626e-05
5.323021e-06
-3.753897e-06
-1.952885e-06
1.472592e-05
2.461724e-05
3.247159e-05
2.462083e-05
1.149474e-05
4.182450e-06
1.291207e-05
2.894239e-05
3.631406e-05
2.495229e-05
1.358870e-05
4.928234e-06
2.903431e-06
1.612896e-05
2.965508e-05
1.627494e-05
2.562095e-07
-2.081779e-06
1.199594e-06
5.396865e-06
8.288598e-06
-3.295814e-06
-1.079542e-05
-8.016160e-06
6.293890e-06
1.069005e-06
-1.164602e-05
-1.626725e-05
-9.564182e-06
-5.730013e-06
1.119883e-05
1.743339e-06
-1.099486e-05
-9.691873e-06
-2.945997e-06
-7.858096e-07
6.005642e-06
2.804578e-06
-1.111568e-06
-5.306640e-07
8.035976e-07
8.418712e-07
8.505075e-07
1.439900e-06
1.911990e-06
1.879034e-06
1.423370e-06
8.833612e-07
1.175589e-05
4.847131e-06
-1.176907e-05
-2.208696e-05
-1.483868e-05
-6.979951e-06
-9.464187e-07
6.512048e-06
3.223700e-06
-1.796969e-05
-1.912974e-05
-9.843216e-06
-8.236925e-06
1.280506e-05
3.439890e-05
1.018875e-05
-1.279525e-05
-1.101726e-05
2.386920e-05
3.013602e-05
4.785185e-05
4.033692e-05
6.410886e-06
-8.551220e-06
3.039604e-05
3.576022e-05
4.871110e-05
4.206280e-05
9.323837e-06
-9.180116e-06
-1.268383e-05
1.407898e-05
4.680964e-05
2.539294e-05
-7.404507e-06
-1.281741e-05
-2.462902e-05
-2.235739e-06
1.918530e-05
-3.762172e-06
-2.005109e-05
-1.436479e-05
1.940879e-06
-1.766641e-06
-1.314134e-05
-2.117243e-05
-1.580536e-05
-1.007437e-05
1.539902e-05
2.715575e-06
-1.428471e-05
-1.296665e-05
-5.477580e-06
-3.623429e-06
6.445948e-06
2.845924e-06
-1.590024e-06
-1.012742e-06
1.526308e-07
-9.520472e-08
-3.625482e-07
6.752972e-07
2.055541e-06
2.191495e-06
1.286670e-06
5.882878e-07
SCALARS E12 float 1
LOOKUP_TABLE default
-4.803532e-05
-5.972694e-06
-7.837184e-05
1.202620e-04
-4.803532e-05
-5.972694e-06
-7.837184e-05
1.202620e-04
1.226234e-05
-5.438705e-05
-2.912959e-05
2.756903e-05
1.226234e-05
-5.438705e-05
-2.912959e-05
2.756903e-05
-1.582973e-05
-1.891849e-05
-2.453634e-06
-1.582973e-05
-1.891849e-05
-2.453634e-06
7.910473e-05
5.397066e-05
7.924292e-05
5.185385e-05
7.910473e-05
5.397066e-05
7.924292e-05
5.185385e-05
7.139917e-05
-2.920008e-05
7.139917e-05
-2.920008e-05
5.669249e-05
4.773765e-05
5.669249e-05
4.773765e-05
-3.352122e-06
-6.606350e-06
2.508959e-05
3.550980e-05
-3.352122e-06
-6.606350e-06
2.508959e-05
3.550980e-05
4.488908e-05
5.457422e-05
-2.744398e-05
2.121403e-05
4.488908e-05
5.457422e-05
-2.744398e-05
2.121403e-05
-1.573022e-04
-2.537126e-04
3.014938e-05
8.354930e-05
-1.573022e-04
-2.537126e-04
3.014938e-05
8.354930e-05
-1.382366e-05
5.693791e-05
-1.382366e-05
5.693791e-05
-3.785877e-05
-3.785877e-05
-4.276704e-05
2.883684e-06
-4.276704e-05
2.883684e-06
6.013467e-05
-3.963336e-05
6.013467e-05
-3.963336e-05
-6.589499e-05
-6.589499e-05
-8.103193e-05
-8.103193e-05
-2.140743e-05
-2.140743e-05
2.914701e-06
1.135404e-05
2.181277e-05
2.914701e-06
1.135404e-05
2.181277e-05
-4.981440e-07
-1.038545e-05
-2.052770e-05
2.131379e-05
-4.981440e-07
-1.038545e-05
-2.052770e-05
2.131379e-05
1.120029e-05
1.120029e-05
1.433755e-05
4.315575e-05
1.433755e-05
4.315575e-05
3.383061e-05
3.383061e-05
-2.659552e-05
-2.659552e-05
-4.905625e-05
-4.905625e-05
-4.046953e-05
-4.046953e-05
-1.068944e-04
-1.068944e-04
-5.986702e-05
-5.986702e-05
-1.957726e-05
-1.957726e-05
1.039541e-04
1.039541e-04
-4.832008e-06
5.005347e-05
-4.832008e-06
5.005347e-05
6.211371e-06
6.211371e-06
2.638033e-06
2.638033e-06
1.555736e-06
1.555736e-06
8.577207e-07
8.577207e-07
-4.193524e-06
6.448951e-06
-4.193524e-06
6.448951e-06
5.522264e-06
5.522264e-06
-1.655773e-07
-1.655773e-07
2.297304e-06
2.297304e-06
2.891654e-06
2.891654e-06
-4.254710e-06
8.443527e-06
-4.254710e-06
8.443527e-06
2.189578e-06
2.189578e-06
1.752164e-08
1.752164e-08
1.266102e-06
1.266102e-06
1.538467e-06
1.538467e-06
-3.443675e-06
2.944633e-06
-3.443675e-06
2.944633e-06
1.059311e-06
1.059311e-06
4.291217e-07
4.291217e-07
3.261100e-07
3.261100e-07
-1.195329e-06
-1.195329e-06
-1.958789e-06
4.437807e-06
-1.958789e-06
4.437807e-06
7.704346e-07
7.704346e-07
1.172198e-06
1.172198e-06
-1.303425e-06
-1.303425e-06
-4.388543e-06
-4.388543e-06
-2.598509e-07
-8.935821e-08
-2.598509e-07
-8.935821e-08
7.457152e-07
7.457152e-07
-1.816847e-06
-1.816847e-06
-7.172954e-07
-7.172954e-07
-1.851820e-06
-1.851820e-06
1.732531e-06
-1.002001e-06
1.732531e-06
-1.002001e-06
1.442283e-06
1.442283e-06
-1.311859e-06
-1.311859e-06
2.430593e-06
2.430593e-06
3.489211e-06
3.489211e-06
-1.718356e-06
-2.014662e-07
-1.718356e-06
-2.014662e-07
2.274383e-06
2.274383e-06
2.912346e-06
2.912346e-06
3.659139e-06
3.659139e-06
5.380481e-06
5.380481e-06
-2.032868e-06
1.956604e-06
-2.032868e-06
1.956604e-06
3.517263e-06
3.517263e-06
5.086565e-06
5.086565e-06
1.627419e-06
1.627419e-06
2.389673e-06
2.389673e-06
2.735150e-06
3.918416e-06
2.735150e-06
3.918416e-06
5.151788e-06
5.151788e-06
3.347357e-06
3.347357e-06
-2.085410e-06
-2.085410e-06
-2.921881e-06
-2.921881e-06
5.379415e-06
6.326756e-07
5.379415e-06
6.326756e-07
5.296230e-06
5.296230e-06
-2.328619e-06
-2.328619e-06
-4.590721e-06
-4.590721e-06
-2.618363e-06
-2.618363e-06
5.586817e-06
-2.088330e-07
5.586817e-06
-2.088330e-07
3.488532e-06
3.488532e-06
-3.483859e-06
-3.483859e-06
-4.602872e-06
-4.602872e-06
-3.860925e-06
-3.860925e-06
2.951549e-06
-6.588743e-07
2.951549e-06
-6.588743e-07
1.210632e-06
1.210632e-06
-2.074096e-06
-2.074096e-06
-3.643937e-06
-3.643937e-06
-5.345264e-06
-5.345264e-06
7.214053e-07
-2.330106e-06
7.214053e-07
-2.330106e-06
2.334042e-07
2.334042e-07
-3.063701e-06
-3.063701e-06
-3.238214e-06
-3.238214e-06
-3.435341e-06
-3.435341e-06
-9.870387e-06
-9.465469e-06
-8.333493e-06
-6.584492e-06
-9.870387e-06
-9.465469e-06
-8.333493e-06
-6.584492e-06
-2.921645e-07
9.697842e-07
-2.921645e-07
9.697842e-07
-4.023451e-06
-1.787113e-06
-4.023451e-06
-1.787113e-06
1.682573e-06
1.682573e-06
7.690263e-07
2.349789e-06
7.690263e-07
2.349789e-06
-1.641812e-07
-1.641812e-07
3.462251e-06
4.426427e-06
3.462251e-06
4.426427e-06
-1.189804e-06
-1.189804e-06
7.064678e-07
2.301969e-06
7.064678e-07
2.301969e-06
-2.196855e-06
-2.196855e-06
-2.576361e-06
-1.147828e-06
-2.576361e-06
-1.147828e-06
-3.009120e-06
-3.009120e-06
1.946089e-05
4.739969e-05
1.946089e-05
4.739969e-05
3.010072e-05
3.010072e-05
1.634236e-05
1.634236e-05
9.697212e-06
9.697212e-06
4.002591e-06
4.002591e-06
2.103788e-08
2.103788e-08
-2.271781e-05
-2.835912e-05
-2.271781e-05
-2.835912e-05
-1.479424e-05
-1.479424e-05
-1.499261e-05
-1.499261e-05
-1.467046e-05
-1.467046e-05
-1.241373e-05
-1.241373e-05
-1.007424e-05
-1.007424e-05
-1.431116e-05
-1.431116e-05
-1.933857e-05
-1.933857e-05
-2.590792e-05
-2.590792e-05
-3.359365e-05
-3.359365e-05
-3.842195e-05
-3.842195e-05
-2.883957e-05
-2.883957e-05
-1.575711e-05
-1.575711e-05
4.528232e-05
4.528232e-05
1.954415e-05
5.623720e-06
8.669630e-07
2.434247e-06
1.954415e-05
5.623720e-06
8.669630e-07
2.434247e-06
5.630528e-06
-3.342593e-06
2.407796e-06
-4.138124e-07
5.630528e-06
-3.342593e-06
2.407796e-06
-4.138124e-07
-3.425220e-06
-2.957988e-06
-7.309111e-07
-2.976240e-06
-3.425220e-06
-2.957988e-06
-7.309111e-07
-2.976240e-06
7.308899e-06
7.155393e-06
-3.552870e-06
7.308899e-06
7.155393e-06
-3.552870e-06
-1.233087e-05
-2.888868e-05
-1.233087e-05
-2.888868e-05
-4.672246e-06
4.613907e-06
3.376055e-06
7.714814e-06
-4.672246e-06
4.613907e-06
3.376055e-06
7.714814e-06
8.338658e-06
-4.013375e-06
8.338658e-06
-4.013375e-06
-5.081084e-06
4.274259e-06
-5.081084e-06
4.274259e-06
2.958818e-06
1.274902e-06
1.620762e-06
2.958818e-06
1.274902e-06
1.620762e-06
-2.409427e-06
-2.409427e-06
-3.186369e-06
-3.344988e-06
-3.186369e-06
-3.344988e-06
-4.794823e-06
-3.992713e-05
-4.794823e-06
-3.992713e-05
-2.033746e-05
-2.033746e-05
-4.632041e-06
-4.632041e-06
-2.694841e-05
-8.539072e-06
-1.776127e-05
-2.694841e-05
-8.539072e-06
-1.776127e-05
-4.127237e-05
-4.151346e-05
-9.361357e-06
-1.163268e-05
-4.127237e-05
-4.151346e-05
-9.361357e-06
-1.163268e-05
3.188661e-05
4.142860e-06
3.188661e-05
4.142860e-06
1.351343e-05
1.351343e-05
-1.294996e-05
-1.412556e-05
-9.654810e-06
-4.586313e-05
-1.294996e-05
-1.412556e-05
-9.654810e-06
-4.586313e-05
-3.512446e-05
-3.512446e-05
8.789810e-06
8.789810e-06
9.795239e-06
9.795239e-06
-8.167619e-08
-8.167619e-08
-5.091133e-06
-5.091133e-06
-7.490368e-06
-7.490368e-06
-4.377503e-06
5.501464e-06
-4.377503e-06
5.501464e-06
-3.595633e-06
1.816049e-06
-3.595633e-06
1.816049e-06
-5.413153e-06
-3.153840e-06
-5.413153e-06
-3.153840e-06
-1.008516e-06
-6.377568e-06
-1.008516e-06
-6.377568e-06
6.537221e-07
-7.261591e-06
6.537221e-07
-7.261591e-06
6.052019e-06
-4.711045e-06
6.052019e-06
-4.711045e-06
4.112313e-06
-5.022331e-06
4.112313e-06
-5.022331e-06
-2.359841e-06
-5.487200e-06
-2.359841e-06
-5.487200e-06
1.053452e-06
9.602332e-07
1.053452e-06
9.602332e-07
2.871601e-06
3.444683e-06
2.871601e-06
3.444683e-06
-2.869909e-07
1.920790e-06
-2.869909e-07
1.920790e-06
1.774441e-07
2.855181e-06
1.774441e-07
2.855181e-06
9.941755e-08
1.885822e-06
9.941755e-08
1.885822e-06
-1.011478e-06
5.765361e-07
-1.011478e-06
5.765361e-07
6.325546e-06
6.325546e-06
8.482480e-06
8.482480e-06
3.081500e-06
3.081500e-06
-6.660368e-07
-6.660368e-07
-7.895087e-08
-7.895087e-08
-3.085784e-06
-3.085784e-06
-4.149294e-06
-4.149294e-06
-1.547709e-06
-1.547709e-06
1.574975e-06
1.574975e-06
3.396602e-06
3.396602e-06
3.686524e-06
3.686524e-06
5.369223e-06
5.369223e-06
3.372937e-06
3.372937e-06
2.274143e-07
2.274143e-07
3.429276e-06
3.429276e-06
1.656388e-06
1.656388e-06
2.618492e-06
2.618492e-06
3.579999e-06
3.579999e-06
2.521080e-06
2.521080e-06
2.249236e-06
2.249236e-06
4.337708e-06
4.337708e-06
4.398619e-06
4.398619e-06
-3.681633e-07
-3.681633e-07
-9.604062e-07
-9.604062e-07
2.668895e-06
2.668895e-06
3.371737e-06
3.371737e-06
4.406345e-07
4.406345e-07
-2.006963e-06
-2.006963e-06
1.821247e-06
1.821247e-06
2.548452e-06
2.548452e-06
-9.489900e-08
-9.489900e-08
1.027628e-06
1.027628e-06
-2.529195e-07
-2.529195e-07
3.310591e-07
3.310591e-07
3.814928e-06
3.814928e-06
1.770933e-06
1.770933e-06
-4.906374e-06
-4.906374e-06
-4.871750e-06
-4.871750e-06
-6.310503e-07
-6.310503e-07
-1.927205e-06
-1.927205e-06
-3.504392e-06
-3.504392e-06
-2.947008e-06
-2.947008e-06
1.986950e-06
1.986950e-06
5.349359e-06
5.349359e-06
-2.418070e-07
-2.418070e-07
-2.782693e-07
-2.782693e-07
1.621326e-06
1.621326e-06
2.338448e-07
2.338448e-07
1.108975e-06
1.108975e-06
-3.168936e-06
-3.168936e-06
-7.627502e-06
-7.627502e-06
-4.653627e-06
-4.653627e-06
-2.219360e-06
-2.219360e-06
-4.537356e-06
-4.537356e-06
-4.645019e-06
-4.645019e-06
-2.895155e-06
-2.895155e-06
-4.837509e-06
-7.214487e-06
-4.837509e-06
-7.214487e-06
-2.885610e-07
-2.885610e-07
2.926271e-06
2.926271e-06
4.916162e-06
4.916162e-06
4.298378e-06
4.298378e-06
1.658763e-06
1.658763e-06
-1.647409e-07
-1.647409e-07
-1.720299e-06
-1.720299e-06
-9.486089e-07
-2.827358e-06
-9.486089e-07
-2.827358e-06
-9.105596e-08
-9.105596e-08
2.539602e-06
2.539602e-06
2.813568e-06
2.813568e-06
3.398408e-06
3.398408e-06
2.194545e-06
2.194545e-06
-7.381537e-07
-7.381537e-07
-1.275506e-06
-1.275506e-06
8.139177e-07
4.709426e-08
8.139177e-07
4.709426e-08
-1.951043e-06
-1.951043e-06
3.936054e-07
3.936054e-07
2.296543e-07
2.296543e-07
1.681344e-07
1.681344e-07
1.961766e-06
1.961766e-06
9.425276e-07
9.425276e-07
2.304809e-07
2.304809e-07
4.075444e-06
2.879547e-06
4.075444e-06
2.879547e-06
2.567401e-06
2.567401e-06
1.346378e-06
1.346378e-06
1.242468e-06
1.242468e-06
-2.086243e-06
-2.086243e-06
-5.911699e-07
-5.911699e-07
1.723406e-06
1.723406e-06
2.277251e-08
2.277251e-08
3.300139e-06
3.281773e-06
3.300139e-06
3.281773e-06
1.815982e-06
1.815982e-06
3.874385e-07
3.874385e-07
-2.882184e-07
-2.882184e-07
-1.564479e-06
-1.564479e-06
-3.095892e-07
-3.095892e-07
1.729918e-06
1.729918e-06
1.722645e-06
1.722645e-06
1.124417e-06
3.282587e-06
1.124417e-06
3.282587e-06
-9.745209e-07
-9.745209e-07
1.871907e-06
1.871907e-06
3.628326e-07
3.628326e-07
-1.179343e-06
-1.179343e-06
-9.824772e-07
-9.824772e-07
-6.002240e-07
-6.002240e-07
5.778953e-07
5.778953e-07
-3.775120e-06
-3.517010e-08
-3.507003e-06
-6.239259e-06
-3.775120e-06
-3.517010e-08
-3.507003e-06
-6.239259e-06
-3.014779e-06
-5.207614e-06
-3.014779e-06
-5.207614e-06
-1.128606e-06
-2.315323e-06
-1.128606e-06
-2.315323e-06
-2.587557e-06
2.792241e-08
-2.587557e-06
2.792241e-08
-9.297298e-07
5.642135e-06
-9.297298e-07
5.642135e-06
-3.451300e-06
1.660417e-06
-3.451300e-06
1.660417e-06
1.031957e-05
1.620549e-05
1.031957e-05
1.620549e-05
2.482413e-06
3.694360e-06
2.482413e-06
3.694360e-06
6.025750e-06
6.025750e-06
6.106492e-06
6.106492e-06
1.409828e-06
1.409828e-06
-6.042767e-06
-6.042767e-06
-2.498191e-06
-2.498191e-06
4.976715e-06
4.976715e-06
9.602247e-06
9.602247e-06
1.800869e-06
1.800869e-06
-1.984855e-07
-1.984855e-07
-1.693223e-06
-1.693223e-06
8.629636e-07
8.629636e-07
-6.039751e-07
-6.039751e-07
2.128025e-06
2.128025e-06
-1.563036e-06
-1.563036e-06
-4.447292e-07
-4.447292e-07
1.588207e-06
1.588207e-06
-1.390738e-06
-1.390738e-06
-1.738128e-06
-1.738128e-06
-1.677457e-06
-1.677457e-06
-7.387064e-07
-7.387064e-07
-9.963397e-08
-9.963397e-08
3.280547e-06
3.280547e-06
-1.620503e-06
-1.620503e-06
1.821562e-06
1.821562e-06
8.097777e-06
8.097777e-06
-2.085334e-06
-2.834990e-06
-2.085334e-06
-2.834990e-06
-2.667131e-06
-1.002583e-06
-2.667131e-06
-1.002583e-06
-1.535579e-06
-4.167288e-07
-1.535579e-06
-4.167288e-07
-1.601432e-06
-2.384188e-06
-1.601432e-06
-2.384188e-06
-1.100444e-06
-3.027800e-06
-1.100444e-06
-3.027800e-06
-2.534039e-06
-2.534039e-06
-9.853861e-07
-9.853861e-07
-9.461788e-07
-9.461788e-07
-2.343850e-06
-2.343850e-06
-2.262450e-06
-2.262450e-06
-2.571769e-06
-2.571769e-06
-3.430218e-06
-3.430218e-06
-2.569237e-06
-2.569237e-06
-2.016323e-06
-2.016323e-06
9.734681e-07
9.734681e-07
1.646393e-06
1.646393e-06
-2.067771e-06
-2.067771e-06
-1.548079e-06
-1.548079e-06
-3.916301e-07
-3.916301e-07
9.152129e-07
9.152129e-07
3.155397e-06
3.155397e-06
2.463183e-06
2.463183e-06
-7.145247e-07
-7.145247e-07
-2.266981e-06
-2.266981e-06
-2.012450e-06
-2.012450e-06
8.104891e-07
8.104891e-07
1.448299e-06
1.448299e-06
-2.327647e-06
-2.327647e-06
-3.221521e-06
-3.221521e-06
-2.667355e-06
-2.667355e-06
3.745009e-06
3.745009e-06
6.596669e-07
6.596669e-07
2.146156e-06
2.146156e-06
1.850198e-06
1.850198e-06
-2.130871e-06
-2.130871e-06
6.881877e-06
6.881877e-06
2.442553e-06
2.442553e-06
6.876742e-06
6.876742e-06
5.290083e-06
5.290083e-06
-1.730507e-06
-1.730507e-06
-1.080058e-05
-1.080058e-05
-6.714904e-06
-6.714904e-06
-4.869730e-06
-4.869730e-06
1.426125e-06
1.426125e-06
1.751137e-06
1.751137e-06
1.865037e-07
1.865037e-07
-1.453552e-05
-1.453552e-05
-8.946950e-06
-8.946950e-06
-6.903989e-06
-6.903989e-06
-3.121429e-06
-3.121429e-06
-1.743266e-06
-1.743266e-06
1.556835e-06
1.556835e-06
-1.460093e-05
-1.460093e-05
-1.189537e-05
-1.189537e-05
-9.722632e-06
-9.722632e-06
-6.614017e-06
-6.614017e-06
-4.941107e-06
-4.941107e-06
5.257276e-06
5.257276e-06
-1.163142e-05
-1.163142e-05
-1.405896e-05
-1.405896e-05
-8.763491e-06
-8.763491e-06
-3.391597e-06
-3.391597e-06
-1.753438e-06
-1.753438e-06
6.863312e-06
6.863312e-06
-1.209944e-05
-1.209944e-05
-1.892461e-05
-1.892461e-05
-1.108901e-05
-1.108901e-05
-4.136947e-06
-4.136947e-06
-1.495444e-06
-1.495444e-06
7.951543e-06
7.951543e-06
-1.282131e-05
-1.282131e-05
-2.552964e-05
-2.552964e-05
-2.239415e-05
-2.239415e-05
-6.670304e-06
-6.670304e-06
-4.368434e-06
-4.368434e-06
4.971463e-06
4.971463e-06
-1.670196e-05
-1.670196e-05
-2.453160e-05
-2.453160e-05
-2.632502e-05
-2.632502e-05
-8.193660e-06
-8.193660e-06
-1.311099e-05
-1.311099e-05
-2.040028e-06
-2.040028e-06
-2.312670e-05
-2.312670e-05
-1.529878e-05
-1.529878e-05
-2.436215e-05
-2.436215e-05
-2.217332e-05
-2.217332e-05
-3.110871e-05
-3.110871e-05
-1.388981e-05
-1.388981e-05
-2.612065e-05
-2.612065e-05
-7.043459e-06
-7.043459e-06
-1.975306e-05
-1.975306e-05
-5.167791e-05
-5.167791e-05
-7.370571e-05
-7.370571e-05
-1.314368e-05
-1.314368e-05
-3.883508e-05
-3.883508e-05
-1.327614e-05
-1.327614e-05
-1.421341e-05
-1.421341e-05
-6.513302e-05
-6.513302e-05
-1.831420e-04
-1.831420e-04
-7.422578e-05
-7.422578e-05
-5.128793e-05
-5.128793e-05
-5.050292e-05
-5.050292e-05
-1.792632e-05
-1.792632e-05
4.460008e-06
4.460008e-06
-2.805510e-04
-2.805510e-04
-1.699310e-04
-1.699310e-04
-5.298107e-05
-5.298107e-05
-9.206397e-05
-9.206397e-05
-1.574310e-05
-1.574310e-05
1.499185e-04
1.499185e-04
-1.285537e-04
-1.285537e-04
-8.614014e-05
-8.614014e-05
-7.853885e-05
-7.853885e-05
-8.251760e-06
-8.251760e-06
2.211531e-04
2.211531e-04
8.993168e-04
8.993168e-04
4.070019e-04
4.070019e-04
-2.656126e-04
-2.656126e-04
-2.180722e-04
-2.180722e-04
5.044228e-05
5.044228e-05
5.618085e-04
5.618085e-04
5.737192e-04
5.737192e-04
-2.099483e-03
-2.099483e-03
-3.856694e-03
-3.856694e-03
-4.030758e-04
-4.030758e-04
-1.085462e-04
-1.085462e-04
2.958301e-03
2.958301e-03
4.196256e-03
4.196256e-03
-2.932280e-03
-2.932280e-03
-1.342069e-02
-1.342069e-02
-2.882681e-04
-2.882681e-04
1.785915e-04
1.785915e-04
4.638517e-03
4.638517e-03
9.991187e-03
9.991187e-03
6.789502e-03
6.789502e-03
-5.744944e-03
-5.744944e-03
2.610457e-04
2.610457e-04
6.874029e-04
6.874029e-04
1.558284e-03
1.558284e-03
2.767581e-03
2.767581e-03
8.066981e-03
8.066981e-03
1.341343e-02
1.341343e-02
6.010351e-04
6.010351e-04
7.178068e-04
7.178068e-04
-8.413586e-04
-8.413586e-04
-4.496610e-03
-4.496610e-03
-9.442353e-04
-9.442353e-04
8.202850e-03
8.202850e-03
4.172220e-04
4.172220e-04
4.314364e-04
4.314364e-04
-5.501293e-04
-5.501293e-04
-2.020033e-03
-2.020033e-03
-1.978860e-03
-1.978860e-03
-1.088503e-03
-1.088503e-03
1.519172e-04
1.519172e-04
1.629399e-04
1.629399e-04
-2.068778e-04
-2.068778e-04
-5.052979e-04
-5.052979e-04
-1.529719e-04
-1.529719e-04
9.326527e-05
9.326527e-05
4.333410e-05
4.333410e-05
9.955118e-05
9.955118e-05
-8.162108e-05
-8.162108e-05
-2.403862e-04
-2.403862e-04
5.218515e-05
5.218515e-05
1.349498e-04
1.349498e-04
3.941087e-05
3.941087e-05
8.834587e-05
8.834587e-05
-8.298161e-05
-8.298161e-05
-1.509606e-04
-1.509606e-04
-5.488541e-05
-5.488541e-05
1.260234e-06
1.260234e-06
3.071829e-06
3.071829e-06
1.520293e-06
1.520293e-06
1.059845e-06
1.059845e-06
1.088018e-05
1.088018e-05
1.137687e-05
1.137687e-05
5.883434e-06
5.883434e-06
1.028055e-05
1.028055e-05
1.008077e-05
1.008077e-05
1.834076e-05
1.834076e-05
2.383965e-05
2.383965e-05
7.096873e-06
7.096873e-06
2.141883e-05
2.141883e-05
9.098825e-05
9.098825e-05
1.075266e-04
1.075266e-04
7.986453e-07
7.986453e-07
-4.276406e-05
-4.276406e-05
-6.635918e-05
-6.635918e-05
-1.143662e-04
-1.143662e-04
-7.396682e-05
-7.396682e-05
-2.596342e-05
-2.596342e-05
-6.312249e-06
-6.312249e-06
-8.724867e-07
-8.724867e-07
2.104935e-06
2.104935e-06
-4.958818e-07
-4.958818e-07
1.585446e-06
1.585446e-06
8.563910e-06
8.563910e-06
1.160425e-05
1.160425e-05
1.028035e-05
1.028035e-05
1.252299e-05
1.252299e-05
1.403782e-07
1.403782e-07
1.339020e-06
1.339020e-06
4.537140e-05
4.537140e-05
5.512823e-05
5.512823e-05
5.457782e-05
5.457782e-05
1.318448e-04
1.318448e-04
2.912083e-04
2.912083e-04
2.859538e-04
2.859538e-04
2.834804e-05
2.834804e-05
-1.833287e-04
-1.833287e-04
-2.052407e-04
-2.052407e-04
-1.217840e-04
-1.217840e-04
-2.377752e-05
-2.377752e-05
2.574747e-05
2.574747e-05
-2.912154e-07
-2.912154e-07
3.842344e-06
3.842344e-06
3.735531e-06
3.735531e-06
5.679327e-06
5.679327e-06
1.180095e-05
1.180095e-05
1.435285e-05
1.435285e-05
1.185482e-05
1.185482e-05
9.492947e-06
9.492947e-06
7.830264e-06
7.830264e-06
-1.917355e-05
-1.917355e-05
4.947137e-05
4.947137e-05
1.695950e-04
1.695950e-04
6.669316e-05
6.669316e-05
-1.774218e-04
-1.774218e-04
-1.930127e-04
-1.930127e-04
-1.160997e-04
-1.160997e-04
-6.692302e-05
-6.692302e-05
2.348598e-04
2.348598e-04
2.080992e-04
2.080992e-04
-3.206362e-05
-3.206362e-05
5.518265e-06
5.518265e-06
2.615568e-05
2.615568e-05
2.373014e-06
2.373014e-06
5.895248e-06
5.895248e-06
7.346471e-06
7.346471e-06
9.672207e-06
9.672207e-06
1.046928e-05
1.046928e-05
1.018733e-05
1.018733e-05
3.340710e-06
3.340710e-06
-5.126411e-06
-5.126411e-06
-7.999566e-06
-7.999566e-06
-6.597642e-05
-6.597642e-05
-5.378679e-05
-5.378679e-05
2.021328e-04
2.021328e-04
-2.025342e-05
-2.025342e-05
-1.530543e-03
-1.530543e-03
-4.589185e-03
-4.589185e-03
-4.363366e-03
-4.363366e-03
3.036114e-03
3.036114e-03
5.294802e-03
5.294802e-03
1.329074e-03
1.329074e-03
2.099497e-04
2.099497e-04
7.276830e-05
7.276830e-05
4.546080e-05
4.546080e-05
1.590556e-06
1.590556e-06
5.291826e-06
5.291826e-06
1.101259e-05
1.101259e-05
1.356226e-05
1.356226e-05
1.312529e-05
1.312529e-05
1.382417e-05
1.382417e-05
8.132359e-06
8.132359e-06
2.074815e-06
2.074815e-06
1.244448e-05
1.244448e-05
7.191423e-08
7.191423e-08
3.906975e-05
3.906975e-05
2.207363e-04
2.207363e-04
-8.829893e-05
-8.829893e-05
-2.958268e-03
-2.958268e-03
-1.342491e-02
-1.342491e-02
-1.101771e-02
-1.101771e-02
1.003751e-02
1.003751e-02
1.069004e-02
1.069004e-02
5.664340e-04
5.664340e-04
1.522830e-04
1.522830e-04
-4.644688e-05
-4.644688e-05
7.661724e-05
7.661724e-05
2.906667e-05
2.384561e-05
1.305962e-05
-1.604719e-06
-1.876602e-05
-2.682793e-05
1.490741e-05
1.302352e-05
8.039227e-06
-1.345355e-06
-1.380663e-05
-1.998373e-05
-6.499607e-06
-3.147858e-06
2.267760e-07
-1.474590e-06
-6.360432e-06
-9.522024e-06
-1.095352e-05
-6.828465e-06
-1.770176e-06
-9.039470e-07
-1.858203e-06
-2.745451e-06
-1.341830e-06
-1.581433e-06
-1.126233e-06
3.629568e-07
2.208532e-06
3.259720e-06
7.973271e-06
3.920995e-06
-3.977118e-09
1.456164e-06
5.290145e-06
7.791287e-06
1.090942e-05
6.490781e-06
1.230754e-06
2.418984e-06
7.250207e-06
1.005181e-05
6.441507e-06
4.284040e-06
1.278445e-06
3.104855e-06
8.080373e-06
1.038135e-05
-6.049415e-07
-1.895639e-07
9.835372e-07
3.230401e-06
6.691011e-06
8.662481e-06
-1.581939e-06
-1.029149e-06
3.010134e-07
1.696333e-06
3.413963e-06
4.513645e-06
-4.192828e-07
-2.475824e-07
-2.174456e-10
5.453167e-07
1.426671e-06
1.838155e-06
3.302832e-05
2.867940e-05
1.617487e-05
-1.563452e-06
-2.062088e-05
-3.009560e-05
1.841990e-05
1.759668e-05
1.225532e-05
-2.798170e-07
-1.654739e-05
-2.479795e-05
-7.882449e-06
-3.322150e-06
3.159278e-06
8.771422e-07
-8.652265e-06
-1.397841e-05
-1.458388e-05
-1.001083e-05
-2.260085e-06
2.795250e-07
-2.033125e-06
-3.707691e-06
4.070945e-08
-5.372239e-07
-1.159775e-06
2.484816e-07
3.263792e-06
4.826227e-06
1.167857e-05
6.684499e-06
-7.949423e-07
4.343105e-08
7.690604e-06
1.201403e-05
1.005712e-05
4.554868e-06
-2.184417e-06
1.272752e-06
1.144481e-05
1.692267e-05
1.509242e-06
-6.663773e-07
-1.256812e-06
4.614815e-06
1.320621e-05
1.751117e-05
-4.957028e-06
-3.459140e-06
2.055551e-07
5.273191e-06
1.126238e-05
1.435075e-05
-5.059876e-06
-3.236643e-06
1.504148e-07
3.144271e-06
6.425244e-06
8.276188e-06
-3.617105e-06
-2.417453e-06
-2.835607e-08
1.824768e-06
3.466534e-06
4.444620e-06
3.820521e-05
3.416286e-05
2.378537e-05
4.905787e-06
-2.072733e-05
-3.381599e-05
2.589328e-05
2.556033e-05
2.296485e-05
7.910494e-06
-1.738878e-05
-2.989621e-05
-1.495454e-05
-2.890717e-06
1.632149e-05
1.270078e-05
-8.308007e-06
-1.854770e-05
-2.852785e-05
-1.589814e-05
4.450046e-06
8.612386e-06
5.236255e-07
-4.008993e-06
1.273527e-05
6.632109e-06
-2.152756e-06
-1.894237e-06
4.314482e-06
7.582983e-06
2.873405e-05
1.272032e-05
-1.165646e-05
-1.070989e-05
7.769569e-06
1.693940e-05
-2.153959e-06
-8.810312e-06
-1.895522e-05
-9.902574e-06
1.396137e-05
2.528412e-05
-1.831375e-05
-1.701255e-05
-1.245997e-05
-1.003026e-07
1.827501e-05
2.754203e-05
-1.357718e-05
-1.154366e-05
-4.931761e-06
5.494875e-06
1.686808e-05
2.239304e-05
-1.045102e-05
-7.397460e-06
-1.283836e-06
4.580230e-06
1.020941e-05
1.303460e-05
-7.634967e-06
-4.992696e-06
-3.196109e-07
2.882369e-06
5.833145e-06
7.612755e-06
3.991031e-05
3.655243e-05
3.074293e-05
1.146668e-05
-1.935235e-05
-3.334675e-05
1.534106e-05
2.170730e-05
3.309983e-05
1.972689e-05
-1.499939e-05
-3.132642e-05
-3.412527e-05
-1.423144e-05
2.451555e-05
3.004458e-05
-1.791471e-06
-2.030339e-05
-2.381638e-05
-1.703496e-05
5.758057e-06
1.988545e-05
7.396835e-06
-3.207576e-06
1.360088e-05
8.822343e-06
-2.838575e-06
-6.770424e-06
2.762410e-06
9.344713e-06
3.097373e-05
1.553356e-05
-1.926229e-05
-2.913828e-05
-1.530479e-06
1.659762e-05
1.015797e-05
-7.245028e-06
-3.663716e-05
-3.100304e-05
4.180795e-06
2.174138e-05
-3.101974e-05
-3.054487e-05
-2.970271e-05
-1.469742e-05
1.185388e-05
2.376718e-05
-2.870269e-05
-2.480237e-05
-1.498149e-05
-1.562259e-06
1.266629e-05
1.939617e-05
-1.609040e-05
-1.305876e-05
-6.663569e-06
1.792683e-07
6.873149e-06
1.008774e-05
-1.099555e-05
-8.434918e-06
-4.400966e-06
-9.725969e-07
2.904275e-06
4.826094e-06
6.771127e-05
5.171601e-05
2.288971e-05
-7.869962e-07
-1.972047e-05
-2.780828e-05
4.447901e-06
8.459775e-06
1.372803e-05
6.502898e-06
-1.455130e-05
-2.712398e-05
-3.797036e-05
-4.044915e-05
-8.207781e-06
2.154229e-05
-1.050182e-06
-1.867256e-05
2.337213e-05
-1.978094e-05
-2.143490e-05
1.912709e-05
7.051749e-06
-4.086467e-06
-2.668155e-06
1.452612e-05
9.461408e-06
-9.530695e-06
5.548497e-07
7.373504e-06
-6.789518e-06
2.871242e-05
1.534547e-05
-2.901076e-05
-6.499137e-06
1.149983e-05
3.150790e-05
1.472602e-05
-1.402540e-05
-2.199006e-05
-4.071952e-06
9.841280e-06
-1.141150e-05
-1.380189e-05
-1.572450e-05
-1.045638e-05
1.478833e-06
8.613694e-06
-2.416412e-05
-1.903555e-05
-1.251051e-05
-6.270316e-06
2.352106e-06
6.130801e-06
-1.486958e-05
-1.314327e-05
-9.936538e-06
-5.941630e-06
-1.287234e-06
8.526868e-07
-1.162293e-05
-1.035871e-05
-8.370028e-06
-6.273015e-06
-3.463353e-06
-2.026236e-06
9.502237e-05
6.513969e-05
1.257416e-05
-1.317360e-05
-1.971514e-05
-2.319178e-05
8.067835e-06
2.455768e-06
-9.285317e-06
-1.141271e-05
-1.459323e-05
-2.177538e-05
-2.833397e-05
-5.472041e-05
-3.889548e-05
5.168093e-06
-4.189336e-06
-1.539896e-05
5.553557e-05
-2.409506e-05
-4.273583e-05
1.424506e-05
2.565127e-06
-5.105837e-06
-8.490781e-06
2.416479e-05
2.148777e-05
-9.443022e-06
-1.052068e-07
4.830814e-06
-3.344226e-05
4.235036e-05
4.748850e-05
-1.979544e-05
-4.489241e-06
7.446435e-06
2.918713e-05
2.370251e-05
1.291267e-05
-1.905701e-06
-4.222168e-06
2.974518e-06
6.011999e-06
5.077676e-06
6.828557e-06
2.156706e-06
-2.532120e-06
1.361104e-07
-8.768106e-06
-4.824978e-06
-4.349139e-06
-5.742346e-06
-2.725967e-06
-1.783670e-06
-9.922564e-06
-9.519810e-06
-9.113425e-06
-7.673545e-06
-5.338462e-06
-4.439627e-06
-9.709761e-06
-9.245661e-06
-8.520852e-06
-7.940318e-06
-6.575363e-06
-5.530233e-06
SCALARS E23 float 1
LOOKUP_TABLE default
-2.003984e-05
-1.484924e-04
-1.802578e-04
-1.590262e-04
-2.003984e-05
-1.484924e-04
-1.802578e-04
-1.590262e-04
1.113857e-04
3.673966e-05
-2.087901e-05
9.929501e-05
1.113857e-04
3.673966e-05
-2.087901e-05
9.929501e-05
6.863095e-05
6.356486e-05
4.365308e-05
6.863095e-05
6.356486e-05
4.365308e-05
5.427877e-05
1.547142e-05
1.714948e-05
5.810559e-05
5.427877e-05
1.547142e-05
1.714948e-05
5.810559e-05
1.502081e-05
7.566026e-06
1.502081e-05
7.566026e-06
9.372719e-05
1.340478e-04
9.372719e-05
1.340478e-04
-2.685789e-06
2.730435e-05
7.443263e-05
5.007233e-05
-2.685789e-06
2.730435e-05
7.443263e-05
5.007233e-05
5.488541e-05
1.610015e-04
1.694986e-04
4.731297e-05
5.488541e-05
1.610015e-04
1.694986e-04
4.731297e-05
-2.034570e-06
-5.758434e-05
1.671782e-05
1.114082e-05
-2.034570e-06
-5.758434e-05
1.671782e-05
1.114082e-05
1.044465e-04
-3.769144e-05
1.044465e-04
-3.769144e-05
1.740438e-04
1.740438e-04
1.762325e-04
1.699492e-04
1.762325e-04
1.699492e-04
5.480244e-05
8.626322e-05
5.480244e-05
8.626322e-05
-2.833286e-05
-2.833286e-05
-9.080032e-05
-9.080032e-05
4.807434e-05
4.807434e-05
5.717365e-07
-4.741748e-05
-3.971430e-05
5.717365e-07
-4.741748e-05
-3.971430e-05
-1.521013e-05
-2.910438e-05
-1.270031e-05
-1.994531e-05
-1.521013e-05
-2.910438e-05
-1.270031e-05
-1.994531e-05
-1.927052e-07
-1.927052e-07
5.991802e-05
1.962097e-05
5.991802e-05
1.962097e-05
1.006127e-04
1.006127e-04
6.392415e-05
6.392415e-05
1.189638e-04
1.189638e-04
-8.077229e-06
-8.077229e-06
-2.518226e-05
-2.518226e-05
-5.985392e-06
-5.985392e-06
-2.983362e-05
-2.983362e-05
-9.582306e-05
-9.582306e-05
2.920161e-05
3.112370e-05
2.920161e-05
3.112370e-05
5.200049e-06
5.200049e-06
-1.493660e-05
-1.493660e-05
-1.540616e-05
-1.540616e-05
-1.067579e-05
-1.067579e-05
2.469726e-05
2.223917e-05
2.469726e-05
2.223917e-05
1.941229e-05
1.941229e-05
9.447402e-06
9.447402e-06
1.478703e-06
1.478703e-06
-1.349136e-06
-1.349136e-06
1.708750e-05
1.833806e-05
1.708750e-05
1.833806e-05
1.479492e-05
1.479492e-05
9.542787e-06
9.542787e-06
6.368204e-06
6.368204e-06
5.021047e-06
5.021047e-06
1.371261e-05
1.766807e-05
1.371261e-05
1.766807e-05
1.084089e-05
1.084089e-05
7.382042e-06
7.382042e-06
4.182487e-06
4.182487e-06
2.576674e-06
2.576674e-06
9.738496e-06
1.065332e-05
9.738496e-06
1.065332e-05
7.367143e-06
7.367143e-06
4.574374e-06
4.574374e-06
2.680590e-06
2.680590e-06
1.528248e-06
1.528248e-06
7.561030e-06
5.878847e-06
7.561030e-06
5.878847e-06
5.963883e-06
5.963883e-06
2.612598e-06
2.612598e-06
1.789296e-06
1.789296e-06
1.154973e-06
1.154973e-06
5.302167e-06
3.045462e-06
5.302167e-06
3.045462e-06
4.736566e-06
4.736566e-06
1.963540e-06
1.963540e-06
1.231734e-06
1.231734e-06
4.705067e-07
4.705067e-07
1.223613e-06
2.040308e-06
1.223613e-06
2.040308e-06
2.097398e-06
2.097398e-06
2.167979e-06
2.167979e-06
7.576222e-07
7.576222e-07
1.496929e-07
1.496929e-07
-8.721982e-07
1.210916e-06
-8.721982e-07
1.210916e-06
4.004702e-07
4.004702e-07
1.757094e-06
1.757094e-06
4.145357e-07
4.145357e-07
1.360976e-07
1.360976e-07
-7.262166e-08
8.103063e-07
-7.262166e-08
8.103063e-07
1.958677e-07
1.958677e-07
4.763626e-07
4.763626e-07
1.653803e-07
1.653803e-07
2.383678e-07
2.383678e-07
7.450275e-07
7.946008e-08
7.450275e-07
7.946008e-08
1.720790e-08
1.720790e-08
-5.407151e-07
-5.407151e-07
1.483470e-07
1.483470e-07
1.816590e-07
1.816590e-07
6.162206e-07
-7.572539e-08
6.162206e-07
-7.572539e-08
-1.138207e-07
-1.138207e-07
-5.042302e-07
-5.042302e-07
2.485567e-07
2.485567e-07
2.694696e-07
2.694696e-07
5.057818e-07
2.321245e-07
5.057818e-07
2.321245e-07
2.026581e-07
2.026581e-07
-8.132483e-09
-8.132483e-09
1.886315e-07
1.886315e-07
1.407146e-07
1.407146e-07
4.445096e-07
4.156064e-07
4.445096e-07
4.156064e-07
3.926438e-07
3.926438e-07
2.243370e-07
2.243370e-07
1.114009e-07
1.114009e-07
8.124595e-08
8.124595e-08
-2.355905e-06
-1.201984e-06
-3.573553e-06
-1.337114e-06
-2.355905e-06
-1.201984e-06
-3.573553e-06
-1.337114e-06
1.684459e-06
5.278738e-07
1.684459e-06
5.278738e-07
-3.034500e-06
4.060248e-08
-3.034500e-06
4.060248e-08
1.983747e-07
1.983747e-07
-1.197034e-07
1.061770e-06
-1.197034e-07
1.061770e-06
-1.361799e-07
-1.361799e-07
1.455549e-06
2.992910e-06
1.455549e-06
2.992910e-06
-2.530490e-07
-2.530490e-07
4.084194e-07
3.296674e-06
4.084194e-07
3.296674e-06
-2.766324e-07
-2.766324e-07
-8.675945e-07
2.029255e-06
-8.675945e-07
2.029255e-06
-2.833558e-07
-2.833558e-07
1.890260e-05
8.825433e-06
1.890260e-05
8.825433e-06
2.634708e-05
2.634708e-05
2.518412e-05
2.518412e-05
1.491390e-05
1.491390e-05
8.263241e-06
8.263241e-06
3.261330e-06
3.261330e-06
1.131462e-05
-5.284119e-06
1.131462e-05
-5.284119e-06
2.422532e-05
2.422532e-05
2.376604e-05
2.376604e-05
1.576793e-05
1.576793e-05
8.305532e-06
8.305532e-06
1.329254e-06
1.329254e-06
-1.938239e-06
-1.938239e-06
1.603521e-06
1.603521e-06
5.867212e-06
5.867212e-06
9.200890e-06
9.200890e-06
7.480631e-06
7.480631e-06
-4.151452e-07
-4.151452e-07
-1.091992e-05
-1.091992e-05
-7.208342e-06
-7.208342e-06
1.273498e-05
-2.794984e-06
1.225431e-05
2.082991e-05
1.273498e-05
-2.794984e-06
1.225431e-05
2.082991e-05
8.729780e-06
1.093599e-05
1.117493e-05
8.949073e-06
8.729780e-06
1.093599e-05
1.117493e-05
8.949073e-06
2.582599e-05
-2.492934e-06
7.527450e-06
1.798255e-05
2.582599e-05
-2.492934e-06
7.527450e-06
1.798255e-05
-3.038183e-07
4.702967e-06
3.012064e-05
-3.038183e-07
4.702967e-06
3.012064e-05
4.498144e-05
-3.105644e-06
4.498144e-05
-3.105644e-06
-3.179400e-05
-2.826563e-05
-4.258219e-05
-3.414266e-05
-3.179400e-05
-2.826563e-05
-4.258219e-05
-3.414266e-05
9.698157e-06
4.211318e-05
9.698157e-06
4.211318e-05
1.049209e-05
1.001207e-05
1.049209e-05
1.001207e-05
1.074034e-05
1.507228e-05
1.336016e-05
1.074034e-05
1.507228e-05
1.336016e-05
5.642341e-06
5.642341e-06
3.950029e-06
6.255343e-06
3.950029e-06
6.255343e-06
-3.241165e-05
1.204135e-06
-3.241165e-05
1.204135e-06
-8.512612e-06
-8.512612e-06
-1.283007e-05
-1.283007e-05
-2.037126e-07
-2.859017e-05
2.173975e-05
-2.037126e-07
-2.859017e-05
2.173975e-05
-1.522344e-05
-3.511849e-07
2.036487e-05
-1.470713e-05
-1.522344e-05
-3.511849e-07
2.036487e-05
-1.470713e-05
-1.374725e-05
1.972898e-05
-1.374725e-05
1.972898e-05
-3.183676e-05
-3.183676e-05
3.954012e-05
3.955520e-05
5.291108e-05
4.862687e-05
3.954012e-05
3.955520e-05
5.291108e-05
4.862687e-05
1.679226e-05
1.679226e-05
-1.874687e-05
-1.874687e-05
7.830864e-06
7.830864e-06
7.780152e-06
7.780152e-06
5.271056e-06
5.271056e-06
1.455187e-05
1.455187e-05
1.110254e-05
9.626091e-06
1.110254e-05
9.626091e-06
4.447381e-06
6.467401e-06
4.447381e-06
6.467401e-06
4.105198e-06
3.199817e-06
4.105198e-06
3.199817e-06
2.062418e-06
2.513720e-06
2.062418e-06
2.513720e-06
-4.987125e-07
2.319764e-06
-4.987125e-07
2.319764e-06
-1.175025e-06
1.399872e-06
-1.175025e-06
1.399872e-06
-6.128609e-07
9.960847e-07
-6.128609e-07
9.960847e-07
-6.875779e-07
7.261244e-07
-6.875779e-07
7.261244e-07
-5.532430e-07
8.823558e-08
-5.532430e-07
8.823558e-08
-7.963727e-07
-1.062604e-07
-7.963727e-07
-1.062604e-07
-1.012137e-06
-1.119389e-07
-1.012137e-06
-1.119389e-07
-3.986925e-07
-1.357146e-07
-3.986925e-07
-1.357146e-07
1.601727e-07
5.311935e-08
1.601727e-07
5.311935e-08
2.727088e-07
1.009519e-07
2.727088e-07
1.009519e-07
8.993166e-06
8.993166e-06
6.747240e-06
6.747240e-06
3.854050e-06
3.854050e-06
2.540740e-06
2.540740e-06
2.102655e-06
2.102655e-06
1.155568e-06
1.155568e-06
7.126014e-07
7.126014e-07
6.468991e-07
6.468991e-07
-6.906672e-07
-6.906672e-07
-1.481340e-06
-1.481340e-06
-7.944396e-07
-7.944396e-07
-6.813998e-08
-6.813998e-08
1.845739e-07
1.845739e-07
1.083899e-07
1.083899e-07
7.980431e-06
7.980431e-06
5.076864e-06
5.076864e-06
2.942228e-06
2.942228e-06
1.662605e-06
1.662605e-06
9.135265e-07
9.135265e-07
3.300081e-07
3.300081e-07
9.132865e-08
9.132865e-08
2.252001e-08
2.252001e-08
-8.514892e-07
-8.514892e-07
-1.613818e-06
-1.613818e-06
-9.022550e-07
-9.022550e-07
-3.467470e-09
-3.467470e-09
1.310618e-07
1.310618e-07
2.686335e-08
2.686335e-08
3.840579e-06
3.840579e-06
2.957779e-06
2.957779e-06
1.886741e-06
1.886741e-06
1.343038e-06
1.343038e-06
1.135082e-06
1.135082e-06
7.884059e-07
7.884059e-07
4.751053e-07
4.751053e-07
3.357743e-07
3.357743e-07
1.421482e-07
1.421482e-07
-4.179522e-08
-4.179522e-08
-1.153718e-07
-1.153718e-07
-9.559794e-08
-9.559794e-08
-5.737100e-08
-5.737100e-08
-5.282024e-08
-5.282024e-08
1.492762e-06
1.492762e-06
1.688914e-06
1.688914e-06
1.576530e-06
1.576530e-06
8.513695e-07
8.513695e-07
5.150453e-07
5.150453e-07
3.463158e-07
3.463158e-07
2.206302e-07
2.206302e-07
2.486231e-07
2.486231e-07
2.621375e-07
2.621375e-07
1.801298e-07
1.801298e-07
3.356140e-08
3.356140e-08
-8.862828e-08
-8.862828e-08
-8.528550e-08
-8.528550e-08
-6.740162e-08
-6.740162e-08
-1.413606e-06
-1.994918e-07
-1.413606e-06
-1.994918e-07
-1.067340e-06
-1.067340e-06
4.622062e-06
4.622062e-06
5.023779e-06
5.023779e-06
1.928941e-07
1.928941e-07
2.420223e-06
2.420223e-06
5.584935e-06
5.584935e-06
4.613084e-06
4.613084e-06
-2.084014e-06
2.485805e-07
-2.084014e-06
2.485805e-07
-3.859764e-06
-3.859764e-06
2.286888e-06
2.286888e-06
3.912873e-06
3.912873e-06
-2.702585e-06
-2.702585e-06
-2.252663e-06
-2.252663e-06
2.247944e-06
2.247944e-06
2.311389e-06
2.311389e-06
-1.491893e-06
-3.763495e-07
-1.491893e-06
-3.763495e-07
-5.286878e-06
-5.286878e-06
-3.828181e-06
-3.828181e-06
-1.091646e-06
-1.091646e-06
-3.577266e-06
-3.577266e-06
-4.786748e-06
-4.786748e-06
-1.905757e-06
-1.905757e-06
-8.512475e-07
-8.512475e-07
5.998671e-06
2.933369e-06
5.998671e-06
2.933369e-06
2.750783e-06
2.750783e-06
-2.841564e-06
-2.841564e-06
-3.940011e-06
-3.940011e-06
-1.126747e-06
-1.126747e-06
-3.267552e-07
-3.267552e-07
-8.895687e-07
-8.895687e-07
-1.476273e-06
-1.476273e-06
1.012932e-05
5.075527e-06
1.012932e-05
5.075527e-06
7.592264e-06
7.592264e-06
1.526352e-06
1.526352e-06
-1.025518e-06
-1.025518e-06
5.286710e-07
5.286710e-07
1.995587e-06
1.995587e-06
1.264249e-06
1.264249e-06
-9.433152e-08
-9.433152e-08
4.567499e-06
4.019378e-06
4.567499e-06
4.019378e-06
2.230767e-07
2.230767e-07
-5.169851e-07
-5.169851e-07
-2.471120e-07
-2.471120e-07
-2.826509e-07
-2.826509e-07
5.947914e-06
5.947914e-06
5.903727e-06
5.903727e-06
1.636138e-06
1.636138e-06
2.639567e-06
8.257266e-07
1.245927e-06
4.496250e-06
2.639567e-06
8.257266e-07
1.245927e-06
4.496250e-06
9.716597e-07
3.015141e-06
9.716597e-07
3.015141e-06
5.133982e-07
1.901134e-06
5.133982e-07
1.901134e-06
1.876676e-06
1.129927e-06
1.876676e-06
1.129927e-06
5.669583e-06
4.172108e-06
5.669583e-06
4.172108e-06
6.006460e-06
6.712514e-06
6.006460e-06
6.712514e-06
1.170639e-05
1.523681e-05
1.170639e-05
1.523681e-05
-7.141018e-07
-8.559852e-07
-7.141018e-07
-8.559852e-07
-1.324455e-06
-1.324455e-06
-8.790290e-07
-8.790290e-07
2.164199e-06
2.164199e-06
6.356387e-06
6.356387e-06
5.010453e-06
5.010453e-06
1.274904e-05
1.274904e-05
1.521467e-05
1.521467e-05
-3.897152e-07
-3.897152e-07
3.830502e-07
3.830502e-07
5.150284e-07
5.150284e-07
-4.321443e-07
-4.321443e-07
3.182377e-07
3.182377e-07
-1.604960e-07
-1.604960e-07
-7.330546e-07
-7.330546e-07
-3.206540e-07
-3.206540e-07
-1.140433e-06
-1.140433e-06
-3.083483e-07
-3.083483e-07
1.977731e-07
1.977731e-07
-4.868733e-06
-4.868733e-06
1.020367e-07
1.020367e-07
-3.827414e-07
-3.827414e-07
-4.766366e-06
-4.766366e-06
1.198908e-07
1.198908e-07
-1.541545e-06
-1.541545e-06
-1.725110e-06
-1.725110e-06
4.230433e-06
5.278776e-06
4.230433e-06
5.278776e-06
4.488973e-06
3.832504e-06
4.488973e-06
3.832504e-06
3.541952e-06
9.181686e-07
3.541952e-06
9.181686e-07
2.661481e-06
-3.587024e-06
2.661481e-06
-3.587024e-06
2.613145e-06
-3.194872e-06
2.613145e-06
-3.194872e-06
2.108767e-06
2.108767e-06
-9.231433e-07
-9.231433e-07
-2.362427e-06
-2.362427e-06
-4.122922e-06
-4.122922e-06
-6.137107e-06
-6.137107e-06
-6.322742e-07
-6.322742e-07
-1.410805e-06
-1.410805e-06
4.156958e-07
4.156958e-07
8.565782e-07
8.565782e-07
-1.826366e-06
-1.826366e-06
-1.235816e-07
-1.235816e-07
2.147189e-06
2.147189e-06
4.383381e-06
4.383381e-06
2.121337e-06
2.121337e-06
-7.686744e-07
-7.686744e-07
-2.829247e-06
-2.829247e-06
-2.522668e-06
-2.522668e-06
2.477307e-06
2.477307e-06
1.549225e-06
1.549225e-06
-1.410661e-06
-1.410661e-06
-1.171323e-05
-1.171323e-05
-7.233893e-06
-7.233893e-06
1.449074e-06
1.449074e-06
4.997154e-06
4.997154e-06
8.242959e-06
8.242959e-06
-9.217477e-06
-9.217477e-06
-5.481055e-06
-5.481055e-06
9.798698e-07
9.798698e-07
7.148918e-06
7.148918e-06
1.035293e-05
1.035293e-05
-1.536895e-06
-1.536895e-06
-4.227051e-06
-4.227051e-06
-1.196994e-06
-1.196994e-06
6.321321e-06
6.321321e-06
5.737383e-06
5.737383e-06
-4.649522e-09
-4.649522e-09
5.928125e-07
5.928125e-07
1.736313e-08
1.736313e-08
1.470338e-07
1.470338e-07
1.197520e-06
1.197520e-06
5.321082e-06
5.321082e-06
5.026914e-07
5.026914e-07
4.558456e-07
4.558456e-07
2.593497e-07
2.593497e-07
-1.963880e-10
-1.963880e-10
6.390497e-07
6.390497e-07
6.086083e-06
6.086083e-06
-1.723698e-06
-1.723698e-06
-2.686250e-06
-2.686250e-06
-3.693478e-06
-3.693478e-06
-2.839148e-06
-2.839148e-06
-7.276030e-07
-7.276030e-07
6.394920e-06
6.394920e-06
-3.899432e-06
-3.899432e-06
-5.032118e-06
-5.032118e-06
-7.678054e-06
-7.678054e-06
-8.765817e-06
-8.765817e-06
-3.978883e-06
-3.978883e-06
9.197761e-06
9.197761e-06
-7.307995e-06
-7.307995e-06
-7.858686e-06
-7.858686e-06
-1.010211e-05
-1.010211e-05
-1.212227e-05
-1.212227e-05
-6.744084e-06
-6.744084e-06
6.915090e-06
6.915090e-06
-1.104972e-05
-1.104972e-05
-7.762411e-06
-7.762411e-06
-7.813931e-06
-7.813931e-06
-7.924576e-06
-7.924576e-06
-2.811853e-06
-2.811853e-06
4.196553e-06
4.196553e-06
5.953023e-06
5.953023e-06
3.475425e-06
3.475425e-06
2.286812e-06
2.286812e-06
1.625982e-06
1.625982e-06
2.476597e-06
2.476597e-06
2.096710e-06
2.096710e-06
3.341893e-05
3.341893e-05
2.201928e-05
2.201928e-05
1.875721e-05
1.875721e-05
5.357438e-06
5.357438e-06
-1.215793e-06
-1.215793e-06
-4.478747e-06
-4.478747e-06
4.437994e-05
4.437994e-05
3.192567e-05
3.192567e-05
2.801120e-05
2.801120e-05
2.329528e-06
2.329528e-06
-1.126107e-05
-1.126107e-05
1.764485e-05
1.764485e-05
4.445662e-05
4.445662e-05
2.601273e-05
2.601273e-05
2.522447e-05
2.522447e-05
1.677302e-05
1.677302e-05
-6.283406e-06
-6.283406e-06
-3.793077e-05
-3.793077e-05
2.957445e-05
2.957445e-05
1.136400e-05
1.136400e-05
-7.233551e-06
-7.233551e-06
-5.666254e-05
-5.666254e-05
-1.191883e-04
-1.191883e-04
-1.311446e-04
-1.311446e-04
5.499695e-06
5.499695e-06
-6.032099e-05
-6.032099e-05
-9.054664e-05
-9.054664e-05
-1.027314e-04
-1.027314e-04
-8.748409e-05
-8.748409e-05
7.594672e-05
7.594672e-05
-3.258310e-05
-3.258310e-05
-2.075889e-04
-2.075889e-04
-4.839142e-04
-4.839142e-04
-3.214058e-04
-3.214058e-04
1.882642e-04
1.882642e-04
1.455784e-04
1.455784e-04
-4.597256e-05
-4.597256e-05
-1.780275e-04
-1.780275e-04
-4.091308e-04
-4.091308e-04
6.898684e-03
6.898684e-03
1.712666e-02
1.712666e-02
1.157687e-02
1.157687e-02
4.118001e-05
4.118001e-05
-2.469510e-04
-2.469510e-04
-9.671324e-04
-9.671324e-04
3.146262e-02
3.146262e-02
7.824123e-02
7.824123e-02
5.613476e-02
5.613476e-02
3.637430e-05
3.637430e-05
-6.942884e-04
-6.942884e-04
-3.949902e-03
-3.949902e-03
1.374430e-02
1.374430e-02
5.488420e-02
5.488420e-02
5.298442e-02
5.298442e-02
2.609581e-05
2.609581e-05
-5.939538e-05
-5.939538e-05
-2.546640e-03
-2.546640e-03
-1.491109e-02
-1.491109e-02
-4.109298e-02
-4.109298e-02
-4.798410e-02
-4.798410e-02
9.103511e-05
9.103511e-05
5.629898e-04
5.629898e-04
4.738734e-04
4.738734e-04
-6.780723e-03
-6.780723e-03
-4.718531e-02
-4.718531e-02
-7.277838e-02
-7.277838e-02
4.105772e-05
4.105772e-05
1.550259e-04
1.550259e-04
2.010944e-04
2.010944e-04
-2.030469e-03
-2.030469e-03
-1.181354e-02
-1.181354e-02
-1.570081e-02
-1.570081e-02
1.908137e-05
1.908137e-05
4.399261e-05
4.399261e-05
1.341663e-04
1.341663e-04
2.595595e-04
2.595595e-04
4.989810e-04
4.989810e-04
4.947651e-04
4.947651e-04
2.701625e-05
2.701625e-05
3.341662e-05
3.341662e-05
-2.052225e-05
-2.052225e-05
-1.640331e-04
-1.640331e-04
-3.099336e-04
-3.099336e-04
-3.417507e-04
-3.417507e-04
9.386635e-06
9.386635e-06
3.649828e-06
3.649828e-06
1.225208e-05
1.225208e-05
-1.119305e-04
-1.119305e-04
-2.690209e-04
-2.690209e-04
2.661740e-06
2.661740e-06
2.287197e-06
2.287197e-06
5.073769e-06
5.073769e-06
1.048083e-05
1.048083e-05
1.401306e-05
1.401306e-05
4.212456e-06
4.212456e-06
-6.041564e-06
-6.041564e-06
-1.055588e-05
-1.055588e-05
-2.114561e-05
-2.114561e-05
9.385826e-06
9.385826e-06
-1.817007e-06
-1.817007e-06
-2.740436e-05
-2.740436e-05
4.568140e-05
4.568140e-05
6.774362e-05
6.774362e-05
7.218550e-05
7.218550e-05
8.652871e-05
8.652871e-05
3.697148e-05
3.697148e-05
-4.340578e-05
-4.340578e-05
-1.325383e-04
-1.325383e-04
-1.054896e-04
-1.054896e-04
-9.344130e-06
-9.344130e-06
2.156624e-05
2.156624e-05
3.852958e-06
3.852958e-06
5.933885e-06
5.933885e-06
8.941200e-06
8.941200e-06
1.386459e-05
1.386459e-05
1.343967e-05
1.343967e-05
2.287062e-06
2.287062e-06
-1.137982e-05
-1.137982e-05
-7.561977e-06
-7.561977e-06
-3.196896e-05
-3.196896e-05
-1.574036e-05
-1.574036e-05
5.971019e-05
5.971019e-05
-5.824276e-06
-5.824276e-06
1.620660e-05
1.620660e-05
1.642280e-04
1.642280e-04
2.233920e-04
2.233920e-04
2.126137e-04
2.126137e-04
-2.793417e-05
-2.793417e-05
-2.710041e-04
-2.710041e-04
-2.860317e-04
-2.860317e-04
-1.073842e-04
-1.073842e-04
-4.030050e-05
-4.030050e-05
-1.308650e-04
-1.308650e-04
4.583435e-06
4.583435e-06
6.880168e-06
6.880168e-06
1.093814e-05
1.093814e-05
1.483591e-05
1.483591e-05
1.577767e-05
1.577767e-05
6.735477e-06
6.735477e-06
-1.302728e-05
-1.302728e-05
-1.246536e-05
-1.246536e-05
-2.733122e-06
-2.733122e-06
-5.021600e-05
-5.021600e-05
6.298513e-05
6.298513e-05
1.174320e-04
1.174320e-04
-8.174320e-05
-8.174320e-05
-6.119803e-05
-6.119803e-05
-4.573149e-05
-4.573149e-05
-5.174011e-04
-5.174011e-04
-2.883091e-04
-2.883091e-04
3.573083e-04
3.573083e-04
3.128256e-04
3.128256e-04
5.199711e-05
5.199711e-05
-1.501578e-04
-1.501578e-04
-1.802457e-04
-1.802457e-04
5.468930e-06
5.468930e-06
8.974422e-06
8.974422e-06
1.316740e-05
1.316740e-05
1.726721e-05
1.726721e-05
1.692698e-05
1.692698e-05
1.142089e-05
1.142089e-05
-1.247477e-05
-1.247477e-05
-1.894118e-05
-1.894118e-05
2.525448e-05
2.525448e-05
-4.308010e-05
-4.308010e-05
-1.448821e-05
-1.448821e-05
2.232472e-04
2.232472e-04
-1.855852e-04
-1.855852e-04
-1.342528e-03
-1.342528e-03
3.793636e-06
3.793636e-06
5.112411e-04
5.112411e-04
-3.977082e-04
-3.977082e-04
1.905812e-03
1.905812e-03
1.982202e-03
1.982202e-03
-8.426303e-06
-8.426303e-06
-1.971509e-04
-1.971509e-04
-5.686232e-05
-5.686232e-05
7.577029e-06
7.577029e-06
1.126535e-05
1.126535e-05
1.429624e-05
1.429624e-05
1.823685e-05
1.823685e-05
1.479932e-05
1.479932e-05
9.432542e-06
9.432542e-06
-3.438624e-06
-3.438624e-06
-1.344307e-05
-1.344307e-05
3.858308e-05
3.858308e-05
-4.031009e-05
-4.031009e-05
-8.389203e-05
-8.389203e-05
2.209731e-04
2.209731e-04
-1.675607e-04
-1.675607e-04
4.345240e-04
4.345240e-04
1.021869e-02
1.021869e-02
1.620453e-02
1.620453e-02
-1.954360e-02
-1.954360e-02
-3.109322e-02
-3.109322e-02
-4.518328e-03
-4.518328e-03
7.080990e-05
7.080990e-05
-2.051767e-04
-2.051767e-04
-9.789449e-06
-9.789449e-06
-9.845525e-06
-9.398462e-06
-9.051634e-06
-9.609333e-06
-7.584781e-06
-5.102764e-06
-3.212494e-06
-4.066822e-06
-4.716586e-06
-4.876402e-06
-4.803462e-06
-4.366139e-06
7.689391e-06
5.117295e-06
2.097124e-06
1.403884e-06
-1.170193e-07
-1.392757e-06
9.031295e-06
7.619965e-06
5.074160e-06
3.686790e-06
2.546223e-06
1.658552e-06
2.475211e-06
3.908029e-06
5.376516e-06
5.200579e-06
3.768171e-06
2.547369e-06
-2.310893e-06
1.766708e-06
6.405793e-06
6.245841e-06
4.251988e-06
2.979571e-06
-1.435649e-06
3.714559e-06
8.832431e-06
7.220655e-06
4.495508e-06
3.349802e-06
1.791093e-06
6.914521e-06
1.123372e-05
8.814246e-06
5.414444e-06
3.629897e-06
4.580638e-06
9.422156e-06
1.285030e-05
9.765543e-06
6.057305e-06
4.020451e-06
4.953712e-06
8.211311e-06
1.029136e-05
7.683848e-06
4.664227e-06
3.074567e-06
3.731769e-06
5.965749e-06
7.315795e-06
5.536659e-06
3.323694e-06
2.005929e-06
7.988237e-06
9.844740e-06
8.299719e-06
2.400318e-06
1.924981e-07
4.825546e-07
1.786717e-05
1.651886e-05
1.148277e-05
5.251389e-06
1.607710e-06
5.076320e-07
2.574672e-05
2.282159e-05
1.555387e-05
8.507934e-06
3.728064e-06
1.651539e-06
1.454358e-05
1.469323e-05
1.185208e-05
7.269852e-06
4.168129e-06
2.657829e-06
-9.430203e-07
-2.223092e-07
1.783840e-06
3.528658e-06
3.059643e-06
2.131248e-06
-1.521517e-05
-1.214762e-05
-4.931983e-06
1.033539e-06
2.195217e-06
1.539459e-06
-2.085530e-05
-1.404903e-05
-3.406683e-06
1.375061e-06
1.807003e-06
1.293269e-06
-1.089491e-05
-5.375765e-06
2.245070e-06
3.451973e-06
2.120762e-06
1.684344e-06
-4.473165e-07
3.292422e-06
7.040109e-06
5.923808e-06
3.715552e-06
2.631544e-06
2.833363e-06
5.722518e-06
7.609429e-06
5.794593e-06
3.726923e-06
2.471844e-06
3.277677e-06
5.292361e-06
6.272747e-06
4.531451e-06
2.824459e-06
1.824462e-06
3.432351e-05
4.045259e-05
3.814903e-05
2.245888e-05
1.297991e-05
1.075844e-05
3.890941e-05
4.225239e-05
3.517451e-05
1.971129e-05
1.200334e-05
9.337756e-06
3.668987e-05
4.183969e-05
3.157427e-05
1.407449e-05
9.195442e-06
6.400933e-06
2.001194e-05
2.477423e-05
2.007015e-05
9.710446e-06
6.041478e-06
3.265848e-06
-6.512463e-06
-6.973195e-06
-2.459936e-06
3.054747e-06
3.026113e-06
2.456786e-06
-2.436332e-05
-2.838400e-05
-1.720028e-05
-4.880608e-07
1.174167e-06
1.328591e-06
-2.978067e-05
-2.996461e-05
-1.675231e-05
-1.075378e-06
9.214181e-08
-1.021010e-06
-2.713600e-05
-2.158088e-05
-1.009235e-05
-2.641821e-06
-8.982532e-07
-6.718130e-07
-1.196907e-05
-8.708309e-06
-2.402191e-06
6.726399e-07
8.409740e-07
9.798317e-07
-1.187421e-07
2.128879e-06
3.878221e-06
3.294276e-06
2.614755e-06
2.020900e-06
3.427729e-06
5.541510e-06
5.591817e-06
3.260372e-06
2.581721e-06
2.171042e-06
4.720140e-05
6.426711e-05
6.288304e-05
3.107173e-05
1.639080e-05
1.507138e-05
2.324898e-05
4.463351e-05
4.498544e-05
1.927082e-05
1.359236e-05
1.259592e-05
6.924103e-06
3.001420e-05
2.809375e-05
4.642849e-06
5.700968e-06
5.199447e-06
8.352379e-06
1.875909e-05
1.943480e-05
6.741267e-06
1.941608e-06
1.044783e-07
-1.210012e-07
-1.587890e-06
1.504561e-06
7.730129e-06
7.379332e-06
5.362309e-06
-3.250863e-06
-1.628130e-05
-9.847273e-06
1.164535e-05
1.126334e-05
8.853166e-06
9.494740e-07
-2.030146e-05
-1.370514e-05
1.318855e-05
7.843161e-06
3.451345e-06
-2.118141e-05
-2.619132e-05
-1.654230e-05
1.748972e-06
2.939202e-06
4.970861e-07
-2.912610e-05
-2.323017e-05
-1.036124e-05
-5.899267e-07
2.314115e-06
2.419840e-06
-1.937520e-06
1.191849e-07
2.333864e-06
3.130226e-06
3.577235e-06
3.385856e-06
6.008777e-06
8.021853e-06
6.782134e-06
4.058321e-06
3.761533e-06
2.935762e-06
7.956472e-05
9.790045e-05
9.143781e-05
4.542539e-05
1.556584e-05
6.920340e-06
-8.243325e-06
2.829936e-05
4.718793e-05
2.496703e-05
1.608666e-05
1.177308e-05
-9.230956e-05
-2.787382e-05
1.868015e-05
2.092620e-06
6.687904e-06
9.988947e-06
-6.013601e-05
-1.315929e-05
2.619966e-05
7.613812e-06
-2.923546e-07
2.769542e-06
4.520607e-05
2.260790e-05
4.109021e-06
1.319780e-05
1.233695e-05
6.486609e-06
1.002493e-04
4.139499e-05
-4.487577e-06
1.910039e-05
2.046417e-05
1.121169e-05
5.666524e-05
1.445561e-05
-4.547831e-06
1.674059e-05
1.052394e-05
6.225058e-06
-2.605097e-05
-3.679670e-05
-2.799596e-05
-3.406119e-06
1.290723e-06
9.442020e-07
-5.252010e-05
-4.760928e-05
-2.895606e-05
-6.306870e-06
3.317453e-06
4.034977e-06
-3.580582e-06
-3.151263e-06
-1.404450e-06
3.173848e-06
6.006877e-06
5.579104e-06
1.082872e-05
1.211291e-05
8.990827e-06
6.024240e-06
5.813823e-06
4.163722e-06
1.075517e-04
1.190839e-04
1.077565e-04
5.921511e-05
1.634011e-05
-8.530670e-07
-2.411263e-05
1.473194e-05
4.707187e-05
3.543582e-05
2.097641e-05
1.164842e-05
-1.688916e-04
-7.262256e-05
1.531071e-05
7.436541e-06
1.279161e-05
1.768503e-05
-1.170087e-04
-3.605479e-05
3.504001e-05
1.031307e-05
1.824998e-06
8.204716e-06
8.199047e-05
3.879784e-05
2.097883e-06
1.518810e-05
1.361635e-05
5.447045e-06
1.863930e-04
8.464651e-05
-7.411399e-06
1.811272e-05
2.061155e-05
7.274888e-06
9.214516e-05
4.139754e-05
4.558004e-07
9.423858e-06
6.427352e-06
4.268669e-06
-4.043021e-05
-4.670646e-05
-3.634843e-05
-1.368353e-05
-3.920545e-06
-1.881856e-07
-6.525088e-05
-6.333753e-05
-4.322394e-05
-1.217068e-05
2.314826e-06
3.947301e-06
-4.236622e-06
-5.516864e-06
-4.647683e-06
2.770459e-06
7.299177e-06
6.559175e-06
1.367175e-05
1.464616e-05
1.037132e-05
6.926338e-06
6.942800e-06
5.155008e-06
SCALARS E13 float 1
LOOKUP_TABLE default
-2.351705e-05
1.685201e-05
-1.384115e-04
-6.698508e-06
-2.351705e-05
1.685201e-05
-1.384115e-04
-6.698508e-06
-2.861105e-05
7.991580e-06
2.995989e-05
-2.098041e-05
-2.861105e-05
7.991580e-06
2.995989e-05
-2.098041e-05
-1.440625e-05
-1.003169e-05
1.737423e-05
-1.440625e-05
-1.003169e-05
1.737423e-05
1.107749e-04
8.283183e-05
-9.114665e-06
1.072984e-05
1.107749e-04
8.283183e-05
-9.114665e-06
1.072984e-05
-4.051968e-06
7.331748e-05
-4.051968e-06
7.331748e-05
1.358142e-04
6.187229e-05
1.358142e-04
6.187229e-05
-1.127429e-05
-5.102402e-06
2.823737e-05
-2.436400e-06
-1.127429e-05
-5.102402e-06
2.823737e-05
-2.436400e-06
2.619482e-05
3.835347e-05
-3.843622e-06
-8.886799e-06
2.619482e-05
3.835347e-05
-3.843622e-06
-8.886799e-06
2.860215e-05
-7.177348e-05
-1.687645e-05
-1.637591e-05
2.860215e-05
-7.177348e-05
-1.687645e-05
-1.637591e-05
6.773212e-06
3.877508e-05
6.773212e-06
3.877508e-05
-4.249499e-05
-4.249499e-05
-7.955789e-06
-5.303513e-05
-7.955789e-06
-5.303513e-05
8.539468e-05
4.449482e-05
8.539468e-05
4.449482e-05
7.933445e-05
7.933445e-05
1.158236e-04
1.158236e-04
-1.440675e-05
-1.440675e-05
-1.690719e-05
-5.953493e-06
9.290211e-06
-1.690719e-05
-5.953493e-06
9.290211e-06
-1.598128e-07
-8.264104e-06
-1.415922e-05
4.714709e-06
-1.598128e-07
-8.264104e-06
-1.415922e-05
4.714709e-06
3.682392e-05
3.682392e-05
1.003560e-04
8.231140e-05
1.003560e-04
8.231140e-05
1.008174e-04
1.008174e-04
-3.313328e-05
-3.313328e-05
1.572924e-05
1.572924e-05
-2.329427e-05
-2.329427e-05
6.854035e-05
6.854035e-05
-2.289255e-05
-2.289255e-05
-2.448303e-05
-2.448303e-05
1.447621e-04
1.447621e-04
-1.612484e-06
1.829581e-05
-1.612484e-06
1.829581e-05
5.290239e-06
5.290239e-06
1.446337e-05
1.446337e-05
5.103787e-06
5.103787e-06
-4.413099e-07
-4.413099e-07
-8.586355e-07
-3.273863e-06
-8.586355e-07
-3.273863e-06
-2.803731e-06
-2.803731e-06
1.056123e-06
1.056123e-06
7.040973e-07
7.040973e-07
-1.938548e-07
-1.938548e-07
7.328637e-06
1.242042e-05
7.328637e-06
1.242042e-05
-1.361511e-06
-1.361511e-06
-4.988771e-06
-4.988771e-06
-1.489481e-06
-1.489481e-06
3.764660e-06
3.764660e-06
3.264950e-06
6.714786e-06
3.264950e-06
6.714786e-06
-2.998120e-09
-2.998120e-09
-2.356456e-06
-2.356456e-06
-1.386185e-06
-1.386185e-06
2.457167e-06
2.457167e-06
1.599976e-06
2.976108e-06
1.599976e-06
2.976108e-06
2.658203e-06
2.658203e-06
5.193910e-06
5.193910e-06
6.278896e-07
6.278896e-07
-2.897897e-06
-2.897897e-06
1.286791e-05
4.979456e-06
1.286791e-05
4.979456e-06
1.028173e-05
1.028173e-05
5.666823e-06
5.666823e-06
-5.220316e-07
-5.220316e-07
-5.653203e-06
-5.653203e-06
1.804401e-05
1.111899e-05
1.804401e-05
1.111899e-05
9.305717e-06
9.305717e-06
-4.467341e-06
-4.467341e-06
-8.752842e-06
-8.752842e-06
-7.438292e-06
-7.438292e-06
4.828266e-06
1.139874e-05
4.828266e-06
1.139874e-05
-4.348770e-06
-4.348770e-06
-1.226522e-05
-1.226522e-05
-1.139944e-05
-1.139944e-05
-6.884561e-06
-6.884561e-06
-3.245007e-06
8.563434e-06
-3.245007e-06
8.563434e-06
-1.020024e-05
-1.020024e-05
-7.608974e-06
-7.608974e-06
-3.689219e-06
-3.689219e-06
-3.172765e-06
-3.172765e-06
2.101461e-06
6.177931e-06
2.101461e-06
6.177931e-06
-2.331013e-06
-2.331013e-06
2.237348e-06
2.237348e-06
3.506279e-06
3.506279e-06
2.062728e-07
2.062728e-07
3.938943e-06
3.561100e-07
3.938943e-06
3.561100e-07
7.142284e-06
7.142284e-06
9.031097e-06
9.031097e-06
6.481899e-06
6.481899e-06
4.127619e-06
4.127619e-06
1.221113e-06
-2.386424e-06
1.221113e-06
-2.386424e-06
1.023689e-05
1.023689e-05
1.202911e-05
1.202911e-05
7.715211e-06
7.715211e-06
6.254039e-06
6.254039e-06
4.779635e-06
4.361500e-06
4.779635e-06
4.361500e-06
7.059772e-06
7.059772e-06
7.279516e-06
7.279516e-06
4.021043e-06
4.021043e-06
2.898698e-06
2.898698e-06
8.862748e-06
1.012789e-05
8.862748e-06
1.012789e-05
3.721761e-06
3.721761e-06
2.093276e-06
2.093276e-06
5.328749e-07
5.328749e-07
4.765557e-08
4.765557e-08
4.962323e-06
1.019165e-05
1.833893e-05
6.687470e-06
4.962323e-06
1.019165e-05
1.833893e-05
6.687470e-06
1.177202e-05
1.856408e-05
1.177202e-05
1.856408e-05
1.524388e-05
5.563411e-06
1.524388e-05
5.563411e-06
1.240762e-05
1.240762e-05
1.283543e-06
2.113363e-07
1.283543e-06
2.113363e-07
-3.175943e-08
-3.175943e-08
-6.716772e-06
-3.445133e-06
-6.716772e-06
-3.445133e-06
-4.281239e-06
-4.281239e-06
-6.175747e-06
-3.101850e-06
-6.175747e-06
-3.101850e-06
-1.479063e-06
-1.479063e-06
-4.213254e-06
-1.714624e-06
-4.213254e-06
-1.714624e-06
6.907057e-07
6.907057e-07
-2.786748e-06
2.513103e-05
-2.786748e-06
2.513103e-05
1.727976e-05
1.727976e-05
1.086215e-05
1.086215e-05
2.153981e-06
2.153981e-06
-1.949159e-06
-1.949159e-06
2.226534e-06
2.226534e-06
6.312966e-06
1.380069e-05
6.312966e-06
1.380069e-05
1.511826e-05
1.511826e-05
1.153575e-05
1.153575e-05
6.770324e-06
6.770324e-06
5.768977e-06
5.768977e-06
6.961806e-06
6.961806e-06
7.952450e-06
7.952450e-06
1.024954e-05
1.024954e-05
1.192144e-05
1.192144e-05
1.335609e-05
1.335609e-05
1.231314e-05
1.231314e-05
1.278948e-05
1.278948e-05
2.374164e-05
2.374164e-05
5.498279e-05
5.498279e-05
-5.299994e-06
-2.465251e-06
-5.295086e-06
-7.451183e-06
-5.299994e-06
-2.465251e-06
-5.295086e-06
-7.451183e-06
2.320909e-06
7.069966e-06
-8.649260e-06
-7.575903e-06
2.320909e-06
7.069966e-06
-8.649260e-06
-7.575903e-06
9.546185e-06
1.713989e-06
6.991547e-06
9.626812e-06
9.546185e-06
1.713989e-06
6.991547e-06
9.626812e-06
9.146055e-06
2.479259e-06
4.611842e-06
9.146055e-06
2.479259e-06
4.611842e-06
-2.526943e-05
-1.682537e-05
-2.526943e-05
-1.682537e-05
-2.556421e-05
-1.623152e-05
1.300856e-05
-1.488863e-06
-2.556421e-05
-1.623152e-05
1.300856e-05
-1.488863e-06
2.555515e-05
-2.741195e-05
2.555515e-05
-2.741195e-05
1.181416e-05
1.381113e-05
1.181416e-05
1.381113e-05
-8.532482e-06
-1.030780e-05
-2.835965e-06
-8.532482e-06
-1.030780e-05
-2.835965e-06
-7.588670e-06
-7.588670e-06
-8.123069e-06
-8.425030e-06
-8.123069e-06
-8.425030e-06
3.622412e-05
6.309388e-05
3.622412e-05
6.309388e-05
-4.956968e-05
-4.956968e-05
-1.663199e-05
-1.663199e-05
8.466611e-06
-4.367767e-06
-4.339202e-05
8.466611e-06
-4.367767e-06
-4.339202e-05
3.215864e-05
9.994253e-06
5.414609e-06
8.393032e-07
3.215864e-05
9.994253e-06
5.414609e-06
8.393032e-07
-2.436410e-06
4.357335e-06
-2.436410e-06
4.357335e-06
-4.238019e-06
-4.238019e-06
1.204926e-05
-2.045726e-05
6.040105e-06
3.440810e-05
1.204926e-05
-2.045726e-05
6.040105e-06
3.440810e-05
7.579162e-06
7.579162e-06
-1.580080e-05
-1.580080e-05
-1.086063e-05
-1.086063e-05
2.602752e-06
2.602752e-06
-2.424535e-07
-2.424535e-07
-1.583333e-06
-1.583333e-06
3.490231e-06
8.057769e-06
3.490231e-06
8.057769e-06
-4.232152e-06
6.568643e-06
-4.232152e-06
6.568643e-06
-1.320263e-05
-1.564218e-06
-1.320263e-05
-1.564218e-06
-5.885817e-06
-5.863215e-06
-5.885817e-06
-5.863215e-06
2.206087e-06
-8.127945e-06
2.206087e-06
-8.127945e-06
2.240040e-06
-6.435300e-06
2.240040e-06
-6.435300e-06
2.208860e-06
-3.974945e-06
2.208860e-06
-3.974945e-06
5.346349e-06
-1.294949e-06
5.346349e-06
-1.294949e-06
4.385536e-06
8.695231e-07
4.385536e-06
8.695231e-07
7.420002e-06
3.170677e-06
7.420002e-06
3.170677e-06
1.279507e-05
7.447824e-06
1.279507e-05
7.447824e-06
5.686566e-06
5.739339e-06
5.686566e-06
5.739339e-06
-1.442111e-06
-3.117194e-07
-1.442111e-06
-3.117194e-07
-1.340479e-06
-2.574729e-06
-1.340479e-06
-2.574729e-06
1.542140e-06
1.542140e-06
2.526282e-06
2.526282e-06
9.261858e-08
9.261858e-08
-5.608986e-06
-5.608986e-06
-9.782425e-06
-9.782425e-06
-7.881595e-06
-7.881595e-06
-5.819107e-06
-5.819107e-06
-4.641235e-06
-4.641235e-06
-4.921857e-06
-4.921857e-06
-7.189325e-06
-7.189325e-06
-3.283739e-06
-3.283739e-06
1.937277e-06
1.937277e-06
9.677567e-07
9.677567e-07
-8.034137e-07
-8.034137e-07
-3.510687e-06
-3.510687e-06
-3.192736e-06
-3.192736e-06
-6.111925e-06
-6.111925e-06
-5.847678e-06
-5.847678e-06
-1.993505e-06
-1.993505e-06
-4.631649e-07
-4.631649e-07
-2.228551e-07
-2.228551e-07
-1.980499e-08
-1.980499e-08
-5.734802e-06
-5.734802e-06
-1.109360e-05
-1.109360e-05
-8.436272e-06
-8.436272e-06
-9.615339e-07
-9.615339e-07
2.150457e-06
2.150457e-06
7.114349e-07
7.114349e-07
-5.232187e-06
-5.232187e-06
-4.261017e-06
-4.261017e-06
-7.828321e-06
-7.828321e-06
-5.919476e-06
-5.919476e-06
7.019075e-07
7.019075e-07
5.853119e-06
5.853119e-06
6.288464e-06
6.288464e-06
2.083145e-06
2.083145e-06
-4.983655e-06
-4.983655e-06
-1.042240e-05
-1.042240e-05
-9.491938e-06
-9.491938e-06
-2.085878e-06
-2.085878e-06
-9.974208e-07
-9.974208e-07
-4.900949e-06
-4.900949e-06
-3.690435e-06
-3.690435e-06
-2.847016e-06
-2.847016e-06
-6.965295e-06
-6.965295e-06
-7.029646e-06
-7.029646e-06
-2.583620e-06
-2.583620e-06
5.827268e-06
5.827268e-06
8.243896e-06
8.243896e-06
1.823881e-06
1.823881e-06
-6.310616e-06
-6.310616e-06
-1.274839e-05
-1.274839e-05
-1.062460e-05
-1.062460e-05
-3.029034e-06
-3.029034e-06
-4.300103e-06
-4.300103e-06
-8.634567e-06
-8.634567e-06
3.051472e-06
6.609028e-06
3.051472e-06
6.609028e-06
3.940141e-07
3.940141e-07
-4.926370e-07
-4.926370e-07
-4.352678e-07
-4.352678e-07
-2.219600e-08
-2.219600e-08
-2.546550e-07
-2.546550e-07
-4.418909e-07
-4.418909e-07
-1.328068e-07
-1.328068e-07
2.717131e-06
4.432602e-06
2.717131e-06
4.432602e-06
6.288282e-07
6.288282e-07
-3.833268e-07
-3.833268e-07
-3.022943e-07
-3.022943e-07
1.458596e-07
1.458596e-07
6.937805e-08
6.937805e-08
-3.613723e-08
-3.613723e-08
1.165894e-07
1.165894e-07
1.382022e-06
1.942899e-06
1.382022e-06
1.942899e-06
4.789895e-07
4.789895e-07
1.796720e-07
1.796720e-07
1.785217e-07
1.785217e-07
3.610555e-07
3.610555e-07
2.177396e-07
2.177396e-07
2.553924e-08
2.553924e-08
6.695351e-08
6.695351e-08
-6.654432e-07
-7.887055e-07
-6.654432e-07
-7.887055e-07
2.028983e-07
2.028983e-07
3.749890e-07
3.749890e-07
3.420095e-07
3.420095e-07
3.043828e-07
3.043828e-07
-1.752612e-08
-1.752612e-08
-2.009074e-07
-2.009074e-07
5.444471e-08
5.444471e-08
-2.381145e-06
-4.115080e-06
-2.381145e-06
-4.115080e-06
-1.862377e-08
-1.862377e-08
1.266146e-07
1.266146e-07
1.478820e-07
1.478820e-07
7.241328e-08
7.241328e-08
-1.682442e-07
-1.682442e-07
-3.054839e-07
-3.054839e-07
-2.115861e-07
-2.115861e-07
-2.360638e-06
-4.499482e-06
-2.360638e-06
-4.499482e-06
-4.693956e-07
-4.693956e-07
-3.880634e-08
-3.880634e-08
6.188895e-08
6.188895e-08
6.095958e-08
6.095958e-08
5.154583e-07
5.154583e-07
4.565035e-07
4.565035e-07
6.763105e-08
6.763105e-08
2.308175e-06
4.987889e-06
7.649304e-06
3.791428e-06
2.308175e-06
4.987889e-06
7.649304e-06
3.791428e-06
6.035562e-06
1.635733e-06
6.035562e-06
1.635733e-06
4.856009e-06
-1.475004e-06
4.856009e-06
-1.475004e-06
3.685843e-06
1.921949e-06
3.685843e-06
1.921949e-06
-1.270378e-05
-1.162016e-06
-1.270378e-05
-1.162016e-06
-1.677531e-05
1.134609e-06
-1.677531e-05
1.134609e-06
-1.249703e-05
-5.127536e-07
-1.249703e-05
-5.127536e-07
6.047737e-06
6.995429e-06
6.047737e-06
6.995429e-06
8.950968e-06
8.950968e-06
1.087848e-05
1.087848e-05
5.111076e-07
5.111076e-07
-2.015170e-05
-2.015170e-05
-2.406877e-05
-2.406877e-05
-1.640230e-05
-1.640230e-05
-5.182107e-06
-5.182107e-06
5.927126e-06
5.927126e-06
4.300004e-06
4.300004e-06
8.792867e-07
8.792867e-07
9.249740e-06
9.249740e-06
5.483936e-06
5.483936e-06
1.669646e-07
1.669646e-07
9.607346e-06
9.607346e-06
2.308035e-06
2.308035e-06
-1.082023e-06
-1.082023e-06
3.149884e-06
3.149884e-06
1.044332e-06
1.044332e-06
-1.213191e-07
-1.213191e-07
-4.186569e-06
-4.186569e-06
-5.007009e-06
-5.007009e-06
-2.721413e-06
-2.721413e-06
-7.141763e-06
-7.141763e-06
-1.157215e-05
-1.157215e-05
-6.139911e-06
-6.139911e-06
7.797963e-07
1.408846e-06
7.797963e-07
1.408846e-06
5.478042e-07
1.655924e-06
5.478042e-07
1.655924e-06
1.118816e-07
1.015155e-06
1.118816e-07
1.015155e-06
-8.635881e-07
-6.604956e-07
-8.635881e-07
-6.604956e-07
-2.644770e-06
-2.003559e-06
-2.644770e-06
-2.003559e-06
4.737346e-07
4.737346e-07
5.500831e-07
5.500831e-07
2.524081e-07
2.524081e-07
-6.003243e-07
-6.003243e-07
-1.078564e-06
-1.078564e-06
4.842043e-08
4.842043e-08
1.749884e-07
1.749884e-07
2.258749e-07
2.258749e-07
-2.385158e-08
-2.385158e-08
-1.798724e-07
-1.798724e-07
-1.615021e-07
-1.615021e-07
2.164291e-07
2.164291e-07
3.514852e-07
3.514852e-07
1.524165e-07
1.524165e-07
3.260353e-08
3.260353e-08
-4.786492e-07
-4.786492e-07
-4.730714e-07
-4.730714e-07
2.717193e-07
2.717193e-07
3.764733e-07
3.764733e-07
5.699664e-08
5.699664e-08
-1.029335e-06
-1.029335e-06
-7.017130e-07
-7.017130e-07
4.038383e-07
4.038383e-07
7.674615e-07
7.674615e-07
9.752387e-07
9.752387e-07
-1.281077e-06
-1.281077e-06
-5.520642e-07
-5.520642e-07
-3.143775e-07
-3.143775e-07
2.279797e-07
2.279797e-07
1.133172e-06
1.133172e-06
-1.165149e-06
-1.165149e-06
-7.619902e-07
-7.619902e-07
-1.266534e-06
-1.266534e-06
-4.064902e-07
-4.064902e-07
7.207089e-07
7.207089e-07
1.248402e-05
1.248402e-05
8.070618e-06
8.070618e-06
3.030167e-06
3.030167e-06
7.189361e-07
7.189361e-07
-2.661140e-06
-2.661140e-06
-4.864705e-06
-4.864705e-06
1.769983e-05
1.769983e-05
1.237021e-05
1.237021e-05
5.991039e-06
5.991039e-06
6.368208e-07
6.368208e-07
-4.486470e-06
-4.486470e-06
-6.337067e-06
-6.337067e-06
1.878008e-05
1.878008e-05
1.536047e-05
1.536047e-05
8.846436e-06
8.846436e-06
1.756185e-06
1.756185e-06
-4.304411e-06
-4.304411e-06
-4.773141e-06
-4.773141e-06
1.890042e-05
1.890042e-05
2.023082e-05
2.023082e-05
1.697765e-05
1.697765e-05
6.090466e-06
6.090466e-06
-5.237496e-06
-5.237496e-06
-8.372678e-06
-8.372678e-06
2.390763e-05
2.390763e-05
3.162872e-05
3.162872e-05
2.712757e-05
2.712757e-05
1.017965e-05
1.017965e-05
-5.043854e-06
-5.043854e-06
-1.400565e-05
-1.400565e-05
4.830089e-05
4.830089e-05
5.640907e-05
5.640907e-05
4.107023e-05
4.107023e-05
1.510431e-05
1.510431e-05
-1.315892e-05
-1.315892e-05
-2.605673e-05
-2.605673e-05
1.013184e-04
1.013184e-04
9.597840e-05
9.597840e-05
7.067127e-05
7.067127e-05
3.235891e-05
3.235891e-05
-1.086739e-05
-1.086739e-05
-3.429371e-05
-3.429371e-05
1.276210e-04
1.276210e-04
1.341729e-04
1.341729e-04
1.196371e-04
1.196371e-04
6.559545e-05
6.559545e-05
5.508208e-07
5.508208e-07
-4.112274e-05
-4.112274e-05
1.309378e-04
1.309378e-04
1.614425e-04
1.614425e-04
1.726776e-04
1.726776e-04
1.284482e-04
1.284482e-04
6.708915e-05
6.708915e-05
1.821005e-05
1.821005e-05
1.580894e-04
1.580894e-04
1.712793e-04
1.712793e-04
2.043830e-04
2.043830e-04
2.327722e-04
2.327722e-04
2.192750e-04
2.192750e-04
1.280864e-04
1.280864e-04
1.656234e-04
1.656234e-04
1.839674e-04
1.839674e-04
2.112527e-04
2.112527e-04
3.119617e-04
3.119617e-04
3.002704e-04
3.002704e-04
7.147746e-05
7.147746e-05
2.004823e-04
2.004823e-04
2.128165e-04
2.128165e-04
7.224157e-05
7.224157e-05
-6.359405e-05
-6.359405e-05
-1.535894e-04
-1.535894e-04
-2.030770e-04
-2.030770e-04
2.724322e-04
2.724322e-04
1.564162e-04
1.564162e-04
-4.260007e-04
-4.260007e-04
-9.462618e-04
-9.462618e-04
-5.482561e-04
-5.482561e-04
3.132872e-04
3.132872e-04
3.095225e-04
3.095225e-04
2.037847e-04
2.037847e-04
-1.125235e-03
-1.125235e-03
-6.296344e-03
-6.296344e-03
-5.439023e-03
-5.439023e-03
3.446022e-03
3.446022e-03
4.225027e-04
4.225027e-04
6.184373e-04
6.184373e-04
2.435036e-03
2.435036e-03
-1.387614e-02
-1.387614e-02
3.241816e-03
3.241816e-03
2.936665e-02
2.936665e-02
3.651519e-04
3.651519e-04
6.415007e-04
6.415007e-04
6.708650e-03
6.708650e-03
-1.949288e-02
-1.949288e-02
-1.272070e-02
-1.272070e-02
4.058860e-02
4.058860e-02
1.597288e-04
1.597288e-04
5.313850e-04
5.313850e-04
4.783008e-03
4.783008e-03
-9.492588e-03
-9.492588e-03
-3.910335e-02
-3.910335e-02
2.095963e-02
2.095963e-02
3.043833e-04
3.043833e-04
6.355462e-04
6.355462e-04
8.722828e-04
8.722828e-04
-1.388579e-03
-1.388579e-03
-2.233447e-02
-2.233447e-02
8.496141e-03
8.496141e-03
5.124158e-04
5.124158e-04
3.782655e-04
3.782655e-04
-8.705100e-04
-8.705100e-04
-3.957628e-03
-3.957628e-03
-4.926809e-03
-4.926809e-03
1.883957e-03
1.883957e-03
3.471966e-04
3.471966e-04
1.032560e-04
1.032560e-04
-7.148253e-04
-7.148253e-04
-1.175482e-03
-1.175482e-03
-7.038455e-04
-7.038455e-04
2.175859e-04
2.175859e-04
1.340407e-04
1.340407e-04
2.829601e-05
2.829601e-05
-2.400417e-04
-2.400417e-04
-3.726388e-04
-3.726388e-04
-2.707034e-04
-2.707034e-04
6.743182e-05
6.743182e-05
1.053424e-04
1.053424e-04
3.087701e-05
3.087701e-05
-5.395782e-05
-5.395782e-05
-1.262129e-04
-1.262129e-04
-1.547950e-04
-1.547950e-04
6.834031e-07
6.834031e-07
2.165998e-06
2.165998e-06
2.946725e-06
2.946725e-06
2.801570e-06
2.801570e-06
4.465764e-06
4.465764e-06
5.529185e-06
5.529185e-06
3.347893e-06
3.347893e-06
-1.871317e-06
-1.871317e-06
9.539430e-06
9.539430e-06
-2.694212e-06
-2.694212e-06
-4.918709e-05
-4.918709e-05
-9.067679e-06
-9.067679e-06
1.387982e-05
1.387982e-05
-1.152571e-04
-1.152571e-04
-1.163223e-04
-1.163223e-04
8.899680e-05
8.899680e-05
1.683080e-04
1.683080e-04
3.118249e-05
3.118249e-05
-1.263186e-04
-1.263186e-04
-8.348823e-05
-8.348823e-05
9.002983e-06
9.002983e-06
4.531720e-06
4.531720e-06
6.437157e-08
6.437157e-08
2.663360e-06
2.663360e-06
3.041816e-06
3.041816e-06
4.010062e-06
4.010062e-06
6.549561e-06
6.549561e-06
7.993647e-06
7.993647e-06
7.735530e-06
7.735530e-06
5.416246e-06
5.416246e-06
1.029932e-05
1.029932e-05
2.749899e-05
2.749899e-05
-6.904882e-05
-6.904882e-05
-1.955113e-04
-1.955113e-04
-1.690739e-04
-1.690739e-04
-3.604444e-04
-3.604444e-04
-6.641369e-04
-6.641369e-04
-4.527608e-04
-4.527608e-04
-1.923141e-04
-1.923141e-04
-3.715563e-04
-3.715563e-04
-4.657700e-04
-4.657700e-04
-3.796712e-04
-3.796712e-04
-1.426299e-04
-1.426299e-04
7.530586e-05
7.530586e-05
-4.724004e-07
-4.724004e-07
2.337661e-06
2.337661e-06
3.065168e-06
3.065168e-06
4.191720e-06
4.191720e-06
7.149166e-06
7.149166e-06
6.589014e-06
6.589014e-06
4.717425e-06
4.717425e-06
1.857541e-06
1.857541e-06
-6.076143e-06
-6.076143e-06
1.076102e-05
1.076102e-05
-5.718940e-05
-5.718940e-05
-4.458338e-04
-4.458338e-04
-6.134276e-04
-6.134276e-04
-2.475400e-04
-2.475400e-04
-4.609390e-04
-4.609390e-04
-7.142838e-04
-7.142838e-04
-6.925193e-04
-6.925193e-04
-3.993333e-04
-3.993333e-04
-3.107711e-04
-3.107711e-04
-6.249310e-04
-6.249310e-04
-1.240000e-04
-1.240000e-04
3.128675e-04
3.128675e-04
-5.154559e-07
-5.154559e-07
9.500880e-07
9.500880e-07
1.652277e-06
1.652277e-06
1.054651e-06
1.054651e-06
-6.267755e-08
-6.267755e-08
-4.084521e-06
-4.084521e-06
-1.075673e-05
-1.075673e-05
-1.738674e-05
-1.738674e-05
-2.882515e-05
-2.882515e-05
-1.322160e-05
-1.322160e-05
-3.945867e-05
-3.945867e-05
-4.066538e-04
-4.066538e-04
-6.227958e-04
-6.227958e-04
4.853869e-04
4.853869e-04
2.757318e-04
2.757318e-04
-5.657091e-03
-5.657091e-03
-8.707806e-03
-8.707806e-03
-2.303682e-03
-2.303682e-03
1.205538e-03
1.205538e-03
1.008629e-05
1.008629e-05
1.665157e-04
1.665157e-04
2.890541e-04
2.890541e-04
-3.193812e-06
-3.193812e-06
-2.994892e-06
-2.994892e-06
-1.999381e-06
-1.999381e-06
-3.696289e-06
-3.696289e-06
-1.126614e-05
-1.126614e-05
-1.903655e-05
-1.903655e-05
-2.987797e-05
-2.987797e-05
-4.097155e-05
-4.097155e-05
-2.461844e-05
-2.461844e-05
2.066280e-05
2.066280e-05
-4.939616e-05
-4.939616e-05
-2.211537e-04
-2.211537e-04
9.883461e-05
9.883461e-05
4.109999e-03
4.109999e-03
1.025794e-02
1.025794e-02
2.188004e-02
2.188004e-02
3.762335e-02
3.762335e-02
2.655449e-02
2.655449e-02
4.879039e-03
4.879039e-03
6.715572e-04
6.715572e-04
3.202946e-04
3.202946e-04
1.259922e-04
1.259922e-04
1.234765e-05
1.174708e-05
6.951953e-06
1.334893e-06
-4.650173e-07
-8.424215e-07
2.215724e-05
2.096096e-05
1.216770e-05
2.403713e-06
-3.388876e-07
-9.144888e-07
4.073892e-05
3.735191e-05
2.112406e-05
5.191355e-06
1.675345e-07
-1.764419e-06
5.674624e-05
5.052026e-05
2.762220e-05
7.965286e-06
7.024817e-07
-3.575490e-06
6.110666e-05
5.443096e-05
2.977704e-05
9.154217e-06
1.327254e-06
-3.855103e-06
4.786143e-05
4.415720e-05
2.552753e-05
8.046172e-06
1.952741e-06
-1.584778e-06
2.901351e-05
2.778210e-05
1.668242e-05
4.679637e-06
1.266678e-06
-1.177402e-08
1.456405e-05
1.281730e-05
7.191871e-06
1.849590e-06
-2.314644e-07
-8.489107e-07
4.533132e-06
3.016401e-06
1.463887e-06
5.563104e-07
-8.586496e-07
-1.401816e-06
-8.118939e-07
-8.157132e-07
-2.670691e-07
-2.089952e-07
-8.322622e-07
-9.611396e-07
-2.097949e-06
-1.629815e-06
-5.623238e-07
-3.863993e-07
-8.353999e-07
-8.609679e-07
1.187128e-05
1.059533e-05
5.873433e-06
1.254440e-06
-1.044111e-06
-2.169621e-06
2.617009e-05
2.222586e-05
1.095645e-05
1.436253e-06
-1.623084e-06
-2.487399e-06
5.323094e-05
4.491656e-05
2.142283e-05
2.149656e-06
-2.003321e-06
-2.062488e-06
7.122205e-05
6.167321e-05
3.075510e-05
4.454108e-06
-9.726315e-07
-1.467654e-06
7.396236e-05
6.500038e-05
3.360941e-05
6.370516e-06
3.340394e-07
-8.925330e-07
6.140033e-05
5.280321e-05
2.692074e-05
5.694481e-06
1.094857e-06
4.361583e-07
3.710589e-05
3.100095e-05
1.550635e-05
4.369095e-06
1.490384e-06
3.592689e-07
1.365703e-05
1.176791e-05
6.612757e-06
2.801692e-06
7.945104e-07
-6.676333e-07
1.875550e-06
1.980270e-06
1.868109e-06
8.454341e-07
-4.703264e-07
-9.802924e-07
-1.965278e-06
-1.571757e-06
-4.178006e-07
-3.138299e-07
-1.060463e-06
-1.150630e-06
-3.252321e-06
-2.594791e-06
-1.032308e-06
-5.784366e-07
-1.191062e-06
-1.352606e-06
6.273644e-06
6.820506e-06
3.650785e-06
-3.300487e-06
-5.437621e-06
-4.340065e-06
7.412593e-06
9.053653e-06
2.560119e-06
-8.963490e-06
-9.185718e-06
-6.018931e-06
6.374552e-06
1.397985e-05
4.255653e-07
-2.171575e-05
-1.531182e-05
-7.926145e-06
6.916738e-06
2.076683e-05
1.865387e-06
-2.960605e-05
-1.903053e-05
-9.735088e-06
6.349707e-06
2.170578e-05
3.588750e-06
-2.839949e-05
-1.828066e-05
-9.646694e-06
1.222242e-06
1.381331e-05
1.910724e-06
-2.112597e-05
-1.228411e-05
-4.899209e-06
5.931031e-06
9.754099e-06
2.958338e-06
-8.649935e-06
-5.530666e-06
-1.421952e-06
1.066331e-05
9.584363e-06
5.261796e-06
-1.281240e-07
-1.700713e-06
-1.126998e-06
3.834847e-06
4.515167e-06
3.569513e-06
7.651776e-07
-8.575253e-07
-1.301866e-06
-2.360598e-06
-1.052491e-06
6.214621e-07
-3.344094e-08
-1.441144e-06
-1.828096e-06
-3.545338e-06
-2.398972e-06
-2.961432e-07
-4.136692e-07
-1.885462e-06
-2.283266e-06
-6.298568e-06
6.144281e-07
3.263551e-07
-1.085284e-05
-1.156904e-05
-8.307125e-06
-2.339792e-05
-7.582095e-06
-7.625881e-06
-2.700027e-05
-2.230187e-05
-1.408868e-05
-5.635646e-05
-1.785159e-05
-1.787211e-05
-6.042134e-05
-4.422119e-05
-2.399721e-05
-9.669719e-05
-2.342206e-05
-1.060694e-05
-8.314056e-05
-6.300044e-05
-3.078671e-05
-1.088446e-04
-2.502191e-05
-3.914957e-06
-8.288019e-05
-6.521201e-05
-3.129433e-05
-7.164444e-05
-1.904811e-05
-1.142437e-05
-6.320927e-05
-4.650266e-05
-2.298371e-05
-3.280265e-05
-9.967187e-06
-9.090097e-06
-3.316823e-05
-2.385587e-05
-1.242375e-05
-2.139968e-07
4.613073e-06
2.081503e-06
-9.617951e-06
-1.058297e-05
-7.207171e-06
1.013643e-05
8.851626e-06
4.898666e-06
-1.275425e-06
-4.976242e-06
-5.171120e-06
4.299541e-08
1.654099e-06
2.369638e-06
-6.571999e-07
-3.315423e-06
-3.842372e-06
-1.787985e-06
-2.064813e-07
1.218561e-06
-9.072955e-07
-3.307023e-06
-3.737355e-06
2.177093e-07
9.705998e-07
3.130237e-06
-3.389449e-06
-9.362513e-06
-7.409145e-06
4.954654e-06
7.457999e-07
-1.499310e-06
-1.238607e-05
-1.914548e-05
-1.305439e-05
-2.026165e-05
1.375899e-06
4.313183e-06
-3.710382e-05
-4.007757e-05
-2.033458e-05
-1.510192e-04
-1.679535e-05
4.535972e-05
-6.205925e-05
-5.860741e-05
-1.980539e-05
-2.039245e-04
-2.882061e-05
6.188314e-05
-6.352243e-05
-6.104811e-05
-1.756838e-05
-5.466770e-05
-3.316580e-06
1.913718e-05
-3.958579e-05
-4.307109e-05
-1.673079e-05
2.696615e-05
8.724276e-06
-4.137521e-06
-1.462410e-05
-2.136519e-05
-1.223961e-05
3.164106e-06
4.552870e-06
4.750088e-06
-4.800288e-06
-1.045968e-05
-7.760236e-06
5.543714e-08
4.833375e-06
5.273974e-06
-3.328837e-06
-7.054569e-06
-6.514829e-06
-3.337629e-08
1.363827e-06
1.036865e-06
-3.092194e-06
-5.502732e-06
-5.508376e-06
-1.091599e-06
-9.536338e-08
-2.267093e-07
-3.299355e-06
-5.119418e-06
-4.994415e-06
1.418492e-05
4.909762e-06
8.114420e-06
7.151820e-06
-4.838973e-06
-3.387349e-06
4.134740e-05
1.127234e-05
7.628176e-06
1.083263e-05
-9.151391e-06
-5.908960e-06
1.921576e-05
1.393346e-05
2.350012e-05
4.095576e-06
-1.816221e-05
-6.166479e-06
-1.805084e-04
-1.803911e-05
8.177608e-05
-1.799242e-05
-2.662725e-05
1.852282e-06
-2.642785e-04
-3.975561e-05
1.013319e-04
-2.167028e-05
-2.757434e-05
6.088467e-06
-3.854127e-05
-2.359528e-06
3.663058e-05
1.652243e-06
-1.794206e-05
2.503280e-07
8.620139e-05
2.267133e-05
1.491560e-06
1.572984e-05
-7.794047e-06
-3.205929e-06
1.533282e-05
8.329804e-06
9.827119e-06
5.625285e-06
-4.975328e-06
-2.873770e-06
-1.171027e-05
4.969340e-08
5.617311e-06
-3.711026e-06
-5.789700e-06
-4.732381e-06
-1.755276e-06
-3.577264e-07
-8.540916e-07
-4.518206e-06
-5.968243e-06
-5.648079e-06
-1.291210e-06
-1.015942e-06
-1.980535e-06
-4.840984e-06
-5.848989e-06
-5.236406e-06
SCALARS EQ_PSTRAIN float 1
LOOKUP_TABLE default
0.000000e+00
0.000000e+00
0.000000e+00
0.000000e+00
0.000000e+00
0.000000e+00
0.000000e+00
0.000000e+00
0.000000e+00
0.000000e+00
0.000000e+00
0.000000e+00
0.000000e+00
0.000000e+00
0.000000e+00
0.000000e+00
0.000000e+00
0.000000e+00
0.000000e+00
0.000000e+00
0.000000e+00
0.000000e+00
0.000000e+00
0.000000e+00
0.000000e+00
0.000000e+00
0.000000e+00
0.000000e+00
0.000000e+00
0.000000e+00
0.000000e+00
0.000000e+00
0.000000e+00
0.000000e+00
0.000000e+00
0.000000e+00
0.000000e+00
0.000000e+00
0.000000e+00
0.000000e+00
0.000000e+00
0.000000e+00
0.000000e+00
0.000000e+00
0.000000e+00
0.000000e+00
0.000000e+00
0.000000e+00
0.000000e+00
0.000000e+00
0.000000e+00
0.000000e+00
0.000000e+00
0.000000e+00
0.000000e+00
0.000000e+00
0.000000e+00
0.000000e+00
0.000000e+00
0.000000e+00
0.000000e+00
0.000000e+00
0.000000e+00
0.000000e+00
0.000000e+00
0.000000e+00
0.000000e+00
0.000000e+00
0.000000e+00
0.000000e+00
0.000000e+00
0.000000e+00
0.000000e+00
0.000000e+00
0.000000e+00
0.000000e+00
0.000000e+00
0.000000e+00
0.000000e+00
0.000000e+00
0.000000e+00
0.000000e+00
0.000000e+00
0.000000e+00
0.000000e+00
0.000000e+00
0.000000e+00
0.000000e+00
0.000000e+00
0.000000e+00
0.000000e+00
0.000000e+00
0.000000e+00
0.000000e+00
0.000000e+00
0.000000e+00
0.000000e+00
0.000000e+00
0.000000e+00
0.000000e+00
0.000000e+00
0.000000e+00
0.000000e+00
0.000000e+00
0.000000e+00
0.000000e+00
0.000000e+00
0.000000e+00
0.000000e+00
0.000000e+00
0.000000e+00
0.000000e+00
0.000000e+00
0.000000e+00
0.000000e+00
0.000000e+00
0.000000e+00
0.000000e+00
0.000000e+00
0.000000e+00
0.000000e+00
0.000000e+00
0.000000e+00
0.000000e+00
0.000000e+00
0.000000e+00
0.000000e+00
0.000000e+00
0.000000e+00
0.000000e+00
0.000000e+00
0.000000e+00
0.000000e+00
0.000000e+00
0.000000e+00
0.000000e+00
0.000000e+00
0.000000e+00
0.000000e+00
0.000000e+00
0.000000e+00
0.000000e+00
0.000000e+00
0.000000e+00
0.000000e+00
0.000000e+00
0.000000e+00
0.000000e+00
0.000000e+00
0.000000e+00
0.000000e+00
0.000000e+00
0.000000e+00
0.000000e+00
0.000000e+00
0.000000e+00
0.000000e+00
0.000000e+00
0.000000e+00
0.000000e+00
0.000000e+00
0.000000e+00
0.000000e+00
0.000000e+00
0.000000e+00
0.000000e+00
0.000000e+00
0.000000e+00
0.000000e+00
0.000000e+00
0.000000e+00
0.000000e+00
0.000000e+00
0.000000e+00
0.000000e+00
0.000000e+00
0.000000e+00
0.000000e+00
0.000000e+00
0.000000e+00
0.000000e+00
0.000000e+00
0.000000e+00
0.000000e+00
0.000000e+00
0.000000e+00
0.000000e+00
0.000000e+00
0.000000e+00
0.000000e+00
0.000000e+00
0.000000e+00
0.000000e+00
0.000000e+00
0.000000e+00
0.000000e+00
0.000000e+00
0.000000e+00
0.000000e+00
0.000000e+00
0.000000e+00
0.000000e+00
0.000000e+00
0.000000e+00
0.000000e+00
0.000000e+00
0.000000e+00
0.000000e+00
0.000000e+00
0.000000e+00
0.000000e+00
0.000000e+00
0.000000e+00
0.000000e+00
0.000000e+00
0.000000e+00
0.000000e+00
0.000000e+00
0.000000e+00
0.000000e+00
0.000000e+00
0.000000e+00
0.000000e+00
0.000000e+00
0.000000e+00
0.000000e+00
0.000000e+00
0.000000e+00
0.000000e+00
0.000000e+00
0.000000e+00
0.000000e+00
0.000000e+00
0.000000e+00
0.000000e+00
0.000000e+00
0.000000e+00
0.000000e+00
0.000000e+00
0.000000e+00
0.000000e+00
0.000000e+00
0.000000e+00
0.000000e+00
0.000000e+00
0.000000e+00
0.000000e+00
0.000000e+00
0.000000e+00
0.000000e+00
0.000000e+00
0.000000e+00
0.000000e+00
0.000000e+00
0.000000e+00
0.000000e+00
0.000000e+00
0.000000e+00
0.000000e+00
0.000000e+00
0.000000e+00
0.000000e+00
0.000000e+00
0.000000e+00
0.000000e+00
0.000000e+00
0.000000e+00
0.000000e+00
0.000000e+00
0.000000e+00
0.000000e+00
0.000000e+00
0.000000e+00
0.000000e+00
0.000000e+00
0.000000e+00
0.000000e+00
0.000000e+00
0.000000e+00
0.000000e+00
0.000000e+00
0.000000e+00
0.000000e+00
0.000000e+00
0.000000e+00
0.000000e+00
0.000000e+00
0.000000e+00
0.000000e+00
0.000000e+00
0.000000e+00
0.000000e+00
0.000000e+00
0.000000e+00
0.000000e+00
0.000000e+00
0.000000e+00
0.000000e+00
0.000000e+00
0.000000e+00
0.000000e+00
0.000000e+00
0.000000e+00
0.000000e+00
0.000000e+00
0.000000e+00
0.000000e+00
0.000000e+00
0.000000e+00
0.000000e+00
0.000000e+00
0.000000e+00
0.000000e+00
0.000000e+00
0.000000e+00
0.000000e+00
0.000000e+00
0.000000e+00
0.000000e+00
0.000000e+00
0.000000e+00
0.000000e+00
0.000000e+00
0.000000e+00
0.000000e+00
0.000000e+00
0.000000e+00
0.000000e+00
0.000000e+00
0.000000e+00
0.000000e+00
0.000000e+00
0.000000e+00
0.000000e+00
0.000000e+00
0.000000e+00
0.000000e+00
0.000000e+00
0.000000e+00
0.000000e+00
0.000000e+00
0.000000e+00
0.000000e+00
0.000000e+00
0.000000e+00
0.000000e+00
0.000000e+00
0.000000e+00
0.000000e+00
0.000000e+00
0.000000e+00
0.000000e+00
0.000000e+00
0.000000e+00
0.000000e+00
0.000000e+00
0.000000e+00
0.000000e+00
0.000000e+00
0.000000e+00
0.000000e+00
0.000000e+00
0.000000e+00
0.000000e+00
0.000000e+00
0.000000e+00
0.000000e+00
0.000000e+00
0.000000e+00
0.000000e+00
0.000000e+00
0.000000e+00
0.000000e+00
0.000000e+00
0.000000e+00
0.000000e+00
0.000000e+00
0.000000e+00
0.000000e+00
0.000000e+00
0.000000e+00
0.000000e+00
0.000000e+00
0.000000e+00
0.000000e+00
0.000000e+00
0.000000e+00
0.000000e+00
0.000000e+00
0.000000e+00
0.000000e+00
0.000000e+00
0.000000e+00
0.000000e+00
0.000000e+00
0.000000e+00
0.000000e+00
0.000000e+00
0.000000e+00
0.000000e+00
0.000000e+00
0.000000e+00
0.000000e+00
0.000000e+00
0.000000e+00
0.000000e+00
0.000000e+00
0.000000e+00
0.000000e+00
0.000000e+00
0.000000e+00
0.000000e+00
0.000000e+00
0.000000e+00
0.000000e+00
0.000000e+00
0.000000e+00
0.000000e+00
0.000000e+00
0.000000e+00
0.000000e+00
0.000000e+00
0.000000e+00
0.000000e+00
0.000000e+00
0.000000e+00
0.000000e+00
0.000000e+00
0.000000e+00
0.000000e+00
0.000000e+00
0.000000e+00
0.000000e+00
0.000000e+00
0.000000e+00
0.000000e+00
0.000000e+00
0.000000e+00
0.000000e+00
0.000000e+00
0.000000e+00
0.000000e+00
0.000000e+00
0.000000e+00
0.000000e+00
0.000000e+00
0.000000e+00
0.000000e+00
0.000000e+00
0.000000e+00
0.000000e+00
0.000000e+00
0.000000e+00
0.000000e+00
0.000000e+00
0.000000e+00
0.000000e+00
0.000000e+00
0.000000e+00
0.000000e+00
0.000000e+00
0.000000e+00
0.000000e+00
0.000000e+00
0.000000e+00
0.000000e+00
0.000000e+00
0.000000e+00
0.000000e+00
0.000000e+00
0.000000e+00
0.000000e+00
0.000000e+00
0.000000e+00
0.000000e+00
0.000000e+00
0.000000e+00
0.000000e+00
0.000000e+00
0.000000e+00
0.000000e+00
0.000000e+00
0.000000e+00
0.000000e+00
0.000000e+00
0.000000e+00
0.000000e+00
0.000000e+00
0.000000e+00
0.000000e+00
0.000000e+00
0.000000e+00
0.000000e+00
0.000000e+00
0.000000e+00
0.000000e+00
0.000000e+00
0.000000e+00
0.000000e+00
0.000000e+00
0.000000e+00
0.000000e+00
0.000000e+00
0.000000e+00
0.000000e+00
0.000000e+00
0.000000e+00
0.000000e+00
0.000000e+00
0.000000e+00
0.000000e+00
0.000000e+00
0.000000e+00
0.000000e+00
0.000000e+00
0.000000e+00
0.000000e+00
0.000000e+00
0.000000e+00
0.000000e+00
0.000000e+00
0.000000e+00
0.000000e+00
0.000000e+00
0.000000e+00
0.000000e+00
0.000000e+00
0.000000e+00
0.000000e+00
0.000000e+00
0.000000e+00
0.000000e+00
0.000000e+00
0.000000e+00
0.000000e+00
0.000000e+00
0.000000e+00
0.000000e+00
0.000000e+00
0.000000e+00
0.000000e+00
0.000000e+00
0.000000e+00
0.000000e+00
0.000000e+00
0.000000e+00
0.000000e+00
0.000000e+00
0.000000e+00
0.000000e+00
0.000000e+00
0.000000e+00
0.000000e+00
0.000000e+00
0.000000e+00
0.000000e+00
0.000000e+00
0.000000e+00
0.000000e+00
0.000000e+00
0.000000e+00
0.000000e+00
0.000000e+00
0.000000e+00
0.000000e+00
0.000000e+00
0.000000e+00
0.000000e+00
0.000000e+00
0.000000e+00
0.000000e+00
0.000000e+00
0.000000e+00
0.000000e+00
0.000000e+00
0.000000e+00
0.000000e+00
0.000000e+00
0.000000e+00
0.000000e+00
0.000000e+00
0.000000e+00
0.000000e+00
0.000000e+00
0.000000e+00
0.000000e+00
0.000000e+00
0.000000e+00
0.000000e+00
0.000000e+00
0.000000e+00
0.000000e+00
0.000000e+00
0.000000e+00
0.000000e+00
0.000000e+00
0.000000e+00
0.000000e+00
0.000000e+00
0.000000e+00
0.000000e+00
0.000000e+00
0.000000e+00
0.000000e+00
0.000000e+00
0.000000e+00
0.000000e+00
0.000000e+00
0.000000e+00
0.000000e+00
0.000000e+00
0.000000e+00
0.000000e+00
0.000000e+00
0.000000e+00
0.000000e+00
0.000000e+00
0.000000e+00
0.000000e+00
0.000000e+00
0.000000e+00
0.000000e+00
0.000000e+00
0.000000e+00
0.000000e+00
0.000000e+00
0.000000e+00
0.000000e+00
0.000000e+00
0.000000e+00
0.000000e+00
0.000000e+00
0.000000e+00
0.000000e+00
0.000000e+00
0.000000e+00
0.000000e+00
0.000000e+00
0.000000e+00
0.000000e+00
0.000000e+00
0.000000e+00
0.000000e+00
0.000000e+00
0.000000e+00
0.000000e+00
0.000000e+00
0.000000e+00
0.000000e+00
0.000000e+00
0.000000e+00
0.000000e+00
0.000000e+00
0.000000e+00
0.000000e+00
0.000000e+00
0.000000e+00
0.000000e+00
0.000000e+00
0.000000e+00
0.000000e+00
0.000000e+00
0.000000e+00
0.000000e+00
0.000000e+00
0.000000e+00
0.000000e+00
0.000000e+00
0.000000e+00
0.000000e+00
0.000000e+00
0.000000e+00
0.000000e+00
0.000000e+00
0.000000e+00
0.000000e+00
0.000000e+00
0.000000e+00
0.000000e+00
0.000000e+00
0.000000e+00
0.000000e+00
0.000000e+00
0.000000e+00
0.000000e+00
0.000000e+00
0.000000e+00
0.000000e+00
0.000000e+00
0.000000e+00
0.000000e+00
0.000000e+00
0.000000e+00
0.000000e+00
0.000000e+00
0.000000e+00
0.000000e+00
0.000000e+00
0.000000e+00
0.000000e+00
0.000000e+00
0.000000e+00
0.000000e+00
0.000000e+00
0.000000e+00
0.000000e+00
0.000000e+00
0.000000e+00
0.000000e+00
0.000000e+00
0.000000e+00
0.000000e+00
0.000000e+00
0.000000e+00
0.000000e+00
0.000000e+00
0.000000e+00
0.000000e+00
0.000000e+00
0.000000e+00
0.000000e+00
0.000000e+00
0.000000e+00
0.000000e+00
0.000000e+00
0.000000e+00
0.000000e+00
0.000000e+00
0.000000e+00
0.000000e+00
0.000000e+00
0.000000e+00
0.000000e+00
0.000000e+00
0.000000e+00
0.000000e+00
0.000000e+00
0.000000e+00
0.000000e+00
0.000000e+00
0.000000e+00
0.000000e+00
0.000000e+00
0.000000e+00
0.000000e+00
0.000000e+00
0.000000e+00
0.000000e+00
0.000000e+00
0.000000e+00
0.000000e+00
0.000000e+00
0.000000e+00
0.000000e+00
0.000000e+00
0.000000e+00
0.000000e+00
0.000000e+00
0.000000e+00
0.000000e+00
0.000000e+00
0.000000e+00
0.000000e+00
0.000000e+00
0.000000e+00
0.000000e+00
0.000000e+00
0.000000e+00
0.000000e+00
0.000000e+00
0.000000e+00
0.000000e+00
0.000000e+00
0.000000e+00
0.000000e+00
0.000000e+00
0.000000e+00
0.000000e+00
0.000000e+00
0.000000e+00
0.000000e+00
0.000000e+00
0.000000e+00
0.000000e+00
0.000000e+00
0.000000e+00
0.000000e+00
0.000000e+00
0.000000e+00
0.000000e+00
0.000000e+00
0.000000e+00
0.000000e+00
0.000000e+00
0.000000e+00
0.000000e+00
0.000000e+00
0.000000e+00
0.000000e+00
0.000000e+00
0.000000e+00
0.000000e+00
0.000000e+00
0.000000e+00
0.000000e+00
0.000000e+00
0.000000e+00
0.000000e+00
0.000000e+00
0.000000e+00
0.000000e+00
0.000000e+00
0.000000e+00
0.000000e+00
0.000000e+00
0.000000e+00
0.000000e+00
0.000000e+00
0.000000e+00
0.000000e+00
0.000000e+00
0.000000e+00
0.000000e+00
0.000000e+00
0.000000e+00
0.000000e+00
0.000000e+00
0.000000e+00
0.000000e+00
0.000000e+00
0.000000e+00
0.000000e+00
0.000000e+00
0.000000e+00
0.000000e+00
0.000000e+00
0.000000e+00
0.000000e+00
0.000000e+00
0.000000e+00
0.000000e+00
0.000000e+00
0.000000e+00
0.000000e+00
0.000000e+00
0.000000e+00
0.000000e+00
0.000000e+00
0.000000e+00
0.000000e+00
0.000000e+00
0.000000e+00
0.000000e+00
0.000000e+00
0.000000e+00
0.000000e+00
0.000000e+00
0.000000e+00
0.000000e+00
0.000000e+00
0.000000e+00
0.000000e+00
0.000000e+00
0.000000e+00
0.000000e+00
0.000000e+00
0.000000e+00
0.000000e+00
0.000000e+00
0.000000e+00
0.000000e+00
0.000000e+00
0.000000e+00
0.000000e+00
0.000000e+00
0.000000e+00
0.000000e+00
0.000000e+00
0.000000e+00
0.000000e+00
0.000000e+00
0.000000e+00
0.000000e+00
0.000000e+00
0.000000e+00
0.000000e+00
0.000000e+00
0.000000e+00
0.000000e+00
0.000000e+00
0.000000e+00
0.000000e+00
0.000000e+00
0.000000e+00
0.000000e+00
0.000000e+00
0.000000e+00
0.000000e+00
0.000000e+00
0.000000e+00
0.000000e+00
0.000000e+00
0.000000e+00
0.000000e+00
0.000000e+00
0.000000e+00
0.000000e+00
0.000000e+00
0.000000e+00
0.000000e+00
0.000000e+00
0.000000e+00
0.000000e+00
0.000000e+00
0.000000e+00
0.000000e+00
0.000000e+00
0.000000e+00
0.000000e+00
0.000000e+00
0.000000e+00
0.000000e+00
0.000000e+00
0.000000e+00
0.000000e+00
0.000000e+00
0.000000e+00
0.000000e+00
0.000000e+00
0.000000e+00
0.000000e+00
0.000000e+00
0.000000e+00
0.000000e+00
0.000000e+00
0.000000e+00
0.000000e+00
0.000000e+00
0.000000e+00
0.000000e+00
0.000000e+00
0.000000e+00
0.000000e+00
0.000000e+00
0.000000e+00
0.000000e+00
0.000000e+00
0.000000e+00
0.000000e+00
0.000000e+00
0.000000e+00
0.000000e+00
0.000000e+00
0.000000e+00
0.000000e+00
0.000000e+00
0.000000e+00
0.000000e+00
0.000000e+00
0.000000e+00
0.000000e+00
0.000000e+00
0.000000e+00
0.000000e+00
0.000000e+00
0.000000e+00
0.000000e+00
0.000000e+00
0.000000e+00
0.000000e+00
0.000000e+00
0.000000e+00
0.000000e+00
0.000000e+00
0.000000e+00
0.000000e+00
0.000000e+00
0.000000e+00
0.000000e+00
0.000000e+00
0.000000e+00
0.000000e+00
0.000000e+00
0.000000e+00
0.000000e+00
0.000000e+00
0.000000e+00
0.000000e+00
0.000000e+00
0.000000e+00
0.000000e+00
0.000000e+00
0.000000e+00
0.000000e+00
0.000000e+00
0.000000e+00
0.000000e+00
0.000000e+00
0.000000e+00
0.000000e+00
0.000000e+00
0.000000e+00
0.000000e+00
0.000000e+00
0.000000e+00
0.000000e+00
0.000000e+00
0.000000e+00
0.000000e+00
0.000000e+00
0.000000e+00
0.000000e+00
0.000000e+00
0.000000e+00
0.000000e+00
0.000000e+00
0.000000e+00
0.000000e+00
0.000000e+00
0.000000e+00
0.000000e+00
0.000000e+00
0.000000e+00
0.000000e+00
0.000000e+00
0.000000e+00
0.000000e+00
0.000000e+00
0.000000e+00
0.000000e+00
0.000000e+00
0.000000e+00
0.000000e+00
0.000000e+00
0.000000e+00
0.000000e+00
0.000000e+00
0.000000e+00
0.000000e+00
0.000000e+00
0.000000e+00
0.000000e+00
0.000000e+00
0.000000e+00
0.000000e+00
0.000000e+00
0.000000e+00
0.000000e+00
0.000000e+00
0.000000e+00
0.000000e+00
0.000000e+00
0.000000e+00
0.000000e+00
0.000000e+00
0.000000e+00
0.000000e+00
0.000000e+00
0.000000e+00
0.000000e+00
0.000000e+00
0.000000e+00
0.000000e+00
0.000000e+00
0.000000e+00
0.000000e+00
0.000000e+00
0.000000e+00
0.000000e+00
0.000000e+00
0.000000e+00
0.000000e+00
0.000000e+00
0.000000e+00
0.000000e+00
0.000000e+00
0.000000e+00
0.000000e+00
0.000000e+00
0.000000e+00
0.000000e+00
0.000000e+00
0.000000e+00
0.000000e+00
0.000000e+00
0.000000e+00
0.000000e+00
0.000000e+00
0.000000e+00
0.000000e+00
0.000000e+00
0.000000e+00
0.000000e+00
0.000000e+00
1.941163e-04
1.941163e-04
7.166109e-03
7.166109e-03
1.678282e-02
1.678282e-02
1.264145e-02
1.264145e-02
0.000000e+00
0.000000e+00
0.000000e+00
0.000000e+00
2.938908e-03
2.938908e-03
2.844119e-02
2.844119e-02
5.966370e-02
5.966370e-02
4.577424e-02
4.577424e-02
0.000000e+00
0.000000e+00
0.000000e+00
0.000000e+00
6.289662e-03
6.289662e-03
3.582613e-02
3.582613e-02
6.755891e-02
6.755891e-02
6.111056e-02
6.111056e-02
0.000000e+00
0.000000e+00
0.000000e+00
0.000000e+00
4.454694e-03
4.454694e-03
2.121820e-02
2.121820e-02
5.282659e-02
5.282659e-02
7.234278e-02
7.234278e-02
0.000000e+00
0.000000e+00
0.000000e+00
0.000000e+00
9.230508e-04
9.230508e-04
8.523803e-03
8.523803e-03
3.649934e-02
3.649934e-02
5.496339e-02
5.496339e-02
0.000000e+00
0.000000e+00
0.000000e+00
0.000000e+00
1.322677e-05
1.322677e-05
1.856655e-03
1.856655e-03
8.370392e-03
8.370392e-03
1.061798e-02
1.061798e-02
0.000000e+00
0.000000e+00
0.000000e+00
0.000000e+00
0.000000e+00
0.000000e+00
0.000000e+00
0.000000e+00
1.961214e-05
1.961214e-05
1.961214e-05
1.961214e-05
0.000000e+00
0.000000e+00
0.000000e+00
0.000000e+00
0.000000e+00
0.000000e+00
0.000000e+00
0.000000e+00
0.000000e+00
0.000000e+00
0.000000e+00
0.000000e+00
0.000000e+00
0.000000e+00
0.000000e+00
0.000000e+00
0.000000e+00
0.000000e+00
0.000000e+00
0.000000e+00
0.000000e+00
0.000000e+00
0.000000e+00
0.000000e+00
0.000000e+00
0.000000e+00
0.000000e+00
0.000000e+00
0.000000e+00
0.000000e+00
0.000000e+00
0.000000e+00
0.000000e+00
0.000000e+00
0.000000e+00
0.000000e+00
0.000000e+00
0.000000e+00
0.000000e+00
0.000000e+00
0.000000e+00
0.000000e+00
0.000000e+00
0.000000e+00
0.000000e+00
0.000000e+00
0.000000e+00
0.000000e+00
0.000000e+00
0.000000e+00
0.000000e+00
0.000000e+00
0.000000e+00
0.000000e+00
0.000000e+00
0.000000e+00
0.000000e+00
0.000000e+00
0.000000e+00
0.000000e+00
0.000000e+00
0.000000e+00
0.000000e+00
0.000000e+00
0.000000e+00
0.000000e+00
0.000000e+00
0.000000e+00
0.000000e+00
0.000000e+00
0.000000e+00
0.000000e+00
0.000000e+00
0.000000e+00
0.000000e+00
0.000000e+00
0.000000e+00
0.000000e+00
0.000000e+00
0.000000e+00
0.000000e+00
0.000000e+00
0.000000e+00
0.000000e+00
0.000000e+00
0.000000e+00
0.000000e+00
0.000000e+00
0.000000e+00
0.000000e+00
0.000000e+00
0.000000e+00
0.000000e+00
0.000000e+00
0.000000e+00
0.000000e+00
0.000000e+00
0.000000e+00
0.000000e+00
0.000000e+00
0.000000e+00
0.000000e+00
0.000000e+00
0.000000e+00
0.000000e+00
0.000000e+00
0.000000e+00
0.000000e+00
0.000000e+00
0.000000e+00
0.000000e+00
0.000000e+00
0.000000e+00
0.000000e+00
0.000000e+00
0.000000e+00
0.000000e+00
0.000000e+00
0.000000e+00
0.000000e+00
0.000000e+00
0.000000e+00
0.000000e+00
0.000000e+00
0.000000e+00
0.000000e+00
0.000000e+00
0.000000e+00
0.000000e+00
0.000000e+00
0.000000e+00
0.000000e+00
0.000000e+00
0.000000e+00
0.000000e+00
0.000000e+00
0.000000e+00
0.000000e+00
0.000000e+00
0.000000e+00
7.277977e-05
7.277977e-05
7.277977e-05
7.277977e-05
0.000000e+00
0.000000e+00
0.000000e+00
0.000000e+00
0.000000e+00
0.000000e+00
0.000000e+00
0.000000e+00
0.000000e+00
0.000000e+00
0.000000e+00
0.000000e+00
0.000000e+00
0.000000e+00
0.000000e+00
0.000000e+00
0.000000e+00
0.000000e+00
0.000000e+00
0.000000e+00
0.000000e+00
0.000000e+00
0.000000e+00
0.000000e+00
0.000000e+00
0.000000e+00
0.000000e+00
0.000000e+00
0.000000e+00
0.000000e+00
0.000000e+00
0.000000e+00
0.000000e+00
0.000000e+00
0.000000e+00
0.000000e+00
5.048413e-04
5.048413e-04
2.648388e-03
2.648388e-03
7.127923e-03
7.127923e-03
8.446027e-03
8.446027e-03
4.218724e-03
4.218724e-03
7.570730e-04
7.570730e-04
0.000000e+00
0.000000e+00
0.000000e+00
0.000000e+00
0.000000e+00
0.000000e+00
0.000000e+00
0.000000e+00
0.000000e+00
0.000000e+00
0.000000e+00
0.000000e+00
0.000000e+00
0.000000e+00
0.000000e+00
0.000000e+00
0.000000e+00
0.000000e+00
0.000000e+00
0.000000e+00
0.000000e+00
0.000000e+00
0.000000e+00
0.000000e+00
0.000000e+00
0.000000e+00
0.000000e+00
0.000000e+00
0.000000e+00
0.000000e+00
0.000000e+00
0.000000e+00
3.335458e-03
3.335458e-03
1.426121e-02
1.426121e-02
3.014326e-02
3.014326e-02
4.465294e-02
4.465294e-02
3.028352e-02
3.028352e-02
4.848092e-03
4.848092e-03
0.000000e+00
0.000000e+00
0.000000e+00
0.000000e+00
0.000000e+00
0.000000e+00
0.000000e+00
0.000000e+00
0.000000e+00
0.000000e+00
0.000000e+00
0.000000e+00
0.000000e+00
0.000000e+00
0.000000e+00
0.000000e+00
0.000000e+00
0.000000e+00
0.000000e+00
0.000000e+00
0.000000e+00
0.000000e+00
0.000000e+00
0.000000e+00
0.000000e+00
0.000000e+00
0.000000e+00
0.000000e+00
0.000000e+00
0.000000e+00
0.000000e+00
0.000000e+00
0.000000e+00
0.000000e+00
0.000000e+00
0.000000e+00
0.000000e+00
0.000000e+00
0.000000e+00
0.000000e+00
0.000000e+00
0.000000e+00
0.000000e+00
0.000000e+00
0.000000e+00
0.000000e+00
0.000000e+00
0.000000e+00
0.000000e+00
0.000000e+00
0.000000e+00
0.000000e+00
0.000000e+00
0.000000e+00
0.000000e+00
0.000000e+00
0.000000e+00
0.000000e+00
0.000000e+00
0.000000e+00
0.000000e+00
0.000000e+00
0.000000e+00
0.000000e+00
0.000000e+00
0.000000e+00
0.000000e+00
0.000000e+00
0.000000e+00
0.000000e+00
0.000000e+00
0.000000e+00
0.000000e+00
0.000000e+00
0.000000e+00
0.000000e+00
0.000000e+00
0.000000e+00
0.000000e+00
0.000000e+00
0.000000e+00
0.000000e+00
0.000000e+00
0.000000e+00
0.000000e+00
0.000000e+00
0.000000e+00
0.000000e+00
0.000000e+00
0.000000e+00
0.000000e+00
0.000000e+00
0.000000e+00
0.000000e+00
0.000000e+00
0.000000e+00
0.000000e+00
0.000000e+00
0.000000e+00
0.000000e+00
0.000000e+00
0.000000e+00
0.000000e+00
0.000000e+00
0.000000e+00
0.000000e+00
0.000000e+00
0.000000e+00
0.000000e+00
0.000000e+00
0.000000e+00
0.000000e+00
0.000000e+00
0.000000e+00
0.000000e+00
0.000000e+00
0.000000e+00
0.000000e+00
0.000000e+00
0.000000e+00
0.000000e+00
0.000000e+00
0.000000e+00
0.000000e+00
0.000000e+00
0.000000e+00
0.000000e+00
0.000000e+00
0.000000e+00
0.000000e+00
0.000000e+00
0.000000e+00
0.000000e+00
0.000000e+00
0.000000e+00
0.000000e+00
0.000000e+00
0.000000e+00
0.000000e+00
0.000000e+00
0.000000e+00
0.000000e+00
0.000000e+00
0.000000e+00
0.000000e+00
0.000000e+00
0.000000e+00
0.000000e+00
0.000000e+00
0.000000e+00
0.000000e+00
0.000000e+00
0.000000e+00
0.000000e+00
0.000000e+00
0.000000e+00
0.000000e+00
0.000000e+00
0.000000e+00
0.000000e+00
0.000000e+00
0.000000e+00
0.000000e+00
0.000000e+00
0.000000e+00
0.000000e+00
0.000000e+00
0.000000e+00
0.000000e+00
0.000000e+00
0.000000e+00
0.000000e+00
0.000000e+00
0.000000e+00
0.000000e+00
0.000000e+00
0.000000e+00
0.000000e+00
0.000000e+00
0.000000e+00
0.000000e+00
0.000000e+00
0.000000e+00
0.000000e+00
0.000000e+00
0.000000e+00
0.000000e+00
0.000000e+00
0.000000e+00
0.000000e+00
0.000000e+00
0.000000e+00
0.000000e+00
0.000000e+00
0.000000e+00
0.000000e+00
0.000000e+00
0.000000e+00
0.000000e+00
0.000000e+00
0.000000e+00
0.000000e+00
0.000000e+00
0.000000e+00
0.000000e+00
0.000000e+00
0.000000e+00
0.000000e+00
0.000000e+00
0.000000e+00
0.000000e+00
0.000000e+00
0.000000e+00
0.000000e+00
0.000000e+00
0.000000e+00
0.000000e+00
0.000000e+00
0.000000e+00
0.000000e+00
0.000000e+00
0.000000e+00
0.000000e+00
0.000000e+00
0.000000e+00
0.000000e+00
0.000000e+00
0.000000e+00
0.000000e+00
0.000000e+00
0.000000e+00
0.000000e+00
0.000000e+00
0.000000e+00
0.000000e+00
0.000000e+00
0.000000e+00
0.000000e+00
0.000000e+00
0.000000e+00
0.000000e+00
0.000000e+00
0.000000e+00
0.000000e+00
0.000000e+00
0.000000e+00
0.000000e+00
0.000000e+00
0.000000e+00
0.000000e+00
0.000000e+00
0.000000e+00
0.000000e+00
0.000000e+00
0.000000e+00
0.000000e+00
0.000000e+00
0.000000e+00
0.000000e+00
0.000000e+00
0.000000e+00
0.000000e+00
0.000000e+00
0.000000e+00
0.000000e+00
0.000000e+00
0.000000e+00
0.000000e+00
0.000000e+00
0.000000e+00
0.000000e+00
0.000000e+00
0.000000e+00
0.000000e+00
0.000000e+00
0.000000e+00
0.000000e+00
0.000000e+00
0.000000e+00
0.000000e+00
0.000000e+00
0.000000e+00
0.000000e+00
0.000000e+00
0.000000e+00
0.000000e+00
0.000000e+00
0.000000e+00
0.000000e+00
0.000000e+00
0.000000e+00
0.000000e+00
0.000000e+00
0.000000e+00
0.000000e+00
0.000000e+00
0.000000e+00
0.000000e+00
0.000000e+00
0.000000e+00
0.000000e+00
0.000000e+00
0.000000e+00
0.000000e+00
0.000000e+00
0.000000e+00
0.000000e+00
0.000000e+00
0.000000e+00
0.000000e+00
0.000000e+00
0.000000e+00
0.000000e+00
0.000000e+00
0.000000e+00
0.000000e+00
0.000000e+00
0.000000e+00
0.000000e+00
0.000000e+00
0.000000e+00
0.000000e+00
0.000000e+00
0.000000e+00
0.000000e+00
0.000000e+00
0.000000e+00
0.000000e+00
0.000000e+00
0.000000e+00
0.000000e+00
0.000000e+00
0.000000e+00
0.000000e+00
0.000000e+00
0.000000e+00
0.000000e+00
0.000000e+00
0.000000e+00
0.000000e+00
0.000000e+00
0.000000e+00
0.000000e+00
0.000000e+00
0.000000e+00
0.000000e+00
0.000000e+00
0.000000e+00
0.000000e+00
0.000000e+00
0.000000e+00
0.000000e+00
0.000000e+00
0.000000e+00
0.000000e+00
0.000000e+00
0.000000e+00
0.000000e+00
0.000000e+00
0.000000e+00
0.000000e+00
0.000000e+00
0.000000e+00
0.000000e+00
0.000000e+00
0.000000e+00
0.000000e+00
0.000000e+00
0.000000e+00
0.000000e+00
0.000000e+00
0.000000e+00
0.000000e+00
0.000000e+00
0.000000e+00
0.000000e+00
0.000000e+00
0.000000e+00
0.000000e+00
0.000000e+00
0.000000e+00
0.000000e+00
0.000000e+00
0.000000e+00
0.000000e+00
0.000000e+00
0.000000e+00
0.000000e+00
0.000000e+00
0.000000e+00
0.000000e+00
0.000000e+00
0.000000e+00
0.000000e+00
0.000000e+00
0.000000e+00
0.000000e+00
0.000000e+00
0.000000e+00
0.000000e+00
0.000000e+00
0.000000e+00
SCALARS S11 float 1
LOOKUP_TABLE default
2.336026e+00
-8.416440e-01
-2.702105e+00
7.501163e-02
2.336026e+00
-8.416440e-01
-2.702105e+00
7.501163e-02
-1.810461e+00
-3.126179e-01
-6.177739e-01
-1.230698e+00
-1.810461e+00
-3.126179e-01
-6.177739e-01
-1.230698e+00
9.144264e-01
7.827808e-01
4.988163e-01
9.144264e-01
7.827808e-01
4.988163e-01
-3.777973e-01
7.296777e-01
1.747904e+00
8.095402e-01
-3.777973e-01
7.296777e-01
1.747904e+00
8.095402e-01
1.026782e-01
-8.104305e-01
1.026782e-01
-8.104305e-01
-5.937542e-01
8.801591e-02
-5.937542e-01
8.801591e-02
-5.364253e-01
-9.526173e-02
-3.493197e-01
-9.189775e-01
-5.364253e-01
-9.526173e-02
-3.493197e-01
-9.189775e-01
2.338639e-01
1.113035e-01
-1.240243e-01
2.782784e-01
2.338639e-01
1.113035e-01
-1.240243e-01
2.782784e-01
-2.769715e+00
-3.781706e+00
-4.058962e+00
-2.523523e+00
-2.769715e+00
-3.781706e+00
-4.058962e+00
-2.523523e+00
5.297311e-04
-1.905409e+00
5.297311e-04
-1.905409e+00
1.650418e-01
1.650418e-01
2.125050e-01
-3.042424e-02
2.125050e-01
-3.042424e-02
-2.156639e+00
-1.772789e+00
-2.156639e+00
-1.772789e+00
-4.446325e-01
-4.446325e-01
8.670599e-01
8.670599e-01
7.474234e-01
7.474234e-01
4.142618e-01
7.748940e-02
9.796576e-03
4.142618e-01
7.748940e-02
9.796576e-03
1.775933e-01
2.247855e-01
2.709457e-01
6.707373e-02
1.775933e-01
2.247855e-01
2.709457e-01
6.707373e-02
2.772251e-01
2.772251e-01
-7.865220e-01
1.438593e-01
-7.865220e-01
1.438593e-01
-6.173662e-01
-6.173662e-01
-4.428691e-01
-4.428691e-01
-3.574729e-01
-3.574729e-01
2.484692e-01
2.484692e-01
-3.883993e+00
-3.883993e+00
-4.600601e-02
-4.600601e-02
1.778489e-01
1.778489e-01
-1.625535e+00
-1.625535e+00
-3.408454e-02
5.410941e-01
-3.408454e-02
5.410941e-01
-1.799937e-01
-1.799937e-01
-2.404732e-01
-2.404732e-01
-3.785599e-02
-3.785599e-02
9.275925e-03
9.275925e-03
-6.370472e-02
-3.770872e-01
-6.370472e-02
-3.770872e-01
-1.497279e-01
-1.497279e-01
9.194414e-03
9.194414e-03
9.848026e-02
9.848026e-02
3.361043e-02
3.361043e-02
6.472855e-02
-2.047818e-01
6.472855e-02
-2.047818e-01
1.160578e-01
1.160578e-01
2.041384e-01
2.041384e-01
4.426727e-02
4.426727e-02
2.210383e-02
2.210383e-02
3.803331e-02
-2.523830e-02
3.803331e-02
-2.523830e-02
3.431915e-02
3.431915e-02
8.057222e-02
8.057222e-02
-1.355508e-02
-1.355508e-02
-1.057689e-01
-1.057689e-01
1.325027e-01
5.555021e-02
1.325027e-01
5.555021e-02
-4.718491e-02
-4.718491e-02
-9.464635e-02
-9.464635e-02
3.743994e-02
3.743994e-02
1.962414e-02
1.962414e-02
-1.383893e-01
6.646056e-02
-1.383893e-01
6.646056e-02
-1.262313e-01
-1.262313e-01
-1.014900e-01
-1.014900e-01
-6.400764e-02
-6.400764e-02
3.873162e-02
3.873162e-02
-3.980850e-01
-1.822528e-01
-3.980850e-01
-1.822528e-01
-1.929037e-01
-1.929037e-01
6.357994e-02
6.357994e-02
8.975022e-02
8.975022e-02
-2.080150e-01
-2.080150e-01
4.912740e-02
-6.818680e-02
4.912740e-02
-6.818680e-02
1.077866e-01
1.077866e-01
2.630804e-01
2.630804e-01
1.922340e-01
1.922340e-01
-5.282522e-03
-5.282522e-03
1.899066e-01
2.271368e-03
1.899066e-01
2.271368e-03
2.606902e-01
2.606902e-01
9.532403e-02
9.532403e-02
-6.391514e-02
-6.391514e-02
-7.829892e-02
-7.829892e-02
-2.557602e-02
-2.711455e-02
-2.557602e-02
-2.711455e-02
1.706187e-01
1.706187e-01
-5.981101e-02
-5.981101e-02
-9.760052e-02
-9.760052e-02
4.203651e-02
4.203651e-02
3.834659e-02
1.595946e-01
3.834659e-02
1.595946e-01
-1.127522e-01
-1.127522e-01
-5.600426e-02
-5.600426e-02
-1.163324e-02
-1.163324e-02
2.261982e-01
2.261982e-01
-6.732348e-02
1.790059e-01
-6.732348e-02
1.790059e-01
-1.032023e-01
-1.032023e-01
-6.521067e-02
-6.521067e-02
-9.430993e-02
-9.430993e-02
4.633842e-02
4.633842e-02
-3.159748e-02
-9.366900e-03
-3.159748e-02
-9.366900e-03
2.238531e-02
2.238531e-02
5.298852e-02
5.298852e-02
4.565396e-02
4.565396e-02
1.090938e-01
1.090938e-01
1.941253e-01
-6.588148e-02
1.941253e-01
-6.588148e-02
-2.858067e-03
-2.858067e-03
1.247863e-01
1.247863e-01
1.795437e-01
1.795437e-01
1.138865e-01
1.138865e-01
-1.384636e-01
-2.316965e-02
-2.952601e-01
-5.550038e-02
-1.384636e-01
-2.316965e-02
-2.952601e-01
-5.550038e-02
6.671665e-02
-1.974812e-01
6.671665e-02
-1.974812e-01
-2.173594e-01
3.158843e-01
-2.173594e-01
3.158843e-01
-1.549862e-01
-1.549862e-01
2.024567e-02
2.208944e-01
2.024567e-02
2.208944e-01
-1.642175e-02
-1.642175e-02
2.378865e-01
2.267168e-01
2.378865e-01
2.267168e-01
1.748197e-01
1.748197e-01
1.654921e-01
1.379724e-01
1.654921e-01
1.379724e-01
3.670197e-02
3.670197e-02
-1.651097e-02
-1.027554e-01
-1.651097e-02
-1.027554e-01
-1.071171e-01
-1.071171e-01
-8.911987e-02
1.032702e-02
-8.911987e-02
1.032702e-02
-3.489941e-01
-3.489941e-01
-1.456032e-01
-1.456032e-01
9.884879e-02
9.884879e-02
2.210539e-01
2.210539e-01
3.021024e-01
3.021024e-01
6.212173e-01
2.299625e-01
6.212173e-01
2.299625e-01
-4.198567e-01
-4.198567e-01
-3.646713e-01
-3.646713e-01
-3.205857e-01
-3.205857e-01
-2.220205e-01
-2.220205e-01
-1.018350e-01
-1.018350e-01
-3.220758e-01
-3.220758e-01
-8.323531e-01
-8.323531e-01
-8.789732e-01
-8.789732e-01
-7.549460e-01
-7.549460e-01
-8.520578e-01
-8.520578e-01
6.252422e-02
6.252422e-02
-3.934813e-01
-3.934813e-01
-4.974494e-01
-4.974494e-01
-1.024913e+00
-4.545778e-01
1.882696e-02
5.700864e-02
-1.024913e+00
-4.545778e-01
1.882696e-02
5.700864e-02
-1.055573e-01
-4.765175e-02
-2.183909e-01
-8.168892e-02
-1.055573e-01
-4.765175e-02
-2.183909e-01
-8.168892e-02
-2.086503e-01
1.659370e-01
2.731909e-01
4.845500e-01
-2.086503e-01
1.659370e-01
2.731909e-01
4.845500e-01
-3.820961e-04
-2.394236e-01
1.138635e-01
-3.820961e-04
-2.394236e-01
1.138635e-01
-2.049619e-01
4.685741e-01
-2.049619e-01
4.685741e-01
9.300289e-02
-3.080348e-01
3.836397e-01
-2.041343e-01
9.300289e-02
-3.080348e-01
3.836397e-01
-2.041343e-01
-2.673922e-01
-1.691018e+00
-2.673922e-01
-1.691018e+00
-1.171103e-01
-5.909144e-02
-1.171103e-01
-5.909144e-02
-1.420909e-02
-3.368202e-01
-8.964393e-02
-1.420909e-02
-3.368202e-01
-8.964393e-02
-1.316261e-01
-1.316261e-01
1.032205e-01
-1.019818e-03
1.032205e-01
-1.019818e-03
-9.600712e-02
8.925302e-01
-9.600712e-02
8.925302e-01
-1.733709e+00
-1.733709e+00
5.520673e-03
5.520673e-03
-2.052611e-01
-4.541487e-01
8.043825e-01
-2.052611e-01
-4.541487e-01
8.043825e-01
-4.403683e-01
6.195224e-01
-2.111598e-02
-8.794470e-01
-4.403683e-01
6.195224e-01
-2.111598e-02
-8.794470e-01
1.625377e-01
-1.321042e-02
1.625377e-01
-1.321042e-02
-1.196814e-02
-1.196814e-02
-8.664002e-01
-6.630460e-01
6.637879e-01
1.159896e+00
-8.664002e-01
-6.630460e-01
6.637879e-01
1.159896e+00
8.480820e-01
8.480820e-01
-6.620673e-01
-6.620673e-01
-1.671575e+00
-1.671575e+00
-9.221956e-02
-9.221956e-02
-6.030964e-01
-6.030964e-01
4.669729e-02
4.669729e-02
-1.885731e-01
3.280332e-01
-1.885731e-01
3.280332e-01
-9.475502e-02
1.315781e-01
-9.475502e-02
1.315781e-01
-1.024155e-01
2.565785e-02
-1.024155e-01
2.565785e-02
-1.191079e-01
-1.985688e-03
-1.191079e-01
-1.985688e-03
1.047424e-01
-2.049947e-01
1.047424e-01
-2.049947e-01
1.564330e-01
-1.854114e-01
1.564330e-01
-1.854114e-01
8.492047e-02
-1.970413e-01
8.492047e-02
-1.970413e-01
2.638049e-02
-1.386071e-01
2.638049e-02
-1.386071e-01
6.679752e-02
4.851465e-02
6.679752e-02
4.851465e-02
6.531964e-02
1.126378e-01
6.531964e-02
1.126378e-01
8.804160e-02
1.641161e-01
8.804160e-02
1.641161e-01
-1.242430e-02
1.267333e-02
-1.242430e-02
1.267333e-02
-1.436506e-02
-9.232760e-02
-1.436506e-02
-9.232760e-02
9.261815e-02
2.396938e-02
9.261815e-02
2.396938e-02
1.102644e-01
1.102644e-01
2.484800e-02
2.484800e-02
-6.326140e-04
-6.326140e-04
-1.390985e-02
-1.390985e-02
-1.718685e-01
-1.718685e-01
-1.511376e-01
-1.511376e-01
-1.003160e-01
-1.003160e-01
-4.050531e-02
-4.050531e-02
-2.077319e-03
-2.077319e-03
-9.532794e-02
-9.532794e-02
5.855381e-03
5.855381e-03
4.495166e-02
4.495166e-02
9.041282e-02
9.041282e-02
1.494862e-01
1.494862e-01
-5.078446e-02
-5.078446e-02
5.291686e-02
5.291686e-02
-5.905520e-02
-5.905520e-02
-6.456364e-02
-6.456364e-02
8.721014e-02
8.721014e-02
2.389241e-02
2.389241e-02
7.169177e-02
7.169177e-02
1.037997e-01
1.037997e-01
-5.975794e-02
-5.975794e-02
-1.623496e-01
-1.623496e-01
-8.404234e-02
-8.404234e-02
-6.153817e-02
-6.153817e-02
6.115121e-02
6.115121e-02
1.583043e-01
1.583043e-01
-6.546178e-02
-6.546178e-02
6.029045e-02
6.029045e-02
5.368198e-02
5.368198e-02
-4.859170e-02
-4.859170e-02
8.497331e-02
8.497331e-02
8.373041e-02
8.373041e-02
7.722254e-02
7.722254e-02
5.655516e-02
5.655516e-02
-9.183675e-02
-9.183675e-02
-5.060554e-02
-5.060554e-02
-3.848057e-02
-3.848057e-02
7.361054e-02
7.361054e-02
3.112191e-02
3.112191e-02
-6.685468e-02
-6.685468e-02
2.653374e-02
2.653374e-02
1.267201e-01
1.267201e-01
3.088328e-02
3.088328e-02
-1.082419e-01
-1.082419e-01
9.191221e-02
9.191221e-02
1.080817e-01
1.080817e-01
4.010354e-02
4.010354e-02
2.133300e-02
2.133300e-02
7.097572e-02
7.097572e-02
1.328760e-02
1.328760e-02
-2.872369e-02
-2.872369e-02
1.431696e-01
1.431696e-01
1.501782e-01
1.501782e-01
-5.243469e-02
-5.243469e-02
-2.650012e-01
-6.242425e-01
-2.650012e-01
-6.242425e-01
6.653772e-02
6.653772e-02
2.631057e-01
2.631057e-01
3.140606e-01
3.140606e-01
3.389771e-01
3.389771e-01
3.203885e-01
3.203885e-01
2.760209e-01
2.760209e-01
1.870498e-01
1.870498e-01
-4.782655e-01
-5.243382e-01
-4.782655e-01
-5.243382e-01
-1.682707e-01
-1.682707e-01
3.121454e-01
3.121454e-01
2.390208e-01
2.390208e-01
-5.775552e-02
-5.775552e-02
9.362623e-02
9.362623e-02
3.261246e-01
3.261246e-01
1.754338e-01
1.754338e-01
-2.038040e-01
-5.418653e-01
-2.038040e-01
-5.418653e-01
-1.562629e-01
-1.562629e-01
1.104526e-01
1.104526e-01
3.030917e-02
3.030917e-02
-2.698396e-01
-2.698396e-01
-1.117072e-01
-1.117072e-01
1.549684e-02
1.549684e-02
-1.264513e-01
-1.264513e-01
5.233259e-01
6.843664e-02
5.233259e-01
6.843664e-02
5.438274e-01
5.438274e-01
9.084584e-02
9.084584e-02
-4.205414e-01
-4.205414e-01
-2.287331e-01
-2.287331e-01
-4.548446e-02
-4.548446e-02
-2.370242e-01
-2.370242e-01
-3.065255e-01
-3.065255e-01
7.357104e-01
4.439927e-01
7.357104e-01
4.439927e-01
6.708063e-01
6.708063e-01
1.540767e-01
1.540767e-01
-2.634975e-01
-2.634975e-01
-2.926105e-02
-2.926105e-02
-4.492139e-02
-4.492139e-02
-1.844786e-01
-1.844786e-01
-1.270100e-01
-1.270100e-01
2.950061e-01
3.321018e-01
2.950061e-01
3.321018e-01
-1.281051e-01
-1.281051e-01
-9.607274e-02
-9.607274e-02
5.870173e-02
5.870173e-02
1.637689e-01
1.637689e-01
2.893073e-01
2.893073e-01
2.919667e-01
2.919667e-01
2.284456e-01
2.284456e-01
1.952767e-01
-4.306213e-02
6.061698e-02
1.757036e-01
1.952767e-01
-4.306213e-02
6.061698e-02
1.757036e-01
6.892285e-02
1.883398e-01
6.892285e-02
1.883398e-01
1.277409e-01
-3.418167e-02
1.277409e-01
-3.418167e-02
-9.089908e-02
-3.411144e-01
-9.089908e-02
-3.411144e-01
-2.570246e-01
-2.009057e-01
-2.570246e-01
-2.009057e-01
-2.454701e-01
-3.354328e-01
-2.454701e-01
-3.354328e-01
-1.469579e-01
-7.663027e-01
-1.469579e-01
-7.663027e-01
-7.927682e-02
1.216964e-01
-7.927682e-02
1.216964e-01
1.523537e-01
1.523537e-01
1.938768e-01
1.938768e-01
3.936160e-02
3.936160e-02
-1.414032e-01
-1.414032e-01
-4.014572e-01
-4.014572e-01
-4.708025e-01
-4.708025e-01
-1.037023e+00
-1.037023e+00
-6.258217e-02
-6.258217e-02
-3.652118e-02
-3.652118e-02
4.863303e-02
4.863303e-02
1.488838e-01
1.488838e-01
9.380045e-02
9.380045e-02
-9.961060e-02
-9.961060e-02
7.491532e-02
7.491532e-02
2.192043e-02
2.192043e-02
-1.752630e-01
-1.752630e-01
4.870942e-02
4.870942e-02
2.520204e-02
2.520204e-02
-1.534815e-01
-1.534815e-01
-8.436509e-03
-8.436509e-03
-8.598597e-02
-8.598597e-02
-2.471158e-01
-2.471158e-01
-2.793529e-02
-2.793529e-02
-2.161049e-01
-2.161049e-01
-2.972402e-01
-2.972402e-01
9.829168e-02
3.314209e-01
9.829168e-02
3.314209e-01
-3.244593e-03
2.600243e-01
-3.244593e-03
2.600243e-01
-2.316210e-01
-9.959728e-02
-2.316210e-01
-9.959728e-02
-2.625385e-01
-3.188015e-01
-2.625385e-01
-3.188015e-01
5.511461e-02
-2.190259e-01
5.511461e-02
-2.190259e-01
1.404212e-01
1.404212e-01
-1.094235e-01
-1.094235e-01
-9.991912e-02
-9.991912e-02
-6.205554e-02
-6.205554e-02
-4.239644e-01
-4.239644e-01
1.829665e-03
1.829665e-03
-1.062040e-01
-1.062040e-01
1.904029e-01
1.904029e-01
1.685556e-01
1.685556e-01
-1.873508e-01
-1.873508e-01
6.294300e-03
6.294300e-03
1.939236e-01
1.939236e-01
2.641111e-01
2.641111e-01
-5.597873e-02
-5.597873e-02
-7.514800e-02
-7.514800e-02
-1.337963e-01
-1.337963e-01
5.880927e-02
5.880927e-02
1.621172e-01
1.621172e-01
1.540883e-02
1.540883e-02
1.578782e-02
1.578782e-02
-5.982431e-01
-5.982431e-01
-4.352074e-01
-4.352074e-01
-1.160022e-02
-1.160022e-02
2.506115e-01
2.506115e-01
4.583359e-01
4.583359e-01
-4.873122e-01
-4.873122e-01
-4.182227e-01
-4.182227e-01
-1.337324e-01
-1.337324e-01
2.064291e-01
2.064291e-01
4.769036e-01
4.769036e-01
-7.257435e-02
-7.257435e-02
-2.520641e-01
-2.520641e-01
-1.331485e-01
-1.331485e-01
1.753184e-01
1.753184e-01
2.361678e-01
2.361678e-01
-8.737302e-01
-8.737302e-01
-7.042098e-01
-7.042098e-01
-9.709112e-01
-9.709112e-01
-7.566106e-01
-7.566106e-01
-4.579343e-03
-4.579343e-03
4.951009e-02
4.951009e-02
-7.325791e-01
-7.325791e-01
-4.948059e-01
-4.948059e-01
-8.484223e-01
-8.484223e-01
-1.054637e+00
-1.054637e+00
-6.205755e-01
-6.205755e-01
-2.333424e-01
-2.333424e-01
-9.078323e-01
-9.078323e-01
-7.520145e-01
-7.520145e-01
-8.736404e-01
-8.736404e-01
-1.204305e+00
-1.204305e+00
-1.031006e+00
-1.031006e+00
-3.302783e-01
-3.302783e-01
-8.870143e-01
-8.870143e-01
-1.136724e+00
-1.136724e+00
-9.452071e-01
-9.452071e-01
-8.539871e-01
-8.539871e-01
-5.398286e-01
-5.398286e-01
1.650598e-01
1.650598e-01
-6.859719e-01
-6.859719e-01
-1.099251e+00
-1.099251e+00
-9.367818e-01
-9.367818e-01
-3.654218e-01
-3.654218e-01
-2.079502e-01
-2.079502e-01
2.472024e-01
2.472024e-01
-7.776829e-01
-7.776829e-01
-1.124734e+00
-1.124734e+00
-1.012026e+00
-1.012026e+00
-5.868741e-01
-5.868741e-01
-2.624760e-01
-2.624760e-01
6.862155e-01
6.862155e-01
-1.329471e+00
-1.329471e+00
-1.445170e+00
-1.445170e+00
-1.690461e+00
-1.690461e+00
-1.413091e+00
-1.413091e+00
-6.495821e-01
-6.495821e-01
9.995776e-01
9.995776e-01
-1.574770e+00
-1.574770e+00
-1.543339e+00
-1.543339e+00
-2.974562e+00
-2.974562e+00
-3.422741e+00
-3.422741e+00
-2.302573e+00
-2.302573e+00
8.340338e-01
8.340338e-01
-7.841456e-01
-7.841456e-01
-4.956266e-01
-4.956266e-01
-3.941600e+00
-3.941600e+00
-6.938817e+00
-6.938817e+00
-4.667324e+00
-4.667324e+00
1.767784e+00
1.767784e+00
-1.007420e+00
-1.007420e+00
1.972665e-01
1.972665e-01
-2.887129e+00
-2.887129e+00
-9.828663e+00
-9.828663e+00
-8.578798e+00
-8.578798e+00
2.291119e+00
2.291119e+00
-2.587484e+00
-2.587484e+00
-1.319491e+00
-1.319491e+00
-1.201354e-01
-1.201354e-01
-8.191019e+00
-8.191019e+00
-1.919468e+01
-1.919468e+01
-7.594107e+00
-7.594107e+00
-3.648735e+00
-3.648735e+00
-4.403557e+00
-4.403557e+00
7.477488e-01
7.477488e-01
-4.168684e-01
-4.168684e-01
-2.007682e+01
-2.007682e+01
-1.669775e+01
-1.669775e+01
-3.238034e+00
-3.238034e+00
-7.527087e+00
-7.527087e+00
2.838721e+00
2.838721e+00
1.719966e+01
1.719966e+01
2.184085e+01
2.184085e+01
9.319291e+00
9.319291e+00
-2.095431e+00
-2.095431e+00
-8.326664e+00
-8.326664e+00
1.479454e+01
1.479454e+01
5.363318e+01
5.363318e+01
7.192291e+01
7.192291e+01
5.263312e+01
5.263312e+01
-1.523360e+00
-1.523360e+00
-3.330562e+00
-3.330562e+00
1.874510e+01
1.874510e+01
5.459832e+01
5.459832e+01
6.405443e+01
6.405443e+01
5.691525e+01
5.691525e+01
-4.140995e+00
-4.140995e+00
-1.798429e+00
-1.798429e+00
-3.492654e+00
-3.492654e+00
-1.051713e+01
-1.051713e+01
-6.266303e+00
-6.266303e+00
-2.614354e+00
-2.614354e+00
-5.741397e+00
-5.741397e+00
-2.565657e+00
-2.565657e+00
-2.394743e+00
-2.394743e+00
-5.103627e+00
-5.103627e+00
-3.616953e+00
-3.616953e+00
-1.308406e+01
-1.308406e+01
-4.592891e+00
-4.592891e+00
-1.196837e+00
-1.196837e+00
1.338086e+01
1.338086e+01
4.305939e+01
4.305939e+01
6.028142e+01
6.028142e+01
3.202516e+01
3.202516e+01
-5.005287e+00
-5.005287e+00
-3.205985e+00
-3.205985e+00
1.435033e+01
1.435033e+01
4.715946e+01
4.715946e+01
6.843638e+01
6.843638e+01
4.148093e+01
4.148093e+01
-5.619939e+00
-5.619939e+00
-1.538173e+00
-1.538173e+00
1.739311e+01
1.739311e+01
4.339730e+01
4.339730e+01
4.533664e+01
4.533664e+01
2.955823e+01
2.955823e+01
-5.005123e+00
-5.005123e+00
7.343881e-02
7.343881e-02
1.234302e+01
1.234302e+01
2.194867e+01
2.194867e+01
1.952561e+01
1.952561e+01
1.777591e+01
1.777591e+01
-4.323094e+00
-4.323094e+00
-1.262251e+00
-1.262251e+00
7.375378e+00
7.375378e+00
7.359404e+00
7.359404e+00
2.573526e+00
2.573526e+00
-2.001238e-01
-2.001238e-01
-3.047468e-01
-3.047468e-01
-1.871120e-01
-1.871120e-01
-6.905406e-01
-6.905406e-01
-1.814305e+00
-1.814305e+00
-2.194714e+00
-2.194714e+00
-1.859438e+00
-1.859438e+00
-1.581163e+00
-1.581163e+00
-1.528970e+00
-1.528970e+00
-2.190209e+00
-2.190209e+00
-2.476979e+00
-2.476979e+00
-1.038650e-01
-1.038650e-01
3.246283e-01
3.246283e-01
-2.755755e+00
-2.755755e+00
-5.965696e-01
-5.965696e-01
5.715913e+00
5.715913e+00
7.564489e+00
7.564489e+00
6.422583e+00
6.422583e+00
4.443249e+00
4.443249e+00
2.644414e+00
2.644414e+00
9.231160e-01
9.231160e-01
-5.365322e-01
-5.365322e-01
-5.964612e-01
-5.964612e-01
-4.978056e-01
-4.978056e-01
-3.108984e-01
-3.108984e-01
-9.591849e-01
-9.591849e-01
-2.149033e+00
-2.149033e+00
-2.722796e+00
-2.722796e+00
-2.367570e+00
-2.367570e+00
-1.981393e+00
-1.981393e+00
-1.494081e+00
-1.494081e+00
-7.999173e-01
-7.999173e-01
-3.152787e+00
-3.152787e+00
-2.701669e+00
-2.701669e+00
4.987329e+00
4.987329e+00
7.671602e+00
7.671602e+00
6.764662e+00
6.764662e+00
8.197755e+00
8.197755e+00
1.135516e+01
1.135516e+01
1.563343e+01
1.563343e+01
1.645389e+01
1.645389e+01
9.943134e+00
9.943134e+00
-1.901845e-01
-1.901845e-01
-4.417480e+00
-4.417480e+00
-7.403934e-01
-7.403934e-01
-6.507639e-01
-6.507639e-01
-5.066286e-01
-5.066286e-01
-1.138788e+00
-1.138788e+00
-2.026455e+00
-2.026455e+00
-2.280691e+00
-2.280691e+00
-2.117340e+00
-2.117340e+00
-1.435926e+00
-1.435926e+00
-2.356874e-01
-2.356874e-01
1.380973e+00
1.380973e+00
1.185681e-01
1.185681e-01
-3.234308e+00
-3.234308e+00
8.381728e+00
8.381728e+00
2.862098e+01
2.862098e+01
2.713282e+01
2.713282e+01
4.029120e+00
4.029120e+00
1.257514e+01
1.257514e+01
3.535752e+01
3.535752e+01
3.373165e+01
3.373165e+01
1.843433e+01
1.843433e+01
1.468578e+00
1.468578e+00
-2.071320e+00
-2.071320e+00
-3.058664e-01
-3.058664e-01
-2.324780e-01
-2.324780e-01
-3.347423e-01
-3.347423e-01
-1.012412e+00
-1.012412e+00
-1.294014e+00
-1.294014e+00
-1.248762e+00
-1.248762e+00
-8.396149e-01
-8.396149e-01
2.395023e-01
2.395023e-01
1.850130e+00
1.850130e+00
3.849289e+00
3.849289e+00
4.805329e+00
4.805329e+00
4.104440e-01
4.104440e-01
6.764941e+00
6.764941e+00
3.952947e+01
3.952947e+01
4.651840e+01
4.651840e+01
-8.584184e+00
-8.584184e+00
-5.091166e+00
-5.091166e+00
4.401492e+01
4.401492e+01
3.757984e+01
3.757984e+01
1.692180e+01
1.692180e+01
5.880284e+00
5.880284e+00
3.519636e+00
3.519636e+00
-3.929684e-02
-3.929684e-02
2.842141e-02
2.842141e-02
6.328773e-02
6.328773e-02
-8.700072e-02
-8.700072e-02
-4.757504e-02
-4.757504e-02
3.177492e-01
3.177492e-01
1.169709e+00
1.169709e+00
2.292870e+00
2.292870e+00
3.967676e+00
3.967676e+00
6.601058e+00
6.601058e+00
7.042588e+00
7.042588e+00
2.322268e+00
2.322268e+00
-1.287018e+00
-1.287018e+00
3.112956e+01
3.112956e+01
5.386255e+01
5.386255e+01
-9.010800e+00
-9.010800e+00
-2.293679e+01
-2.293679e+01
2.169800e+01
2.169800e+01
2.259273e+01
2.259273e+01
1.833016e+01
1.833016e+01
1.395628e+01
1.395628e+01
4.746706e+00
4.746706e+00
-1.549566e+00
-1.178656e+00
-4.101141e-01
-5.168561e-02
-3.539732e-02
2.009338e-02
-2.472266e+00
-1.701038e+00
-4.401011e-01
-1.154679e-02
-1.457535e-01
-2.188064e-01
-3.786040e+00
-2.192553e+00
-1.358903e-01
1.506896e-01
-3.507896e-01
-6.756730e-01
-4.643747e+00
-2.388371e+00
3.020802e-01
4.023979e-01
-4.693066e-01
-1.006254e+00
-4.945714e+00
-2.546209e+00
3.266332e-01
4.473549e-01
-4.813281e-01
-1.057396e+00
-4.147691e+00
-2.242705e+00
3.494984e-02
1.770592e-01
-4.779871e-01
-9.024743e-01
-2.644778e+00
-1.662862e+00
-3.076018e-01
-1.124192e-01
-4.859322e-01
-6.812839e-01
-1.227784e+00
-9.703301e-01
-4.661394e-01
-2.830867e-01
-3.858713e-01
-4.249720e-01
-6.635761e-01
-6.116732e-01
-4.784040e-01
-2.990713e-01
-2.078162e-01
-2.145275e-01
-5.509555e-01
-5.146568e-01
-3.958782e-01
-2.398254e-01
-1.797431e-01
-1.932336e-01
-4.551078e-01
-4.289520e-01
-3.295371e-01
-2.314259e-01
-2.301936e-01
-2.538134e-01
-8.086791e-01
-4.140955e-01
1.297969e-01
2.662333e-01
6.186708e-02
-1.296267e-01
-1.610050e+00
-7.466496e-01
4.325761e-01
5.560035e-01
1.180093e-02
-3.400035e-01
-3.371569e+00
-1.536861e+00
1.037177e+00
1.212811e+00
-4.746300e-02
-7.440400e-01
-4.970231e+00
-2.407230e+00
1.352539e+00
1.738339e+00
-3.585716e-02
-9.990853e-01
-5.219983e+00
-2.583069e+00
1.329377e+00
1.771293e+00
-5.674168e-02
-1.051160e+00
-3.770880e+00
-1.758283e+00
1.104522e+00
1.295021e+00
-1.789203e-01
-9.931528e-01
-1.954646e+00
-8.911521e-01
5.101228e-01
5.128992e-01
-3.057346e-01
-7.893641e-01
-9.921713e-01
-6.144161e-01
-8.872341e-02
-1.784310e-02
-2.778894e-01
-4.608785e-01
-6.646606e-01
-5.511789e-01
-2.930134e-01
-1.236839e-01
-1.644599e-01
-2.298817e-01
-5.462464e-01
-4.949695e-01
-3.428468e-01
-2.013143e-01
-2.008278e-01
-2.410280e-01
-5.487578e-01
-5.044769e-01
-3.809891e-01
-2.724583e-01
-2.764562e-01
-3.097778e-01
3.358690e-01
3.225872e-01
5.514470e-01
5.897016e-01
7.662022e-02
-2.325742e-01
4.065990e-01
4.593526e-01
9.833246e-01
9.951489e-01
1.898403e-02
-4.977867e-01
-1.385384e+00
-4.949212e-01
1.593153e+00
1.841983e+00
-8.354939e-02
-1.060300e+00
-5.092678e+00
-2.839360e+00
1.608289e+00
2.612208e+00
-2.857519e-02
-1.478946e+00
-5.582260e+00
-3.192291e+00
1.569944e+00
2.736657e+00
-9.311442e-03
-1.549727e+00
-1.784564e+00
-7.923544e-01
1.618760e+00
1.968290e+00
-2.376530e-01
-1.374221e+00
7.258520e-01
5.777204e-01
9.650812e-01
8.670414e-01
-4.039798e-01
-1.041469e+00
-9.087401e-02
-1.110154e-01
1.105916e-01
1.492598e-01
-3.061011e-01
-5.583817e-01
-9.309376e-01
-6.998350e-01
-2.714137e-01
-7.938074e-02
-1.281524e-01
-1.716384e-01
-9.018861e-01
-7.690251e-01
-4.495775e-01
-2.050180e-01
-1.484633e-01
-1.498816e-01
-9.172154e-01
-8.087375e-01
-5.222019e-01
-2.825270e-01
-2.302513e-01
-2.395927e-01
1.064081e+00
5.710821e-01
-9.664930e-03
-2.886773e-01
-2.241946e-01
3.155209e-02
4.443627e-01
2.455361e-01
1.384303e-01
-2.285632e-01
-5.934727e-01
-4.996679e-01
-2.656002e+00
-1.936672e+00
1.195015e-01
4.170777e-01
-1.252803e+00
-1.883415e+00
-4.947156e+00
-4.304029e+00
-2.747460e-01
1.620878e+00
-1.471132e+00
-3.072610e+00
-4.056087e+00
-4.003950e+00
-1.663017e-01
2.074869e+00
-1.309256e+00
-3.149038e+00
-2.356336e+00
-1.856295e+00
5.373793e-01
1.188854e+00
-1.170058e+00
-2.286811e+00
5.175419e-01
5.631140e-01
7.209356e-01
3.495860e-02
-9.907660e-01
-1.218264e+00
1.350331e+00
7.699739e-01
-2.731428e-02
-5.072245e-01
-6.212150e-01
-4.722262e-01
-7.697992e-01
-8.268229e-01
-7.629351e-01
-5.216491e-01
-2.444268e-01
-8.757914e-02
-1.631853e+00
-1.355542e+00
-7.966865e-01
-3.636122e-01
-1.006134e-01
1.185690e-02
-1.416691e+00
-1.163132e+00
-6.586102e-01
-3.011697e-01
-9.428339e-02
6.125321e-03
3.139380e+00
1.955519e+00
5.020616e-02
-5.678803e-01
-2.634854e-01
-6.245544e-02
1.891613e-01
7.004751e-02
-8.851827e-01
-1.128274e+00
-4.051119e-01
-2.749757e-01
-5.455303e+00
-4.200410e+00
-2.780783e+00
-1.558444e+00
-6.770425e-01
-8.532457e-01
-3.999255e+00
-5.853988e+00
-4.606912e+00
-8.792271e-01
-8.220461e-01
-1.390741e+00
-8.226041e-01
-4.707083e+00
-4.658034e+00
-2.976911e-01
-5.893460e-01
-1.307816e+00
-3.293999e+00
-3.206317e+00
-2.279490e+00
-4.988758e-01
-1.186099e-01
-6.798119e-01
-1.454117e+00
-3.802592e-01
-3.463864e-01
-5.268226e-01
9.615480e-02
-1.404163e-01
2.305545e+00
1.527690e+00
2.093475e-01
-2.750979e-01
-1.012321e-01
1.659193e-02
9.672110e-01
5.252994e-01
-9.250612e-02
-4.275615e-01
-3.315774e-01
-7.643183e-02
-9.958504e-01
-7.816055e-01
-5.523206e-01
-5.007834e-01
-2.841876e-01
-1.040890e-01
-1.198551e+00
-9.189608e-01
-5.239028e-01
-3.755967e-01
-1.952678e-01
-4.777674e-02
4.890129e+00
3.063583e+00
5.529282e-01
3.684502e-02
-8.447265e-02
-3.738166e-01
1.050629e+00
3.599895e-01
-1.385830e+00
-9.326769e-01
2.453343e-01
-8.498834e-02
-5.412272e+00
-4.636148e+00
-4.824507e+00
-2.542009e+00
7.285584e-01
7.521463e-01
-2.992838e+00
-6.352549e+00
-7.850753e+00
-2.850075e+00
8.434284e-01
1.397762e+00
7.966994e-01
-5.170916e+00
-8.175697e+00
-2.367036e+00
1.053352e+00
1.627915e+00
-2.050385e+00
-3.010892e+00
-4.570313e+00
-1.851864e+00
1.507443e+00
1.549387e+00
-1.227097e+00
-6.118631e-01
-1.532329e+00
-5.276971e-01
1.491419e+00
9.702025e-01
2.485238e+00
1.551904e+00
4.058143e-01
5.153723e-01
5.976712e-01
3.576578e-01
2.277890e+00
1.795259e+00
9.056532e-01
-2.228989e-02
-3.095025e-01
-7.574631e-02
9.769681e-03
8.510585e-02
-1.206078e-01
-5.215751e-01
-4.421627e-01
-2.428328e-01
-7.557416e-01
-5.491304e-01
-3.425478e-01
-4.004172e-01
-3.397527e-01
-2.212472e-01
SCALARS S22 float 1
LOOKUP_TABLE default
-1.533243e-01
1.926607e+00
2.427020e+00
-1.706026e+00
-1.533243e-01
1.926607e+00
2.427020e+00
-1.706026e+00
8.047809e+00
5.283062e+00
3.248189e+00
5.166759e+00
8.047809e+00
5.283062e+00
3.248189e+00
5.166759e+00
1.460791e+00
-1.391180e+00
-1.778500e+00
1.460791e+00
-1.391180e+00
-1.778500e+00
2.605961e+00
2.557178e+00
2.409688e+00
3.425389e+00
2.605961e+00
2.557178e+00
2.409688e+00
3.425389e+00
5.290050e-01
2.159967e+00
5.290050e-01
2.159967e+00
1.685795e+00
2.765426e+00
1.685795e+00
2.765426e+00
1.896815e+00
8.861218e-01
1.783790e+00
3.058173e+00
1.896815e+00
8.861218e-01
1.783790e+00
3.058173e+00
2.653249e+00
2.844385e+00
2.169950e+00
1.387201e+00
2.653249e+00
2.844385e+00
2.169950e+00
1.387201e+00
3.994336e+00
6.593739e+00
4.057004e+00
1.661848e+00
3.994336e+00
6.593739e+00
4.057004e+00
1.661848e+00
7.906850e-01
9.165413e-01
7.906850e-01
9.165413e-01
-1.893092e+00
-1.893092e+00
5.424258e+00
2.400965e+00
5.424258e+00
2.400965e+00
2.160159e+00
2.536336e+00
2.160159e+00
2.536336e+00
8.454896e-01
8.454896e-01
-6.783661e-01
-6.783661e-01
2.419825e+00
2.419825e+00
1.931469e-01
3.633329e-01
9.400805e-01
1.931469e-01
3.633329e-01
9.400805e-01
-9.612545e-02
-3.006489e-01
-3.257227e-01
-2.692125e-01
-9.612545e-02
-3.006489e-01
-3.257227e-01
-2.692125e-01
4.905707e-01
4.905707e-01
1.790749e+00
2.103721e-01
1.790749e+00
2.103721e-01
1.840416e+00
1.840416e+00
4.113060e+00
4.113060e+00
3.150053e+00
3.150053e+00
3.725025e-01
3.725025e-01
4.099585e+00
4.099585e+00
4.471022e+00
4.471022e+00
5.708781e-01
5.708781e-01
1.871838e+00
1.871838e+00
-9.514408e-01
-5.424598e-01
-9.514408e-01
-5.424598e-01
-1.649962e-01
-1.649962e-01
9.268717e-03
9.268717e-03
-8.304637e-03
-8.304637e-03
1.378344e-02
1.378344e-02
-1.127662e+00
-6.908081e-01
-1.127662e+00
-6.908081e-01
-5.029705e-01
-5.029705e-01
4.825342e-02
4.825342e-02
2.055552e-01
2.055552e-01
-4.400568e-04
-4.400568e-04
-4.816845e-01
-1.065774e+00
-4.816845e-01
-1.065774e+00
3.191140e-01
3.191140e-01
5.323398e-01
5.323398e-01
1.299847e-01
1.299847e-01
-1.230973e-01
-1.230973e-01
-6.684361e-02
-8.648774e-01
-6.684361e-02
-8.648774e-01
3.354718e-01
3.354718e-01
4.199731e-01
4.199731e-01
1.270563e-01
1.270563e-01
-1.866787e-01
-1.866787e-01
-1.579308e-01
-4.176927e-01
-1.579308e-01
-4.176927e-01
-2.371155e-01
-2.371155e-01
-1.036300e-01
-1.036300e-01
1.921756e-01
1.921756e-01
2.044680e-01
2.044680e-01
-1.027812e+00
-6.600167e-01
-1.027812e+00
-6.600167e-01
-6.727274e-01
-6.727274e-01
-5.861465e-02
-5.861465e-02
3.300251e-01
3.300251e-01
5.113589e-01
5.113589e-01
-1.604561e+00
-1.312024e+00
-1.604561e+00
-1.312024e+00
-5.833451e-01
-5.833451e-01
6.141722e-01
6.141722e-01
9.332450e-01
9.332450e-01
5.659348e-01
5.659348e-01
-7.273382e-01
-1.131836e+00
-7.273382e-01
-1.131836e+00
1.670745e-01
1.670745e-01
1.024144e+00
1.024144e+00
1.092201e+00
1.092201e+00
8.220153e-01
8.220153e-01
2.294201e-02
-7.382774e-01
2.294201e-02
-7.382774e-01
5.168229e-01
5.168229e-01
4.014254e-01
4.014254e-01
2.391168e-01
2.391168e-01
2.667670e-01
2.667670e-01
-4.412188e-02
-4.489648e-01
-4.412188e-02
-4.489648e-01
1.299427e-01
1.299427e-01
-3.989355e-01
-3.989355e-01
-4.110834e-01
-4.110834e-01
-1.324758e-01
-1.324758e-01
-2.211180e-01
3.719351e-02
-2.211180e-01
3.719351e-02
-7.184817e-01
-7.184817e-01
-8.666775e-01
-8.666775e-01
-6.369486e-01
-6.369486e-01
-2.027481e-01
-2.027481e-01
-6.059351e-01
1.192408e-01
-6.059351e-01
1.192408e-01
-1.057564e+00
-1.057564e+00
-1.076626e+00
-1.076626e+00
-8.464770e-01
-8.464770e-01
-5.154366e-01
-5.154366e-01
-7.335431e-01
-3.772174e-01
-7.335431e-01
-3.772174e-01
-9.310380e-01
-9.310380e-01
-8.361586e-01
-8.361586e-01
-5.581513e-01
-5.581513e-01
-3.454965e-01
-3.454965e-01
-5.580758e-01
-6.455481e-01
-5.580758e-01
-6.455481e-01
-9.134209e-01
-9.134209e-01
-6.307093e-01
-6.307093e-01
-2.686425e-01
-2.686425e-01
-2.202382e-01
-2.202382e-01
-4.682165e-01
-7.345624e-01
-1.397645e+00
-5.304124e-01
-4.682165e-01
-7.345624e-01
-1.397645e+00
-5.304124e-01
-8.108421e-01
-1.352875e+00
-8.108421e-01
-1.352875e+00
-1.275621e+00
-2.337129e-01
-1.275621e+00
-2.337129e-01
-1.096765e+00
-1.096765e+00
-3.073259e-01
-9.830578e-02
-3.073259e-01
-9.830578e-02
-2.716258e-01
-2.716258e-01
5.152633e-01
1.980864e-01
5.152633e-01
1.980864e-01
3.829843e-01
3.829843e-01
4.868348e-01
2.392335e-01
4.868348e-01
2.392335e-01
4.281878e-02
4.281878e-02
2.162654e-01
1.125006e-02
2.162654e-01
1.125006e-02
-3.533659e-01
-3.533659e-01
-6.304182e-02
-2.343461e+00
-6.304182e-02
-2.343461e+00
-8.029793e-01
-8.029793e-01
-9.814458e-01
-9.814458e-01
-2.852756e-01
-2.852756e-01
-3.728199e-02
-3.728199e-02
-2.069140e-01
-2.069140e-01
-6.094460e-01
-3.205931e+00
-6.094460e-01
-3.205931e+00
-9.748273e-01
-9.748273e-01
-1.050104e+00
-1.050104e+00
-8.135047e-01
-8.135047e-01
-5.538419e-01
-5.538419e-01
-5.418805e-01
-5.418805e-01
-5.334283e-01
-5.334283e-01
-8.432118e-01
-8.432118e-01
-8.904875e-01
-8.904875e-01
-8.367275e-01
-8.367275e-01
-9.134838e-01
-9.134838e-01
-4.637237e-01
-4.637237e-01
-2.308887e+00
-2.308887e+00
-2.348344e+00
-2.348344e+00
6.513585e-02
2.303922e-01
-2.627442e-01
3.539514e-01
6.513585e-02
2.303922e-01
-2.627442e-01
3.539514e-01
6.135171e-01
3.951546e-01
-8.655777e-03
-8.972268e-02
6.135171e-01
3.951546e-01
-8.655777e-03
-8.972268e-02
3.225667e-01
8.638452e-01
7.671401e-01
4.774612e-01
3.225667e-01
8.638452e-01
7.671401e-01
4.774612e-01
7.554377e-01
1.204060e+00
6.508787e-01
7.554377e-01
1.204060e+00
6.508787e-01
2.611699e-01
5.450799e-01
2.611699e-01
5.450799e-01
-2.051755e+00
-1.683712e+00
1.842215e-01
6.808469e-01
-2.051755e+00
-1.683712e+00
1.842215e-01
6.808469e-01
-3.379612e-01
1.968979e-01
-3.379612e-01
1.968979e-01
7.745649e-01
9.178030e-01
7.745649e-01
9.178030e-01
-1.029655e-02
-5.776464e-01
-9.547433e-02
-1.029655e-02
-5.776464e-01
-9.547433e-02
-4.828125e-01
-4.828125e-01
-4.300575e-01
-4.099577e-01
-4.300575e-01
-4.099577e-01
1.137051e-01
-1.812291e+00
1.137051e-01
-1.812291e+00
1.223775e+00
1.223775e+00
-4.974601e-02
-4.974601e-02
-4.639436e-01
1.679587e-01
-1.811186e+00
-4.639436e-01
1.679587e-01
-1.811186e+00
6.861315e-01
5.460036e-01
3.637233e-01
8.083931e-01
6.861315e-01
5.460036e-01
3.637233e-01
8.083931e-01
-1.623901e+00
-2.326138e+00
-1.623901e+00
-2.326138e+00
8.244932e-02
8.244932e-02
-2.775896e+00
-3.121410e+00
-1.330278e+00
-1.827434e+00
-2.775896e+00
-3.121410e+00
-1.330278e+00
-1.827434e+00
-8.982924e-01
-8.982924e-01
4.140234e-01
4.140234e-01
2.807316e-01
2.807316e-01
3.475094e-02
3.475094e-02
6.961270e-02
6.961270e-02
-6.974032e-03
-6.974032e-03
-5.327602e-01
7.831122e-01
-5.327602e-01
7.831122e-01
-3.001915e-01
3.300365e-01
-3.001915e-01
3.300365e-01
-8.083226e-02
-2.653621e-02
-8.083226e-02
-2.653621e-02
-4.857190e-02
-3.198283e-01
-4.857190e-02
-3.198283e-01
2.560515e-01
-7.493327e-01
2.560515e-01
-7.493327e-01
3.043154e-01
-7.171298e-01
3.043154e-01
-7.171298e-01
2.313711e-01
-5.289090e-01
2.313711e-01
-5.289090e-01
2.980422e-01
-1.193199e-01
2.980422e-01
-1.193199e-01
5.512582e-01
3.226338e-01
5.512582e-01
3.226338e-01
6.869040e-01
4.099575e-01
6.869040e-01
4.099575e-01
4.631101e-01
2.905476e-01
4.631101e-01
2.905476e-01
-1.814268e-01
-2.275074e-01
-1.814268e-01
-2.275074e-01
-4.232791e-01
-3.999831e-01
-4.232791e-01
-3.999831e-01
-2.835671e-01
-1.428691e-01
-2.835671e-01
-1.428691e-01
5.839056e-01
5.839056e-01
3.473407e-01
3.473407e-01
-1.374023e-01
-1.374023e-01
-5.478222e-01
-5.478222e-01
-9.901509e-01
-9.901509e-01
-9.009581e-01
-9.009581e-01
-4.922762e-01
-4.922762e-01
-8.913998e-02
-8.913998e-02
-8.040150e-02
-8.040150e-02
-3.352082e-01
-3.352082e-01
-2.849644e-01
-2.849644e-01
-2.622113e-01
-2.622113e-01
-2.614855e-03
-2.614855e-03
2.577785e-01
2.577785e-01
-9.714454e-02
-9.714454e-02
-9.327040e-02
-9.327040e-02
-4.511778e-01
-4.511778e-01
-6.265223e-01
-6.265223e-01
-4.572110e-01
-4.572110e-01
-3.588259e-01
-3.588259e-01
-2.202943e-02
-2.202943e-02
9.991670e-02
9.991670e-02
-4.124037e-01
-4.124037e-01
-7.968358e-01
-7.968358e-01
-6.930039e-01
-6.930039e-01
-5.380145e-01
-5.380145e-01
-1.601258e-01
-1.601258e-01
1.065371e-01
1.065371e-01
-5.663119e-01
-5.663119e-01
-4.696662e-01
-4.696662e-01
-4.972267e-01
-4.972267e-01
-6.073117e-01
-6.073117e-01
-2.539891e-01
-2.539891e-01
4.612488e-02
4.612488e-02
1.939301e-01
1.939301e-01
5.332960e-02
5.332960e-02
-4.602075e-01
-4.602075e-01
-6.917430e-01
-6.917430e-01
-6.944166e-01
-6.944166e-01
-4.829731e-01
-4.829731e-01
-4.734613e-01
-4.734613e-01
-5.721827e-01
-5.721827e-01
-6.796385e-01
-6.796385e-01
-4.882990e-01
-4.882990e-01
-5.238278e-01
-5.238278e-01
-7.261291e-01
-7.261291e-01
-2.574650e-01
-2.574650e-01
1.371454e-01
1.371454e-01
1.754242e-01
1.754242e-01
1.249462e-02
1.249462e-02
-2.083082e-01
-2.083082e-01
-5.176365e-01
-5.176365e-01
-6.386765e-01
-6.386765e-01
-3.854081e-01
-3.854081e-01
-4.455601e-01
-4.455601e-01
-7.702813e-01
-7.702813e-01
5.803855e-03
-3.873435e-02
5.803855e-03
-3.873435e-02
7.999654e-02
7.999654e-02
9.931843e-02
9.931843e-02
8.169969e-02
8.169969e-02
6.125865e-02
6.125865e-02
3.250915e-02
3.250915e-02
3.072362e-02
3.072362e-02
-3.719979e-02
-3.719979e-02
-1.255919e-01
5.036851e-02
-1.255919e-01
5.036851e-02
-8.048101e-02
-8.048101e-02
1.452762e-01
1.452762e-01
4.807072e-02
4.807072e-02
-1.391664e-01
-1.391664e-01
-2.936282e-02
-2.936282e-02
1.017302e-01
1.017302e-01
-5.265003e-02
-5.265003e-02
-6.150318e-02
-7.342812e-02
-6.150318e-02
-7.342812e-02
-1.676509e-01
-1.676509e-01
5.169244e-02
5.169244e-02
6.269860e-02
6.269860e-02
-1.730304e-01
-1.730304e-01
-6.822285e-02
-6.822285e-02
2.849665e-02
2.849665e-02
-9.457239e-02
-9.457239e-02
9.754242e-02
8.466049e-02
9.754242e-02
8.466049e-02
1.105754e-01
1.105754e-01
-4.647748e-03
-4.647748e-03
-1.820491e-01
-1.820491e-01
-1.680953e-02
-1.680953e-02
1.062315e-01
1.062315e-01
9.628702e-03
9.628702e-03
-1.517025e-02
-1.517025e-02
7.364093e-02
1.165631e-01
7.364093e-02
1.165631e-01
1.423901e-01
1.423901e-01
4.809967e-02
4.809967e-02
-1.198668e-01
-1.198668e-01
6.476717e-02
6.476717e-02
-1.289709e-03
-1.289709e-03
-8.146414e-02
-8.146414e-02
1.600604e-02
1.600604e-02
5.335731e-02
1.140352e-02
5.335731e-02
1.140352e-02
-1.098531e-01
-1.098531e-01
-2.895835e-02
-2.895835e-02
4.742637e-02
4.742637e-02
6.055173e-02
6.055173e-02
4.657414e-02
4.657414e-02
6.788406e-02
6.788406e-02
8.653431e-02
8.653431e-02
2.300433e-01
3.186256e-01
5.696283e-01
2.464690e-01
2.300433e-01
3.186256e-01
5.696283e-01
2.464690e-01
8.120977e-01
4.283983e-01
8.120977e-01
4.283983e-01
7.767399e-01
2.496490e-01
7.767399e-01
2.496490e-01
1.912785e-01
-1.141099e-01
1.912785e-01
-1.141099e-01
-4.000310e-01
-4.153479e-02
-4.000310e-01
-4.153479e-02
-7.620171e-01
-2.151187e-02
-7.620171e-01
-2.151187e-02
-2.214774e-01
8.442612e-02
-2.214774e-01
8.442612e-02
3.418490e-01
6.764628e-01
3.418490e-01
6.764628e-01
8.293430e-01
8.293430e-01
8.088688e-01
8.088688e-01
3.519429e-01
3.519429e-01
-2.708012e-01
-2.708012e-01
-1.136968e+00
-1.136968e+00
-1.035602e+00
-1.035602e+00
-3.212348e-01
-3.212348e-01
4.295427e-01
4.295427e-01
3.159580e-01
3.159580e-01
9.037297e-02
9.037297e-02
7.998204e-01
7.998204e-01
4.927468e-01
4.927468e-01
-2.759278e-02
-2.759278e-02
4.816090e-01
4.816090e-01
3.003415e-01
3.003415e-01
-3.721445e-04
-3.721445e-04
-2.699765e-02
-2.699765e-02
2.418092e-02
2.418092e-02
4.175623e-02
4.175623e-02
-2.861059e-01
-2.861059e-01
-2.553293e-01
-2.553293e-01
-1.719027e-01
-1.719027e-01
-3.173954e-01
-3.173954e-01
-4.226346e-01
-4.226346e-01
-2.924457e-01
-2.924457e-01
-2.880797e-02
1.030529e-01
-2.880797e-02
1.030529e-01
5.544623e-02
1.299587e-01
5.544623e-02
1.299587e-01
3.178734e-02
-1.707222e-02
3.178734e-02
-1.707222e-02
-3.630587e-02
-7.830773e-02
-3.630587e-02
-7.830773e-02
-7.708852e-03
-1.367010e-02
-7.708852e-03
-1.367010e-02
-9.750957e-03
-9.750957e-03
-1.056903e-01
-1.056903e-01
-4.270146e-02
-4.270146e-02
8.206915e-02
8.206915e-02
-9.190514e-02
-9.190514e-02
-3.666637e-02
-3.666637e-02
-6.257289e-02
-6.257289e-02
1.027092e-01
1.027092e-01
1.222039e-01
1.222039e-01
-4.002083e-02
-4.002083e-02
-2.295952e-02
-2.295952e-02
8.475726e-02
8.475726e-02
8.573991e-02
8.573991e-02
-9.696829e-02
-9.696829e-02
-4.629014e-02
-4.629014e-02
-2.487381e-02
-2.487381e-02
1.315540e-02
1.315540e-02
5.449717e-02
5.449717e-02
-4.160544e-02
-4.160544e-02
-6.465960e-02
-6.465960e-02
-2.397529e-01
-2.397529e-01
-1.366338e-01
-1.366338e-01
8.207557e-02
8.207557e-02
1.179264e-01
1.179264e-01
1.687065e-01
1.687065e-01
-1.289015e-01
-1.289015e-01
-3.996194e-02
-3.996194e-02
1.297087e-02
1.297087e-02
6.386972e-02
6.386972e-02
1.742866e-01
1.742866e-01
1.995711e-01
1.995711e-01
8.668273e-03
8.668273e-03
-6.906623e-02
-6.906623e-02
4.138045e-02
4.138045e-02
1.364222e-02
1.364222e-02
-1.271052e-01
-1.271052e-01
-8.335538e-04
-8.335538e-04
-1.890393e-01
-1.890393e-01
-1.729497e-01
-1.729497e-01
1.846398e-01
1.846398e-01
-8.841796e-02
-8.841796e-02
-6.491733e-03
-6.491733e-03
1.805801e-01
1.805801e-01
2.272779e-02
2.272779e-02
-9.879413e-02
-9.879413e-02
9.501128e-02
9.501128e-02
-1.018764e-01
-1.018764e-01
-8.104991e-02
-8.104991e-02
1.307299e-01
1.307299e-01
7.821902e-02
7.821902e-02
-8.279962e-02
-8.279962e-02
-5.586382e-02
-5.586382e-02
-2.231068e-01
-2.231068e-01
-2.341315e-02
-2.341315e-02
5.414029e-02
5.414029e-02
1.868695e-01
1.868695e-01
1.805186e-01
1.805186e-01
2.298327e-01
2.298327e-01
-9.866249e-02
-9.866249e-02
-2.106850e-04
-2.106850e-04
3.912337e-02
3.912337e-02
1.879231e-01
1.879231e-01
3.196603e-01
3.196603e-01
2.988233e-01
2.988233e-01
-2.116520e-01
-2.116520e-01
6.642045e-02
6.642045e-02
-9.029047e-02
-9.029047e-02
8.241060e-02
8.241060e-02
6.363938e-02
6.363938e-02
1.923501e-01
1.923501e-01
-1.620574e-01
-1.620574e-01
1.525739e-01
1.525739e-01
4.797158e-03
4.797158e-03
5.853475e-02
5.853475e-02
1.040308e-01
1.040308e-01
3.914697e-01
3.914697e-01
-2.235895e-01
-2.235895e-01
1.314653e-01
1.314653e-01
-5.939951e-02
-5.939951e-02
2.360497e-01
2.360497e-01
1.508504e-01
1.508504e-01
1.089153e-01
1.089153e-01
-6.020086e-01
-6.020086e-01
3.626281e-01
3.626281e-01
-2.580935e-01
-2.580935e-01
2.959960e-01
2.959960e-01
6.872558e-01
6.872558e-01
8.760356e-02
8.760356e-02
-1.389728e+00
-1.389728e+00
8.492819e-01
8.492819e-01
-3.478620e-01
-3.478620e-01
-3.265321e-01
-3.265321e-01
1.224181e+00
1.224181e+00
1.749782e+00
1.749782e+00
1.942061e-02
1.942061e-02
1.361654e+00
1.361654e+00
-2.114946e-01
-2.114946e-01
-1.659124e+00
-1.659124e+00
3.084071e-02
3.084071e-02
4.400817e+00
4.400817e+00
3.130616e+00
3.130616e+00
9.262698e-01
9.262698e-01
-5.215535e-01
-5.215535e-01
-2.609193e+00
-2.609193e+00
-3.014411e+00
-3.014411e+00
-2.026706e-01
-2.026706e-01
-5.541217e+00
-5.541217e+00
-5.622811e-01
-5.622811e-01
-1.503117e+00
-1.503117e+00
-7.998861e+00
-7.998861e+00
-4.785198e+00
-4.785198e+00
3.483635e+00
3.483635e+00
-2.929288e+00
-2.929288e+00
-1.379699e+00
-1.379699e+00
-5.254486e+00
-5.254486e+00
-1.320788e+01
-1.320788e+01
-2.102191e+01
-2.102191e+01
-3.046452e+01
-3.046452e+01
-2.119110e+01
-2.119110e+01
-1.226336e+00
-1.226336e+00
-7.895807e+00
-7.895807e+00
-1.430460e+01
-1.430460e+01
-2.672302e+01
-2.672302e+01
-5.326593e+01
-5.326593e+01
-5.459691e+01
-5.459691e+01
6.300144e-01
6.300144e-01
6.648699e+00
6.648699e+00
1.405854e+01
1.405854e+01
1.015915e+01
1.015915e+01
-1.319025e+01
-1.319025e+01
-3.718786e+01
-3.718786e+01
-8.365908e-01
-8.365908e-01
1.459928e+01
1.459928e+01
3.942584e+01
3.942584e+01
2.247279e+01
2.247279e+01
-1.215750e+01
-1.215750e+01
-8.212355e+00
-8.212355e+00
-4.993649e+00
-4.993649e+00
2.519106e+00
2.519106e+00
9.404899e+00
9.404899e+00
-1.540490e+01
-1.540490e+01
-4.079614e+01
-4.079614e+01
-1.595763e+01
-1.595763e+01
-4.285564e+00
-4.285564e+00
-3.518204e+00
-3.518204e+00
-8.767796e+00
-8.767796e+00
-1.874436e+01
-1.874436e+01
-2.054811e+01
-2.054811e+01
-1.126455e+01
-1.126455e+01
-1.052902e+00
-1.052902e+00
-2.540905e+00
-2.540905e+00
-1.528876e+00
-1.528876e+00
-5.050113e-02
-5.050113e-02
5.135941e+00
5.135941e+00
2.899076e+00
2.899076e+00
5.659003e-01
5.659003e-01
-1.492851e+00
-1.492851e+00
-2.940326e+00
-2.940326e+00
-2.740258e+00
-2.740258e+00
-8.302982e-01
-8.302982e-01
-4.057886e+00
-4.057886e+00
4.731119e-01
4.731119e-01
-1.349036e+00
-1.349036e+00
-3.985425e+00
-3.985425e+00
-3.695928e+00
-3.695928e+00
-2.808568e+00
-2.808568e+00
-7.926518e-02
-7.926518e-02
-3.899814e-02
-3.899814e-02
6.127694e-02
6.127694e-02
-8.870425e-02
-8.870425e-02
-4.556201e-01
-4.556201e-01
-2.219080e-01
-2.219080e-01
1.390658e-01
1.390658e-01
9.808545e-02
9.808545e-02
-9.380396e-02
-9.380396e-02
1.468605e-01
1.468605e-01
7.283101e-01
7.283101e-01
5.412083e-02
5.412083e-02
-4.975222e-01
-4.975222e-01
1.914745e+00
1.914745e+00
1.960870e+00
1.960870e+00
-2.427726e+00
-2.427726e+00
-4.312051e+00
-4.312051e+00
-2.720587e+00
-2.720587e+00
-1.600714e+00
-1.600714e+00
-4.618561e-01
-4.618561e-01
7.354527e-01
7.354527e-01
8.921255e-01
8.921255e-01
-1.755248e-01
-1.755248e-01
-6.725703e-02
-6.725703e-02
2.873986e-02
2.873986e-02
-1.178775e-01
-1.178775e-01
-3.028770e-01
-3.028770e-01
-2.316069e-01
-2.316069e-01
1.411126e-02
1.411126e-02
1.563855e-01
1.563855e-01
6.771547e-02
6.771547e-02
2.083160e-01
2.083160e-01
8.727066e-01
8.727066e-01
1.937420e+00
1.937420e+00
-1.521013e+00
-1.521013e+00
-4.553182e+00
-4.553182e+00
-2.442528e+00
-2.442528e+00
-3.653225e+00
-3.653225e+00
-8.445505e+00
-8.445505e+00
-1.055917e+01
-1.055917e+01
-9.425052e+00
-9.425052e+00
-3.266259e+00
-3.266259e+00
2.292760e+00
2.292760e+00
2.496707e+00
2.496707e+00
-1.809706e-01
-1.809706e-01
-2.102359e-01
-2.102359e-01
-1.515798e-01
-1.515798e-01
-1.980725e-01
-1.980725e-01
-3.318911e-01
-3.318911e-01
-2.327455e-01
-2.327455e-01
-1.380664e-01
-1.380664e-01
-6.082008e-02
-6.082008e-02
3.930795e-02
3.930795e-02
8.584698e-02
8.584698e-02
-6.046025e-01
-6.046025e-01
-4.271287e-01
-4.271287e-01
-4.311686e+00
-4.311686e+00
-1.707149e+01
-1.707149e+01
-1.851427e+01
-1.851427e+01
1.643186e+01
1.643186e+01
1.083371e+01
1.083371e+01
-2.043973e+01
-2.043973e+01
-1.622383e+01
-1.622383e+01
-8.140877e+00
-8.140877e+00
-2.880937e-01
-2.880937e-01
8.443188e-01
8.443188e-01
-8.683708e-03
-8.683708e-03
-1.214176e-01
-1.214176e-01
-2.371902e-01
-2.371902e-01
-4.202663e-01
-4.202663e-01
-3.562583e-01
-3.562583e-01
-2.905408e-01
-2.905408e-01
-1.922664e-01
-1.922664e-01
-1.306235e-01
-1.306235e-01
-5.339942e-01
-5.339942e-01
5.074716e-01
5.074716e-01
-3.092238e-01
-3.092238e-01
-6.874413e+00
-6.874413e+00
-1.023689e+01
-1.023689e+01
-1.160041e+01
-1.160041e+01
-1.835278e+01
-1.835278e+01
2.225159e+01
2.225159e+01
3.610251e+01
3.610251e+01
7.633213e+00
7.633213e+00
-3.631874e+00
-3.631874e+00
-1.170490e+01
-1.170490e+01
-3.786175e+00
-3.786175e+00
-1.627580e+00
-1.627580e+00
-1.790316e-01
-1.790316e-01
-2.358625e-01
-2.358625e-01
-3.069551e-01
-3.069551e-01
-4.987136e-01
-4.987136e-01
-5.251874e-01
-5.251874e-01
-6.334082e-01
-6.334082e-01
-5.440943e-01
-5.440943e-01
-7.398996e-01
-7.398996e-01
-1.843778e+00
-1.843778e+00
-9.802084e-02
-9.802084e-02
1.175598e-01
1.175598e-01
-1.182873e+01
-1.182873e+01
-1.109113e+01
-1.109113e+01
-2.584045e+00
-2.584045e+00
-2.543731e+01
-2.543731e+01
-1.773648e+01
-1.773648e+01
2.325562e+01
2.325562e+01
2.516547e+01
2.516547e+01
3.185047e+00
3.185047e+00
-8.660927e+00
-8.660927e+00
-6.913013e+00
-6.913013e+00
-2.708417e+00
-2.708417e+00
4.511128e-01
6.659086e-01
6.405587e-01
1.481271e-01
-2.486205e-01
-3.930822e-01
2.382824e-01
4.713630e-01
5.352508e-01
1.916524e-01
-1.337859e-01
-2.848188e-01
-3.883015e-01
-2.663257e-01
1.183342e-02
2.310759e-01
2.909137e-01
2.876925e-01
-7.647997e-01
-8.213939e-01
-5.253918e-01
1.631377e-01
6.975541e-01
8.960372e-01
-7.240371e-01
-8.561714e-01
-6.433115e-01
1.232025e-01
7.909208e-01
1.037119e+00
-7.268669e-01
-7.499001e-01
-4.180476e-01
2.171189e-01
6.480777e-01
7.987558e-01
-5.065352e-01
-3.264864e-01
1.664673e-02
2.514590e-01
3.596254e-01
3.960638e-01
-1.448090e-02
1.782431e-01
3.270210e-01
2.154267e-01
9.714962e-02
4.652062e-02
4.362150e-01
5.268982e-01
4.498659e-01
1.372677e-01
-8.235194e-02
-1.570889e-01
5.382681e-01
5.601794e-01
4.091606e-01
9.522404e-02
-7.310135e-02
-1.004203e-01
4.550109e-01
4.552451e-01
3.453583e-01
1.309826e-01
2.192794e-03
-2.234222e-02
-8.342478e-01
-2.996737e-01
2.698706e-01
2.293360e-01
-1.010250e-01
-3.558814e-01
-9.045778e-01
-3.727729e-01
2.701634e-01
2.783084e-01
-2.520200e-02
-2.257260e-01
-2.545512e-01
-1.782763e-01
7.193103e-02
2.677876e-01
3.147440e-01
3.397763e-01
6.840204e-01
2.747736e-01
-1.071840e-01
2.001242e-01
7.197489e-01
9.593547e-01
6.734578e-01
2.439331e-01
-1.932043e-01
1.700819e-01
8.479616e-01
1.154942e+00
-7.227449e-02
-3.276713e-01
-3.235984e-01
2.200134e-01
7.280559e-01
9.519563e-01
-8.906141e-01
-6.478076e-01
-9.483112e-02
3.329319e-01
4.670557e-01
4.835864e-01
-7.475373e-01
-2.743455e-01
2.796548e-01
2.950456e-01
1.469644e-01
6.430099e-02
9.304837e-03
2.499282e-01
3.913893e-01
1.313206e-01
-1.042179e-01
-1.788498e-01
3.215506e-01
4.070463e-01
3.564689e-01
9.442041e-02
-8.504439e-02
-1.385338e-01
3.214161e-01
3.781792e-01
3.305689e-01
1.422441e-01
1.898384e-02
-2.032487e-02
-2.173148e+00
-1.243691e+00
2.029026e-01
6.260353e-01
2.648235e-02
-4.790673e-01
-2.463355e+00
-1.448328e+00
2.547316e-01
7.705443e-01
1.810721e-01
-2.361806e-01
-9.294376e-01
-4.182929e-01
3.239053e-01
4.904285e-01
5.186077e-01
6.113171e-01
3.245349e+00
2.059417e+00
1.865536e-01
-1.146426e-01
7.842157e-01
1.297339e+00
3.937368e+00
2.233785e+00
-1.923175e-01
-2.892592e-01
8.868251e-01
1.437332e+00
-1.654466e-01
-3.400851e-01
-4.663113e-01
5.812904e-03
9.207066e-01
1.411888e+00
-2.189509e+00
-1.537297e+00
-2.028033e-01
6.021925e-01
7.990754e-01
8.732450e-01
-1.444184e+00
-7.355623e-01
4.332794e-01
7.591844e-01
3.604784e-01
9.608745e-02
-5.413811e-01
4.362489e-02
6.514636e-01
3.828769e-01
-1.185585e-01
-3.285745e-01
2.342137e-01
4.000390e-01
4.494235e-01
1.265889e-01
-1.777611e-01
-2.757174e-01
4.322212e-01
4.710129e-01
3.519547e-01
9.646319e-02
-6.095836e-02
-1.207382e-01
-3.484050e+00
-1.834438e+00
1.344281e+00
2.148285e+00
4.224513e-01
-5.782800e-01
-3.210858e+00
-1.748506e+00
1.179927e+00
2.187205e+00
8.243790e-01
-7.964401e-02
-1.658202e-01
3.052065e-01
5.766876e-01
6.260926e-01
9.782066e-01
1.081370e+00
4.251480e+00
2.529365e+00
-6.434413e-01
-1.467846e+00
3.493342e-01
1.540227e+00
4.521042e+00
1.959031e+00
-1.649377e+00
-1.903136e+00
1.526219e-01
1.415743e+00
3.599475e-01
-1.666447e-01
-1.361496e+00
-1.067649e+00
7.691217e-01
1.643786e+00
-2.866861e+00
-2.044586e+00
-3.047079e-01
9.254570e-01
1.298628e+00
1.359239e+00
-2.648340e+00
-1.458561e+00
1.107904e+00
2.022241e+00
9.523459e-01
3.448003e-01
-7.733112e-01
3.338780e-01
1.616704e+00
1.236267e+00
1.670998e-01
-3.459936e-01
7.139108e-01
8.735879e-01
8.386041e-01
3.214113e-01
-1.830107e-01
-3.649005e-01
9.862293e-01
7.858598e-01
4.201007e-01
7.308023e-02
-1.912243e-01
-2.738980e-01
-5.878458e+00
-3.205196e+00
1.789174e+00
3.496391e+00
1.691100e+00
4.997006e-01
-2.228920e+00
-1.599101e+00
1.399642e+00
3.553324e+00
2.111936e+00
8.857924e-01
4.090299e+00
2.020608e+00
4.943749e-02
7.807225e-01
1.278689e+00
1.143890e+00
1.561727e+00
1.872137e+00
-4.834890e-01
-2.939721e+00
-1.001429e+00
7.270603e-01
-1.324321e+00
3.955245e-02
-1.056654e+00
-3.571095e+00
-1.553548e+00
5.183615e-01
2.859206e+00
6.319524e-01
-2.398564e+00
-2.023164e+00
7.364838e-02
9.917971e-01
1.339282e+00
-4.242756e-01
-9.262789e-01
1.104727e+00
1.648230e+00
1.422282e+00
-3.373834e+00
-1.729687e+00
1.649565e+00
2.882527e+00
1.668718e+00
9.570519e-01
-2.913358e+00
-9.125448e-01
1.802453e+00
1.969290e+00
8.319477e-01
2.419550e-01
-3.811635e-02
2.886391e-01
7.140034e-01
5.975817e-01
1.748325e-01
-3.288624e-02
1.054779e+00
6.863949e-01
2.352256e-01
7.741765e-02
-4.632588e-02
-9.504632e-02
-7.015504e+00
-3.963642e+00
1.396408e+00
3.637737e+00
2.543692e+00
1.516507e+00
-9.153959e-01
-1.380937e+00
9.438184e-01
3.908362e+00
2.853877e+00
1.625145e+00
6.774164e+00
2.684445e+00
-5.387181e-01
9.856175e-01
1.299605e+00
9.558138e-01
-1.021648e+00
1.433437e+00
3.819880e-01
-3.410148e+00
-1.875039e+00
-5.432703e-02
-5.886942e+00
-7.154248e-01
5.439080e-01
-4.131398e+00
-2.543691e+00
-1.928637e-01
4.085307e+00
8.224667e-01
-2.777610e+00
-2.122312e+00
-3.575676e-01
4.146421e-01
5.307961e+00
1.135155e+00
-1.442440e+00
1.148520e+00
1.722868e+00
1.301468e+00
-2.858762e+00
-1.286442e+00
1.717593e+00
2.864277e+00
1.956922e+00
1.334597e+00
-4.945250e+00
-2.378554e+00
1.341513e+00
2.106425e+00
1.218663e+00
7.193590e-01
-1.140460e+00
-6.237326e-01
3.458684e-01
7.119020e-01
4.571515e-01
2.892412e-01
8.137212e-01
4.419828e-01
1.837988e-02
4.809560e-02
1.321052e-01
1.345345e-01
SCALARS S33 float 1
LOOKUP_TABLE default
-3.014471e+00
-4.020599e+00
-1.946619e+00
-1.061524e-01
-3.014471e+00
-4.020599e+00
-1.946619e+00
-1.061524e-01
-3.466147e+00
-2.088435e+00
-2.408118e-01
-2.647874e+00
-3.466147e+00
-2.088435e+00
-2.408118e-01
-2.647874e+00
-2.076390e+00
2.370926e-01
2.894130e-01
-2.076390e+00
2.370926e-01
2.894130e-01
-2.600338e-01
-1.198307e+00
-3.275163e+00
-4.082076e+00
-2.600338e-01
-1.198307e+00
-3.275163e+00
-4.082076e+00
-5.343991e-01
1.558183e-01
-5.343991e-01
1.558183e-01
4.628272e-01
-3.827943e+00
4.628272e-01
-3.827943e+00
1.788796e+00
1.752212e+00
2.374675e-01
-6.897902e-01
1.788796e+00
1.752212e+00
2.374675e-01
-6.897902e-01
-2.435868e+00
-3.667414e+00
-2.546201e+00
-8.425330e-01
-2.435868e+00
-3.667414e+00
-2.546201e+00
-8.425330e-01
1.271130e+00
-2.611019e+00
-2.063499e+00
5.518705e-01
1.271130e+00
-2.611019e+00
-2.063499e+00
5.518705e-01
-9.856049e-01
2.056271e-01
-9.856049e-01
2.056271e-01
-4.566128e-02
-4.566128e-02
-3.747725e+00
-1.791029e+00
-3.747725e+00
-1.791029e+00
5.844999e-01
1.038486e+00
5.844999e-01
1.038486e+00
1.617828e+00
1.617828e+00
2.325941e+00
2.325941e+00
-3.138126e+00
-3.138126e+00
9.589028e-01
-4.782108e-01
-8.252547e-01
9.589028e-01
-4.782108e-01
-8.252547e-01
-3.223640e-02
-9.368034e-02
6.755325e-01
2.547946e-01
-3.223640e-02
-9.368034e-02
6.755325e-01
2.547946e-01
-3.613097e-01
-3.613097e-01
-9.139793e-02
4.797420e-01
-9.139793e-02
4.797420e-01
-1.292205e-01
-1.292205e-01
-2.079428e+00
-2.079428e+00
-1.958915e+00
-1.958915e+00
1.394750e+00
1.394750e+00
1.783075e+00
1.783075e+00
-3.769681e+00
-3.769681e+00
1.189057e+00
1.189057e+00
-8.723339e-01
-8.723339e-01
-1.840832e-01
-2.418621e-01
-1.840832e-01
-2.418621e-01
-1.280169e+00
-1.280169e+00
-1.259204e+00
-1.259204e+00
-6.338611e-01
-6.338611e-01
-4.155896e-01
-4.155896e-01
-5.852255e-01
-7.416321e-01
-5.852255e-01
-7.416321e-01
-1.073510e+00
-1.073510e+00
-8.415637e-01
-8.415637e-01
-4.658048e-01
-4.658048e-01
-4.526025e-01
-4.526025e-01
-2.742852e-01
-9.095153e-01
-2.742852e-01
-9.095153e-01
-1.143414e-01
-1.143414e-01
-8.682022e-03
-8.682022e-03
-2.585667e-01
-2.585667e-01
-4.018993e-01
-4.018993e-01
4.496824e-03
-4.708828e-01
4.496824e-03
-4.708828e-01
5.004352e-02
5.004352e-02
7.485961e-02
7.485961e-02
-1.017067e-01
-1.017067e-01
-3.256630e-01
-3.256630e-01
-5.990563e-02
-6.340707e-02
-5.990563e-02
-6.340707e-02
-3.527280e-01
-3.527280e-01
-2.686614e-01
-2.686614e-01
7.261452e-02
7.261452e-02
1.283584e-01
1.283584e-01
-9.658088e-01
-3.921046e-01
-9.658088e-01
-3.921046e-01
-7.395157e-01
-7.395157e-01
-1.536014e-01
-1.536014e-01
2.704761e-01
2.704761e-01
4.777198e-01
4.777198e-01
-1.576962e+00
-1.163415e+00
-1.576962e+00
-1.163415e+00
-6.327942e-01
-6.327942e-01
5.564241e-01
5.564241e-01
9.059608e-01
9.059608e-01
5.475216e-01
5.475216e-01
-6.894964e-01
-1.078159e+00
-6.894964e-01
-1.078159e+00
1.973403e-01
1.973403e-01
1.026841e+00
1.026841e+00
1.076976e+00
1.076976e+00
8.072399e-01
8.072399e-01
5.319350e-02
-7.293635e-01
5.319350e-02
-7.293635e-01
5.864035e-01
5.864035e-01
4.450804e-01
4.450804e-01
2.252918e-01
2.252918e-01
2.526150e-01
2.526150e-01
-4.737637e-02
-4.470919e-01
-4.737637e-02
-4.470919e-01
1.661240e-01
1.661240e-01
-3.610447e-01
-3.610447e-01
-4.249434e-01
-4.249434e-01
-1.413583e-01
-1.413583e-01
-2.529913e-01
5.424016e-02
-2.529913e-01
5.424016e-02
-7.519061e-01
-7.519061e-01
-8.721789e-01
-8.721789e-01
-6.515882e-01
-6.515882e-01
-2.077682e-01
-2.077682e-01
-6.432225e-01
1.302965e-01
-6.432225e-01
1.302965e-01
-1.119602e+00
-1.119602e+00
-1.107598e+00
-1.107598e+00
-8.540832e-01
-8.540832e-01
-5.147862e-01
-5.147862e-01
-7.548812e-01
-3.779619e-01
-7.548812e-01
-3.779619e-01
-9.622087e-01
-9.622087e-01
-8.484883e-01
-8.484883e-01
-5.539643e-01
-5.539643e-01
-3.406914e-01
-3.406914e-01
-5.707559e-01
-6.494844e-01
-5.707559e-01
-6.494844e-01
-9.220793e-01
-9.220793e-01
-6.286059e-01
-6.286059e-01
-2.591169e-01
-2.591169e-01
-2.107864e-01
-2.107864e-01
-5.547734e-01
-7.864659e-01
-1.420371e+00
-5.360241e-01
-5.547734e-01
-7.864659e-01
-1.420371e+00
-5.360241e-01
-7.942274e-01
-1.354748e+00
-7.942274e-01
-1.354748e+00
-1.238705e+00
-1.070529e-01
-1.238705e+00
-1.070529e-01
-1.094148e+00
-1.094148e+00
-2.603204e-01
1.236317e-01
-2.603204e-01
1.236317e-01
-2.581454e-01
-2.581454e-01
5.578975e-01
3.928583e-01
5.578975e-01
3.928583e-01
3.932184e-01
3.932184e-01
4.736994e-01
3.315135e-01
4.736994e-01
3.315135e-01
2.410003e-02
2.410003e-02
1.449369e-01
5.606293e-02
1.449369e-01
5.606293e-02
-3.947504e-01
-3.947504e-01
-9.545276e-01
-2.132827e+00
-9.545276e-01
-2.132827e+00
-1.359832e+00
-1.359832e+00
-1.074702e+00
-1.074702e+00
-2.796639e-01
-2.796639e-01
4.719827e-02
4.719827e-02
-1.416987e-01
-1.416987e-01
5.599283e-02
-1.371041e+00
5.599283e-02
-1.371041e+00
-7.607781e-01
-7.607781e-01
-1.140974e+00
-1.140974e+00
-1.014473e+00
-1.014473e+00
-7.007298e-01
-7.007298e-01
-6.067283e-01
-6.067283e-01
-7.247821e-01
-7.247821e-01
-1.237073e+00
-1.237073e+00
-1.289905e+00
-1.289905e+00
-9.280484e-01
-9.280484e-01
-4.752141e-01
-4.752141e-01
5.187608e-01
5.187608e-01
-4.622557e-01
-4.622557e-01
-1.028789e+00
-1.028789e+00
-2.001874e-01
-2.203362e-01
1.481527e-01
2.807561e-01
-2.001874e-01
-2.203362e-01
1.481527e-01
2.807561e-01
1.239036e-01
-1.936162e-01
-3.932957e-01
-2.400600e-01
1.239036e-01
-1.936162e-01
-3.932957e-01
-2.400600e-01
9.032596e-01
4.280993e-01
4.469107e-01
2.960364e-01
9.032596e-01
4.280993e-01
4.469107e-01
2.960364e-01
-7.685145e-01
-8.910422e-01
-3.374598e-01
-7.685145e-01
-8.910422e-01
-3.374598e-01
-5.736222e-02
-7.173637e-01
-5.736222e-02
-7.173637e-01
2.775707e-01
2.382444e+00
3.244233e-01
-7.728253e-01
2.775707e-01
2.382444e+00
3.244233e-01
-7.728253e-01
1.438240e-01
9.760930e-01
1.438240e-01
9.760930e-01
-1.307547e-01
1.128402e-01
-1.307547e-01
1.128402e-01
-3.177331e-01
-4.960165e-01
-7.081631e-02
-3.177331e-01
-4.960165e-01
-7.081631e-02
-6.323822e-01
-6.323822e-01
-4.144247e-01
-3.353402e-01
-4.144247e-01
-3.353402e-01
-3.572063e-01
1.688591e+00
-3.572063e-01
1.688591e+00
5.413676e-01
5.413676e-01
-3.699477e-01
-3.699477e-01
3.846048e-01
7.321174e-01
4.787206e-01
3.846048e-01
7.321174e-01
4.787206e-01
1.361948e+00
2.619612e+00
3.230001e+00
1.646387e+00
1.361948e+00
2.619612e+00
3.230001e+00
1.646387e+00
6.339228e-02
2.937832e+00
6.339228e-02
2.937832e+00
-5.534793e-01
-5.534793e-01
4.326778e+00
3.118519e+00
2.671059e+00
2.959091e+00
4.326778e+00
3.118519e+00
2.671059e+00
2.959091e+00
2.995831e+00
2.995831e+00
-2.588289e-01
-2.588289e-01
-3.709024e-01
-3.709024e-01
1.253179e-01
1.253179e-01
-7.918359e-01
-7.918359e-01
-2.898680e-01
-2.898680e-01
-6.581687e-01
9.227553e-01
-6.581687e-01
9.227553e-01
-3.350346e-01
6.024740e-01
-3.350346e-01
6.024740e-01
-2.477140e-01
1.383145e-01
-2.477140e-01
1.383145e-01
-1.261562e-01
-2.332925e-01
-1.261562e-01
-2.332925e-01
2.334225e-01
-6.835466e-01
2.334225e-01
-6.835466e-01
3.191222e-01
-6.997100e-01
3.191222e-01
-6.997100e-01
2.523304e-01
-5.431117e-01
2.523304e-01
-5.431117e-01
2.986273e-01
-1.204287e-01
2.986273e-01
-1.204287e-01
5.598612e-01
3.576683e-01
5.598612e-01
3.576683e-01
6.948338e-01
4.527372e-01
6.948338e-01
4.527372e-01
4.531818e-01
3.204654e-01
4.531818e-01
3.204654e-01
-1.882575e-01
-2.028025e-01
-1.882575e-01
-2.028025e-01
-4.160674e-01
-3.936014e-01
-4.160674e-01
-3.936014e-01
-2.718160e-01
-1.466536e-01
-2.718160e-01
-1.466536e-01
4.377309e-01
4.377309e-01
3.049481e-01
3.049481e-01
-4.734627e-02
-4.734627e-02
-4.538847e-01
-4.538847e-01
-9.259798e-01
-9.259798e-01
-8.739109e-01
-8.739109e-01
-4.974672e-01
-4.974672e-01
-9.804554e-02
-9.804554e-02
-5.689963e-02
-5.689963e-02
-3.185306e-01
-3.185306e-01
-2.821774e-01
-2.821774e-01
-2.491258e-01
-2.491258e-01
5.287663e-03
5.287663e-03
2.615769e-01
2.615769e-01
-2.950052e-01
-2.950052e-01
-1.892369e-01
-1.892369e-01
-4.502724e-01
-4.502724e-01
-5.672500e-01
-5.672500e-01
-3.947912e-01
-3.947912e-01
-3.009653e-01
-3.009653e-01
1.052657e-02
1.052657e-02
1.088544e-01
1.088544e-01
-4.029044e-01
-4.029044e-01
-8.051161e-01
-8.051161e-01
-7.186925e-01
-7.186925e-01
-5.574104e-01
-5.574104e-01
-1.662962e-01
-1.662962e-01
1.078031e-01
1.078031e-01
-7.337383e-01
-7.337383e-01
-5.421494e-01
-5.421494e-01
-5.088415e-01
-5.088415e-01
-5.980354e-01
-5.980354e-01
-2.165550e-01
-2.165550e-01
8.751492e-02
8.751492e-02
2.203472e-01
2.203472e-01
6.533406e-02
6.533406e-02
-4.519399e-01
-4.519399e-01
-6.899771e-01
-6.899771e-01
-7.047929e-01
-7.047929e-01
-4.939832e-01
-4.939832e-01
-4.820712e-01
-4.820712e-01
-5.812815e-01
-5.812815e-01
-7.639232e-01
-7.639232e-01
-5.807004e-01
-5.807004e-01
-5.532305e-01
-5.532305e-01
-7.201814e-01
-7.201814e-01
-2.416009e-01
-2.416009e-01
1.649772e-01
1.649772e-01
2.065562e-01
2.065562e-01
3.174201e-02
3.174201e-02
-2.025818e-01
-2.025818e-01
-5.217179e-01
-5.217179e-01
-6.475894e-01
-6.475894e-01
-3.947735e-01
-3.947735e-01
-4.559666e-01
-4.559666e-01
-7.818554e-01
-7.818554e-01
-3.558238e-01
-6.722252e-01
-3.558238e-01
-6.722252e-01
2.964685e-03
2.964685e-03
2.431527e-01
2.431527e-01
3.138917e-01
3.138917e-01
3.515038e-01
3.515038e-01
3.024913e-01
3.024913e-01
2.240610e-01
2.240610e-01
1.315731e-01
1.315731e-01
-5.411222e-01
-5.470671e-01
-5.411222e-01
-5.470671e-01
-2.320361e-01
-2.320361e-01
2.935377e-01
2.935377e-01
2.368677e-01
2.368677e-01
-3.161606e-02
-3.161606e-02
1.121562e-01
1.121562e-01
3.071327e-01
3.071327e-01
1.540039e-01
1.540039e-01
-2.403332e-01
-5.101281e-01
-2.403332e-01
-5.101281e-01
-2.299708e-01
-2.299708e-01
8.345974e-02
8.345974e-02
3.084865e-02
3.084865e-02
-2.485201e-01
-2.485201e-01
-7.451015e-02
-7.451015e-02
3.633375e-02
3.633375e-02
-1.130949e-01
-1.130949e-01
5.327995e-01
1.836587e-01
5.327995e-01
1.836587e-01
5.203634e-01
5.203634e-01
7.489842e-02
7.489842e-02
-4.163178e-01
-4.163178e-01
-2.336386e-01
-2.336386e-01
-4.674043e-02
-4.674043e-02
-2.239266e-01
-2.239266e-01
-2.968160e-01
-2.968160e-01
7.617479e-01
5.731456e-01
7.617479e-01
5.731456e-01
6.619841e-01
6.619841e-01
1.336165e-01
1.336165e-01
-2.804407e-01
-2.804407e-01
-4.978510e-02
-4.978510e-02
-6.712088e-02
-6.712088e-02
-1.931847e-01
-1.931847e-01
-1.271831e-01
-1.271831e-01
3.354531e-01
2.929999e-01
3.354531e-01
2.929999e-01
-1.161625e-01
-1.161625e-01
-1.202495e-01
-1.202495e-01
4.586106e-02
4.586106e-02
1.634964e-01
1.634964e-01
2.612175e-01
2.612175e-01
2.646947e-01
2.646947e-01
2.313825e-01
2.313825e-01
3.537632e-01
2.830479e-01
5.186851e-01
4.172349e-01
3.537632e-01
2.830479e-01
5.186851e-01
4.172349e-01
7.139788e-01
5.306164e-01
7.139788e-01
5.306164e-01
5.898981e-01
2.016047e-01
5.898981e-01
2.016047e-01
-1.071504e-01
-4.065137e-01
-1.071504e-01
-4.065137e-01
-1.001557e+00
-4.925631e-01
-1.001557e+00
-4.925631e-01
-1.725748e+00
-9.393410e-01
-1.725748e+00
-9.393410e-01
-1.584129e+00
-1.370967e+00
-1.584129e+00
-1.370967e+00
3.007221e-01
6.337495e-01
3.007221e-01
6.337495e-01
7.540623e-01
7.540623e-01
6.576506e-01
6.576506e-01
8.286114e-02
8.286114e-02
-7.576505e-01
-7.576505e-01
-1.695068e+00
-1.695068e+00
-1.976010e+00
-1.976010e+00
-1.775963e+00
-1.775963e+00
4.101029e-01
4.101029e-01
2.974678e-01
2.974678e-01
1.573823e-01
1.573823e-01
7.875082e-01
7.875082e-01
4.698625e-01
4.698625e-01
-4.046566e-02
-4.046566e-02
4.633099e-01
4.633099e-01
2.750309e-01
2.750309e-01
-1.179430e-01
-1.179430e-01
-3.037459e-02
-3.037459e-02
3.831073e-02
3.831073e-02
-8.126053e-02
-8.126053e-02
-2.270968e-01
-2.270968e-01
-1.648041e-01
-1.648041e-01
-2.585959e-01
-2.585959e-01
-2.088995e-01
-2.088995e-01
-2.786029e-01
-2.786029e-01
-3.883493e-01
-3.883493e-01
1.622987e-01
3.948846e-01
1.622987e-01
3.948846e-01
-1.520163e-02
2.626708e-01
-1.520163e-02
2.626708e-01
-3.508304e-01
-1.374860e-01
-3.508304e-01
-1.374860e-01
-4.762647e-01
-4.435032e-01
-4.762647e-01
-4.435032e-01
-1.528995e-01
-2.651905e-01
-1.528995e-01
-2.651905e-01
1.642827e-01
1.642827e-01
-1.129439e-01
-1.129439e-01
-1.299933e-01
-1.299933e-01
-1.083951e-01
-1.083951e-01
-4.263511e-01
-4.263511e-01
6.139392e-03
6.139392e-03
-1.028250e-01
-1.028250e-01
1.906376e-01
1.906376e-01
1.807949e-01
1.807949e-01
-1.865322e-01
-1.865322e-01
-1.132906e-02
-1.132906e-02
1.939301e-01
1.939301e-01
2.679115e-01
2.679115e-01
-4.211821e-02
-4.211821e-02
-6.072866e-02
-6.072866e-02
-1.412900e-01
-1.412900e-01
6.022188e-02
6.022188e-02
1.673107e-01
1.673107e-01
3.164765e-02
3.164765e-02
3.900103e-02
3.900103e-02
-5.312491e-01
-5.312491e-01
-4.011989e-01
-4.011989e-01
-5.959481e-03
-5.959481e-03
2.435902e-01
2.435902e-01
4.325486e-01
4.325486e-01
-4.449246e-01
-4.449246e-01
-3.858642e-01
-3.858642e-01
-1.508158e-01
-1.508158e-01
1.504649e-01
1.504649e-01
4.274474e-01
4.274474e-01
-1.005585e-01
-1.005585e-01
-2.357266e-01
-2.357266e-01
-1.588180e-01
-1.588180e-01
1.012115e-01
1.012115e-01
2.075343e-01
2.075343e-01
-8.519291e-01
-8.519291e-01
-6.115724e-01
-6.115724e-01
-8.266270e-01
-8.266270e-01
-5.343203e-01
-5.343203e-01
2.077763e-01
2.077763e-01
-9.634834e-02
-9.634834e-02
-4.904772e-01
-4.904772e-01
-9.113254e-02
-9.113254e-02
-4.887369e-01
-4.887369e-01
-7.513766e-01
-7.513766e-01
-3.999280e-01
-3.999280e-01
-6.497649e-01
-6.497649e-01
-3.498536e-01
-3.498536e-01
2.153688e-02
2.153688e-02
-1.770229e-01
-1.770229e-01
-6.329944e-01
-6.329944e-01
-6.347337e-01
-6.347337e-01
-9.417979e-01
-9.417979e-01
1.413486e-01
1.413486e-01
1.343506e-01
1.343506e-01
3.879138e-01
3.879138e-01
3.793579e-01
3.793579e-01
3.341815e-01
3.341815e-01
-5.361641e-01
-5.361641e-01
7.273099e-01
7.273099e-01
7.773726e-01
7.773726e-01
1.530056e+00
1.530056e+00
1.935177e+00
1.935177e+00
1.430652e+00
1.430652e+00
-5.886539e-01
-5.886539e-01
1.409574e+00
1.409574e+00
1.816900e+00
1.816900e+00
3.023736e+00
3.023736e+00
3.277750e+00
3.277750e+00
2.407487e+00
2.407487e+00
-4.583201e-01
-4.583201e-01
2.308824e+00
2.308824e+00
3.463620e+00
3.463620e+00
4.544682e+00
4.544682e+00
4.780290e+00
4.780290e+00
3.586201e+00
3.586201e+00
-3.914869e-01
-3.914869e-01
2.930756e+00
2.930756e+00
4.747526e+00
4.747526e+00
6.499914e+00
6.499914e+00
6.595635e+00
6.595635e+00
4.288946e+00
4.288946e+00
-9.459084e-01
-9.459084e-01
4.068018e+00
4.068018e+00
5.417104e+00
5.417104e+00
8.445584e+00
8.445584e+00
9.500779e+00
9.500779e+00
5.476262e+00
5.476262e+00
-1.436152e+00
-1.436152e+00
5.669396e+00
5.669396e+00
5.967603e+00
5.967603e+00
8.726758e+00
8.726758e+00
1.253416e+01
1.253416e+01
8.741553e+00
8.741553e+00
-3.200418e+00
-3.200418e+00
6.439046e+00
6.439046e+00
6.972003e+00
6.972003e+00
7.155536e+00
7.155536e+00
1.301226e+01
1.301226e+01
1.859946e+01
1.859946e+01
5.938442e+00
5.938442e+00
6.316873e+00
6.316873e+00
9.600919e+00
9.600919e+00
5.687184e+00
5.687184e+00
7.249022e+00
7.249022e+00
2.465612e+01
2.465612e+01
2.530987e+01
2.530987e+01
7.582516e+00
7.582516e+00
1.437153e+01
1.437153e+01
9.335025e+00
9.335025e+00
-8.833255e+00
-8.833255e+00
-2.160604e+01
-2.160604e+01
-4.590334e+00
-4.590334e+00
7.591542e+00
7.591542e+00
1.961505e+01
1.961505e+01
2.561549e+00
2.561549e+00
-3.028813e+01
-3.028813e+01
-4.144185e+01
-4.144185e+01
-3.425034e+01
-3.425034e+01
6.093515e+00
6.093515e+00
1.476683e+01
1.476683e+01
-8.954865e+00
-8.954865e+00
-4.304307e+01
-4.304307e+01
-2.680630e+01
-2.680630e+01
-1.519904e+01
-1.519904e+01
5.787499e+00
5.787499e+00
-3.879868e+00
-3.879868e+00
-2.184375e+01
-2.184375e+01
-2.510878e+01
-2.510878e+01
2.019038e+00
2.019038e+00
3.485980e+01
3.485980e+01
5.780123e+00
5.780123e+00
-1.294875e+01
-1.294875e+01
-4.279125e+01
-4.279125e+01
-3.059852e+01
-3.059852e+01
1.104071e+01
1.104071e+01
4.155873e+01
4.155873e+01
5.952311e+00
5.952311e+00
-3.811917e+00
-3.811917e+00
-2.676363e+01
-2.676363e+01
-3.297133e+01
-3.297133e+01
-2.021743e+01
-2.021743e+01
-7.658747e+00
-7.658747e+00
5.549450e+00
5.549450e+00
3.571488e+00
3.571488e+00
-8.808051e+00
-8.808051e+00
-3.015720e+01
-3.015720e+01
-4.624119e+01
-4.624119e+01
-3.596914e+01
-3.596914e+01
5.346592e+00
5.346592e+00
2.429204e+00
2.429204e+00
-1.616612e+01
-1.616612e+01
-4.332647e+01
-4.332647e+01
-4.971855e+01
-4.971855e+01
-3.189198e+01
-3.189198e+01
4.901880e+00
4.901880e+00
7.480045e-01
7.480045e-01
-1.124763e+01
-1.124763e+01
-2.158656e+01
-2.158656e+01
-2.044135e+01
-2.044135e+01
-1.549993e+01
-1.549993e+01
4.086938e+00
4.086938e+00
8.030777e-01
8.030777e-01
-5.896285e+00
-5.896285e+00
-7.379371e+00
-7.379371e+00
-4.477415e+00
-4.477415e+00
-1.832828e-01
-1.832828e-01
-3.525390e-01
-3.525390e-01
-1.201275e-01
-1.201275e-01
-5.751781e-01
-5.751781e-01
-1.909337e+00
-1.909337e+00
-2.375648e+00
-2.375648e+00
-1.848786e+00
-1.848786e+00
-1.382972e+00
-1.382972e+00
-1.415079e+00
-1.415079e+00
-3.795126e-01
-3.795126e-01
-9.859102e-02
-9.859102e-02
-1.704756e+00
-1.704756e+00
-8.934039e-01
-8.934039e-01
9.291655e-01
9.291655e-01
-1.109712e+00
-1.109712e+00
-1.955729e+00
-1.955729e+00
-1.299768e-01
-1.299768e-01
8.132486e-02
8.132486e-02
3.782665e-02
3.782665e-02
-2.163624e-01
-2.163624e-01
-9.364733e-01
-9.364733e-01
-1.187300e+00
-1.187300e+00
-6.912464e-01
-6.912464e-01
-5.777435e-01
-5.777435e-01
-3.268965e-01
-3.268965e-01
-1.064040e+00
-1.064040e+00
-2.589369e+00
-2.589369e+00
-3.402298e+00
-3.402298e+00
-2.999419e+00
-2.999419e+00
-2.430041e+00
-2.430041e+00
-2.651699e+00
-2.651699e+00
-2.348294e+00
-2.348294e+00
1.676952e-01
1.676952e-01
-1.186864e+00
-1.186864e+00
-4.223240e+00
-4.223240e+00
-1.959456e+00
-1.959456e+00
-9.298551e-01
-9.298551e-01
-7.621665e-01
-7.621665e-01
7.971775e-01
7.971775e-01
2.450181e-01
2.450181e-01
-2.634060e+00
-2.634060e+00
-4.446104e+00
-4.446104e+00
-6.380338e-01
-6.380338e-01
3.001047e+00
3.001047e+00
-1.000619e+00
-1.000619e+00
-1.014033e+00
-1.014033e+00
-9.557666e-01
-9.557666e-01
-1.952529e+00
-1.952529e+00
-3.285135e+00
-3.285135e+00
-3.896973e+00
-3.896973e+00
-4.209680e+00
-4.209680e+00
-3.999441e+00
-3.999441e+00
-3.893330e+00
-3.893330e+00
-5.666601e+00
-5.666601e+00
-2.629729e+00
-2.629729e+00
3.600953e+00
3.600953e+00
-2.338705e+00
-2.338705e+00
-8.637229e+00
-8.637229e+00
-4.878819e+00
-4.878819e+00
-1.596496e+01
-1.596496e+01
-1.873624e+01
-1.873624e+01
-9.168019e+00
-9.168019e+00
-1.056161e+01
-1.056161e+01
-6.443511e+00
-6.443511e+00
6.832934e-01
6.832934e-01
3.407859e+00
3.407859e+00
-7.395615e-01
-7.395615e-01
-8.588458e-01
-8.588458e-01
-1.297677e+00
-1.297677e+00
-2.531447e+00
-2.531447e+00
-3.495996e+00
-3.495996e+00
-4.138550e+00
-4.138550e+00
-4.741513e+00
-4.741513e+00
-5.132535e+00
-5.132535e+00
-5.514184e+00
-5.514184e+00
-8.049791e+00
-8.049791e+00
-7.133075e+00
-7.133075e+00
7.328338e+00
7.328338e+00
8.207146e+00
8.207146e+00
-2.291922e+01
-2.291922e+01
-2.888806e+01
-2.888806e+01
-1.517139e+01
-1.517139e+01
-2.644024e+01
-2.644024e+01
-4.105611e+01
-4.105611e+01
-2.519531e+01
-2.519531e+01
-2.848250e+00
-2.848250e+00
-6.668572e-01
-6.668572e-01
-5.510888e-01
-5.510888e-01
-5.149991e-01
-5.149991e-01
-8.049149e-01
-8.049149e-01
-1.249413e+00
-1.249413e+00
-2.031123e+00
-2.031123e+00
-2.832812e+00
-2.832812e+00
-3.557990e+00
-3.557990e+00
-3.950391e+00
-3.950391e+00
-4.950891e+00
-4.950891e+00
-5.924432e+00
-5.924432e+00
-9.469731e+00
-9.469731e+00
-8.388517e+00
-8.388517e+00
1.057026e+01
1.057026e+01
1.534405e+01
1.534405e+01
-2.690245e+01
-2.690245e+01
-3.635164e+01
-3.635164e+01
2.148168e+01
2.148168e+01
1.816403e+01
1.816403e+01
-3.194533e+01
-3.194533e+01
-2.775164e+01
-2.775164e+01
-1.088396e+01
-1.088396e+01
-7.484718e+00
-7.484718e+00
-1.825886e+00
-1.825886e+00
1.074569e+00
5.987445e-01
-2.336589e-02
5.588628e-03
3.036936e-01
4.265583e-01
2.151893e+00
1.220698e+00
-2.421832e-02
-9.427519e-02
3.051874e-01
4.609846e-01
4.086045e+00
2.398669e+00
1.040248e-01
-3.478430e-01
7.275045e-02
3.379428e-01
5.374740e+00
3.210176e+00
2.603401e-01
-5.440042e-01
-2.735141e-01
1.604855e-02
5.637097e+00
3.406368e+00
3.430412e-01
-5.430659e-01
-3.416887e-01
-8.680171e-02
4.759114e+00
2.953200e+00
4.103582e-01
-3.737220e-01
-1.852378e-01
5.039947e-02
3.084553e+00
1.964750e+00
3.280121e-01
-1.166286e-01
6.313525e-02
1.706047e-01
1.311674e+00
8.574931e-01
1.794911e-01
1.085650e-01
2.892898e-01
3.171198e-01
2.931055e-01
1.406311e-01
5.723498e-02
1.956737e-01
3.457118e-01
4.263895e-01
3.880236e-02
-5.158705e-02
-1.306098e-02
1.516177e-01
2.626418e-01
3.379027e-01
-3.722357e-03
-3.962030e-02
-1.544010e-02
1.145014e-01
2.132231e-01
2.420813e-01
1.539732e+00
6.376370e-01
-4.170810e-01
-3.498502e-01
1.763121e-01
4.826208e-01
2.387939e+00
1.033085e+00
-6.944200e-01
-7.324366e-01
8.484400e-02
5.674904e-01
3.448971e+00
1.613405e+00
-1.099063e+00
-1.439344e+00
-2.545608e-01
3.936000e-01
4.136473e+00
2.048149e+00
-1.242196e+00
-1.885139e+00
-6.753014e-01
-2.454255e-02
4.420198e+00
2.276738e+00
-1.130417e+00
-1.909367e+00
-7.886928e-01
-1.527634e-01
3.654745e+00
1.990702e+00
-7.768142e-01
-1.477635e+00
-5.322013e-01
1.058104e-02
2.747893e+00
1.493656e+00
-3.883882e-01
-8.105019e-01
-1.893568e-01
2.260950e-01
1.725965e+00
9.013936e-01
-1.637982e-01
-2.715498e-01
1.189663e-01
3.766132e-01
6.661228e-01
3.264922e-01
-7.651667e-02
1.614590e-02
3.100140e-01
4.478414e-01
2.480199e-01
9.939381e-02
-1.476285e-02
1.091584e-01
2.890024e-01
3.793946e-01
2.001820e-01
8.722543e-02
2.186726e-02
1.207802e-01
2.395006e-01
3.069066e-01
1.641265e+00
7.737546e-01
-7.883246e-01
-1.103859e+00
-3.735675e-03
7.173539e-01
1.861039e+00
8.508189e-01
-1.250124e+00
-1.672891e+00
-1.265562e-01
7.518220e-01
2.095174e+00
7.984367e-01
-1.900507e+00
-2.278603e+00
-3.984586e-01
4.575750e-01
1.672011e+00
6.810084e-01
-1.802138e+00
-2.449030e+00
-7.029402e-01
1.978988e-01
1.493624e+00
8.627685e-01
-1.382756e+00
-2.415333e+00
-8.472606e-01
1.387197e-01
1.764545e+00
1.048265e+00
-1.154533e+00
-1.952163e+00
-6.455976e-01
-2.792035e-02
1.324580e+00
9.057720e-01
-7.817227e-01
-1.475615e+00
-3.665307e-01
1.677600e-01
1.432195e+00
7.805236e-01
-5.495684e-01
-9.173011e-01
-6.770638e-02
4.712000e-01
1.442176e+00
6.118631e-01
-3.852480e-01
-2.742756e-01
2.518431e-01
5.001911e-01
6.725238e-01
3.630000e-01
-7.362861e-03
7.942558e-02
3.192152e-01
4.113773e-01
4.522550e-01
3.157964e-01
1.613389e-01
1.675937e-01
2.773788e-01
3.629100e-01
2.286863e+00
1.163825e+00
-1.199461e+00
-1.737289e+00
-2.532478e-01
5.283725e-01
2.587362e+00
1.415649e+00
-1.249112e+00
-1.868746e+00
-2.231845e-01
5.489625e-01
2.699365e+00
1.558587e+00
-6.747220e-01
-9.650222e-01
3.239302e-01
8.106520e-01
6.799991e-01
1.786597e+00
9.580133e-01
-1.075485e-01
1.184055e+00
1.606039e+00
-4.686175e-01
2.094984e+00
1.860829e+00
-1.399833e-01
1.225895e+00
1.794830e+00
1.995204e+00
1.998906e+00
8.387877e-01
-7.039606e-02
4.392923e-01
6.943442e-01
2.310346e+00
1.442731e+00
-4.387636e-01
-9.402726e-01
-2.661083e-01
-1.043145e-01
1.215534e+00
6.174466e-01
-1.122685e+00
-1.509205e+00
-3.038865e-01
1.459076e-01
1.473724e+00
4.079728e-01
-9.132302e-01
-7.164822e-01
8.490852e-02
4.340996e-01
8.876789e-01
4.608562e-01
-5.089156e-02
4.146490e-02
2.792081e-01
3.396697e-01
4.150577e-01
3.865361e-01
2.794598e-01
2.319489e-01
2.669661e-01
2.709397e-01
2.563607e+00
1.102275e+00
-1.759886e+00
-2.754018e+00
-1.414225e+00
-4.811310e-01
1.959227e+00
1.518189e+00
-4.091121e-01
-2.321619e+00
-1.708119e+00
-6.683757e-01
1.349546e+00
2.225997e+00
2.882110e+00
8.845180e-01
-6.078245e-01
-3.229126e-01
2.361184e+00
3.975065e+00
5.291914e+00
4.024689e+00
1.866853e+00
6.792104e-01
2.067456e+00
4.677642e+00
5.911546e+00
4.079345e+00
2.210759e+00
7.980929e-01
4.792829e-01
2.614772e+00
4.824151e+00
2.661125e+00
4.031554e-02
-3.435781e-01
2.174644e-01
8.919811e-01
1.358806e+00
-5.187496e-01
-1.743724e+00
-1.298834e+00
1.001230e+00
1.638919e-01
-1.887990e+00
-2.633894e+00
-1.538233e+00
-9.112096e-01
1.767911e+00
2.499275e-01
-1.795936e+00
-1.572775e+00
-4.685483e-01
-1.153631e-01
9.509947e-01
4.410715e-01
-1.849245e-01
-8.239994e-02
1.359489e-01
1.357004e-01
1.354752e-01
2.326093e-01
3.149148e-01
3.051434e-01
2.264296e-01
1.426589e-01
1.831123e+00
7.478799e-01
-1.886703e+00
-3.535887e+00
-2.378357e+00
-1.122983e+00
-1.581781e-01
1.061246e+00
5.443734e-01
-2.880930e+00
-3.087483e+00
-1.605029e+00
-1.321187e+00
2.103552e+00
5.614802e+00
1.672720e+00
-2.078554e+00
-1.801236e+00
3.808186e+00
4.852831e+00
7.808259e+00
6.592687e+00
1.036803e+00
-1.392726e+00
4.856095e+00
5.743744e+00
7.939795e+00
6.883657e+00
1.510904e+00
-1.497309e+00
-2.053128e+00
2.300058e+00
7.625647e+00
4.140265e+00
-1.209984e+00
-2.102448e+00
-3.947836e+00
-3.125174e-01
3.136482e+00
-6.038093e-01
-3.246443e+00
-2.335104e+00
2.955276e-01
-2.913561e-01
-2.122659e+00
-3.432316e+00
-2.552748e+00
-1.607941e+00
2.433586e+00
3.952824e-01
-2.325640e+00
-2.097755e+00
-8.775437e-01
-5.678363e-01
1.014442e+00
4.360561e-01
-2.663269e-01
-1.555776e-01
3.654913e-02
-6.070484e-03
-5.874127e-02
1.096681e-01
3.344132e-01
3.545175e-01
2.079064e-01
9.752664e-02
SCALARS S12 float 1
LOOKUP_TABLE default
-1.293259e+00
-1.608033e-01
-2.110011e+00
3.237822e+00
-1.293259e+00
-1.608033e-01
-2.110011e+00
3.237822e+00
3.301400e-01
-1.464267e+00
-7.842582e-01
7.422430e-01
3.301400e-01
-1.464267e+00
-7.842582e-01
7.422430e-01
-4.261851e-01
-5.093440e-01
-6.605938e-02
-4.261851e-01
-5.093440e-01
-6.605938e-02
2.129743e+00
1.453056e+00
2.133463e+00
1.396065e+00
2.129743e+00
1.453056e+00
2.133463e+00
1.396065e+00
1.922285e+00
-7.861560e-01
1.922285e+00
-7.861560e-01
1.526336e+00
1.285245e+00
1.526336e+00
1.285245e+00
-9.024943e-02
-1.778633e-01
6.754890e-01
9.560331e-01
-9.024943e-02
-1.778633e-01
6.754890e-01
9.560331e-01
1.208552e+00
1.469306e+00
-7.388763e-01
5.711470e-01
1.208552e+00
1.469306e+00
-7.388763e-01
5.711470e-01
-4.235059e+00
-6.830723e+00
8.117140e-01
2.249404e+00
-4.235059e+00
-6.830723e+00
8.117140e-01
2.249404e+00
-3.721755e-01
1.532944e+00
-3.721755e-01
1.532944e+00
-1.019275e+00
-1.019275e+00
-1.151420e+00
7.763765e-02
-1.151420e+00
7.763765e-02
1.619010e+00
-1.067052e+00
1.619010e+00
-1.067052e+00
-1.774096e+00
-1.774096e+00
-2.181629e+00
-2.181629e+00
-5.763538e-01
-5.763538e-01
7.847272e-02
3.056858e-01
5.872669e-01
7.847272e-02
3.056858e-01
5.872669e-01
-1.341157e-02
-2.796083e-01
-5.526689e-01
5.738327e-01
-1.341157e-02
-2.796083e-01
-5.526689e-01
5.738327e-01
3.015463e-01
3.015463e-01
3.860111e-01
1.161886e+00
3.860111e-01
1.161886e+00
9.108242e-01
9.108242e-01
-7.160332e-01
-7.160332e-01
-1.320745e+00
-1.320745e+00
-1.089564e+00
-1.089564e+00
-2.877926e+00
-2.877926e+00
-1.611804e+00
-1.611804e+00
-5.270801e-01
-5.270801e-01
2.798764e+00
2.798764e+00
-1.300925e-01
1.347593e+00
-1.300925e-01
1.347593e+00
1.672292e-01
1.672292e-01
7.102395e-02
7.102395e-02
4.188519e-02
4.188519e-02
2.309248e-02
2.309248e-02
-1.129026e-01
1.736256e-01
-1.129026e-01
1.736256e-01
1.486763e-01
1.486763e-01
-4.457849e-03
-4.457849e-03
6.185049e-02
6.185049e-02
7.785223e-02
7.785223e-02
-1.145499e-01
2.273257e-01
-1.145499e-01
2.273257e-01
5.895017e-02
5.895017e-02
4.717365e-04
4.717365e-04
3.408736e-02
3.408736e-02
4.142027e-02
4.142027e-02
-9.271434e-02
7.927857e-02
-9.271434e-02
7.927857e-02
2.851991e-02
2.851991e-02
1.155328e-02
1.155328e-02
8.779884e-03
8.779884e-03
-3.218194e-02
-3.218194e-02
-5.273662e-02
1.194794e-01
-5.273662e-02
1.194794e-01
2.074247e-02
2.074247e-02
3.155917e-02
3.155917e-02
-3.509220e-02
-3.509220e-02
-1.181531e-01
-1.181531e-01
-6.995986e-03
-2.405798e-03
-6.995986e-03
-2.405798e-03
2.007695e-02
2.007695e-02
-4.891510e-02
-4.891510e-02
-1.931180e-02
-1.931180e-02
-4.985669e-02
-4.985669e-02
4.664507e-02
-2.697696e-02
4.664507e-02
-2.697696e-02
3.883071e-02
3.883071e-02
-3.531928e-02
-3.531928e-02
6.543903e-02
6.543903e-02
9.394031e-02
9.394031e-02
-4.626344e-02
-5.424091e-03
-4.626344e-02
-5.424091e-03
6.123340e-02
6.123340e-02
7.840931e-02
7.840931e-02
9.851528e-02
9.851528e-02
1.448591e-01
1.448591e-01
-5.473107e-02
5.267780e-02
-5.473107e-02
5.267780e-02
9.469554e-02
9.469554e-02
1.369460e-01
1.369460e-01
4.381514e-02
4.381514e-02
6.433736e-02
6.433736e-02
7.363865e-02
1.054958e-01
7.363865e-02
1.054958e-01
1.387020e-01
1.387020e-01
9.012114e-02
9.012114e-02
-5.614565e-02
-5.614565e-02
-7.866604e-02
-7.866604e-02
1.448304e-01
1.703357e-02
1.448304e-01
1.703357e-02
1.425908e-01
1.425908e-01
-6.269359e-02
-6.269359e-02
-1.235963e-01
-1.235963e-01
-7.049440e-02
-7.049440e-02
1.504143e-01
-5.622427e-03
1.504143e-01
-5.622427e-03
9.392202e-02
9.392202e-02
-9.379621e-02
-9.379621e-02
-1.239235e-01
-1.239235e-01
-1.039480e-01
-1.039480e-01
7.946478e-02
-1.773892e-02
7.946478e-02
-1.773892e-02
3.259395e-02
3.259395e-02
-5.584104e-02
-5.584104e-02
-9.810599e-02
-9.810599e-02
-1.439110e-01
-1.439110e-01
1.942245e-02
-6.273361e-02
1.942245e-02
-6.273361e-02
6.283961e-03
6.283961e-03
-8.248426e-02
-8.248426e-02
-8.718269e-02
-8.718269e-02
-9.248995e-02
-9.248995e-02
-2.657412e-01
-2.548396e-01
-2.243633e-01
-1.772748e-01
-2.657412e-01
-2.548396e-01
-2.243633e-01
-1.772748e-01
-7.865967e-03
2.610957e-02
-7.865967e-03
2.610957e-02
-1.083237e-01
-4.811457e-02
-1.083237e-01
-4.811457e-02
4.530004e-02
4.530004e-02
2.070455e-02
6.326354e-02
2.070455e-02
6.326354e-02
-4.420262e-03
-4.420262e-03
9.321445e-02
1.191730e-01
9.321445e-02
1.191730e-01
-3.203319e-02
-3.203319e-02
1.902029e-02
6.197610e-02
1.902029e-02
6.197610e-02
-5.914610e-02
-5.914610e-02
-6.936357e-02
-3.090307e-02
-6.936357e-02
-3.090307e-02
-8.101478e-02
-8.101478e-02
5.239470e-01
1.276146e+00
5.239470e-01
1.276146e+00
8.104041e-01
8.104041e-01
4.399867e-01
4.399867e-01
2.610788e-01
2.610788e-01
1.077621e-01
1.077621e-01
5.664046e-04
5.664046e-04
-6.116335e-01
-7.635147e-01
-6.116335e-01
-7.635147e-01
-3.983065e-01
-3.983065e-01
-4.036472e-01
-4.036472e-01
-3.949740e-01
-3.949740e-01
-3.342157e-01
-3.342157e-01
-2.712296e-01
-2.712296e-01
-3.853004e-01
-3.853004e-01
-5.206538e-01
-5.206538e-01
-6.975209e-01
-6.975209e-01
-9.044444e-01
-9.044444e-01
-1.034437e+00
-1.034437e+00
-7.764500e-01
-7.764500e-01
-4.242298e-01
-4.242298e-01
1.219139e+00
1.219139e+00
5.261886e-01
1.514079e-01
2.334131e-02
6.553741e-02
5.261886e-01
1.514079e-01
2.334131e-02
6.553741e-02
1.515911e-01
-8.999289e-02
6.482527e-02
-1.114110e-02
1.515911e-01
-8.999289e-02
6.482527e-02
-1.114110e-02
-9.221747e-02
-7.963814e-02
-1.967838e-02
-8.012955e-02
-9.221747e-02
-7.963814e-02
-1.967838e-02
-8.012955e-02
1.967781e-01
1.926452e-01
-9.565421e-02
1.967781e-01
1.926452e-01
-9.565421e-02
-3.319850e-01
-7.777723e-01
-3.319850e-01
-7.777723e-01
-1.257912e-01
1.242206e-01
9.089379e-02
2.077065e-01
-1.257912e-01
1.242206e-01
9.089379e-02
2.077065e-01
2.245023e-01
-1.080524e-01
2.245023e-01
-1.080524e-01
-1.367984e-01
1.150762e-01
-1.367984e-01
1.150762e-01
7.966048e-02
3.432428e-02
4.363591e-02
7.966048e-02
3.432428e-02
4.363591e-02
-6.486919e-02
-6.486919e-02
-8.578686e-02
-9.005738e-02
-8.578686e-02
-9.005738e-02
-1.290914e-01
-1.074961e+00
-1.290914e-01
-1.074961e+00
-5.475470e-01
-5.475470e-01
-1.247088e-01
-1.247088e-01
-7.255342e-01
-2.298981e-01
-4.781880e-01
-7.255342e-01
-2.298981e-01
-4.781880e-01
-1.111179e+00
-1.117670e+00
-2.520365e-01
-3.131875e-01
-1.111179e+00
-1.117670e+00
-2.520365e-01
-3.131875e-01
8.584858e-01
1.115385e-01
8.584858e-01
1.115385e-01
3.638232e-01
3.638232e-01
-3.486529e-01
-3.803036e-01
-2.599372e-01
-1.234776e+00
-3.486529e-01
-3.803036e-01
-2.599372e-01
-1.234776e+00
-9.456586e-01
-9.456586e-01
2.366487e-01
2.366487e-01
2.637180e-01
2.637180e-01
-2.198974e-03
-2.198974e-03
-1.370690e-01
-1.370690e-01
-2.016638e-01
-2.016638e-01
-1.178559e-01
1.481163e-01
-1.178559e-01
1.481163e-01
-9.680551e-02
4.889362e-02
-9.680551e-02
4.889362e-02
-1.457387e-01
-8.491107e-02
-1.457387e-01
-8.491107e-02
-2.715236e-02
-1.717038e-01
-2.715236e-02
-1.717038e-01
1.760021e-02
-1.955044e-01
1.760021e-02
-1.955044e-01
1.629390e-01
-1.268358e-01
1.629390e-01
-1.268358e-01
1.107161e-01
-1.352166e-01
1.107161e-01
-1.352166e-01
-6.353419e-02
-1.477323e-01
-6.353419e-02
-1.477323e-01
2.836216e-02
2.585243e-02
2.836216e-02
2.585243e-02
7.731232e-02
9.274145e-02
7.731232e-02
9.274145e-02
-7.726677e-03
5.171358e-02
-7.726677e-03
5.171358e-02
4.777341e-03
7.687026e-02
4.777341e-03
7.687026e-02
2.676626e-03
5.077212e-02
2.676626e-03
5.077212e-02
-2.723209e-02
1.552212e-02
-2.723209e-02
1.552212e-02
1.703032e-01
1.703032e-01
2.283745e-01
2.283745e-01
8.296346e-02
8.296346e-02
-1.793176e-02
-1.793176e-02
-2.125600e-03
-2.125600e-03
-8.307881e-02
-8.307881e-02
-1.117118e-01
-1.117118e-01
-4.166910e-02
-4.166910e-02
4.240317e-02
4.240317e-02
9.144698e-02
9.144698e-02
9.925257e-02
9.925257e-02
1.445560e-01
1.445560e-01
9.080984e-02
9.080984e-02
6.122693e-03
6.122693e-03
9.232666e-02
9.232666e-02
4.459505e-02
4.459505e-02
7.049787e-02
7.049787e-02
9.638460e-02
9.638460e-02
6.787522e-02
6.787522e-02
6.055637e-02
6.055637e-02
1.167845e-01
1.167845e-01
1.184243e-01
1.184243e-01
-9.912088e-03
-9.912088e-03
-2.585709e-02
-2.585709e-02
7.185485e-02
7.185485e-02
9.077753e-02
9.077753e-02
1.186324e-02
1.186324e-02
-5.403363e-02
-5.403363e-02
4.903357e-02
4.903357e-02
6.861218e-02
6.861218e-02
-2.554973e-03
-2.554973e-03
2.766690e-02
2.766690e-02
-6.809371e-03
-6.809371e-03
8.913129e-03
8.913129e-03
1.027096e-01
1.027096e-01
4.767896e-02
4.767896e-02
-1.320947e-01
-1.320947e-01
-1.311625e-01
-1.311625e-01
-1.698982e-02
-1.698982e-02
-5.188630e-02
-5.188630e-02
-9.434902e-02
-9.434902e-02
-7.934253e-02
-7.934253e-02
5.349482e-02
5.349482e-02
1.440212e-01
1.440212e-01
-6.510187e-03
-6.510187e-03
-7.491867e-03
-7.491867e-03
4.365109e-02
4.365109e-02
6.295821e-03
6.295821e-03
2.985702e-02
2.985702e-02
-8.531752e-02
-8.531752e-02
-2.053558e-01
-2.053558e-01
-1.252899e-01
-1.252899e-01
-5.975201e-02
-5.975201e-02
-1.221596e-01
-1.221596e-01
-1.250582e-01
-1.250582e-01
-7.794647e-02
-7.794647e-02
-1.302406e-01
-1.942362e-01
-1.302406e-01
-1.942362e-01
-7.768951e-03
-7.768951e-03
7.878422e-02
7.878422e-02
1.323582e-01
1.323582e-01
1.157256e-01
1.157256e-01
4.465899e-02
4.465899e-02
-4.435331e-03
-4.435331e-03
-4.631575e-02
-4.631575e-02
-2.553947e-02
-7.612117e-02
-2.553947e-02
-7.612117e-02
-2.451507e-03
-2.451507e-03
6.837391e-02
6.837391e-02
7.574992e-02
7.574992e-02
9.149560e-02
9.149560e-02
5.908390e-02
5.908390e-02
-1.987337e-02
-1.987337e-02
-3.434055e-02
-3.434055e-02
2.191317e-02
1.267923e-03
2.191317e-02
1.267923e-03
-5.252808e-02
-5.252808e-02
1.059707e-02
1.059707e-02
6.183000e-03
6.183000e-03
4.526694e-03
4.526694e-03
5.281678e-02
5.281678e-02
2.537574e-02
2.537574e-02
6.205255e-03
6.205255e-03
1.097235e-01
7.752627e-02
1.097235e-01
7.752627e-02
6.912233e-02
6.912233e-02
3.624865e-02
3.624865e-02
3.345106e-02
3.345106e-02
-5.616809e-02
-5.616809e-02
-1.591611e-02
-1.591611e-02
4.639939e-02
4.639939e-02
6.131062e-04
6.131062e-04
8.884989e-02
8.835542e-02
8.884989e-02
8.835542e-02
4.889183e-02
4.889183e-02
1.043104e-02
1.043104e-02
-7.759726e-03
-7.759726e-03
-4.212058e-02
-4.212058e-02
-8.335094e-03
-8.335094e-03
4.657472e-02
4.657472e-02
4.637889e-02
4.637889e-02
3.027276e-02
8.837733e-02
3.027276e-02
8.837733e-02
-2.623710e-02
-2.623710e-02
5.039748e-02
5.039748e-02
9.768569e-03
9.768569e-03
-3.175155e-02
-3.175155e-02
-2.645131e-02
-2.645131e-02
-1.615988e-02
-1.615988e-02
1.555872e-02
1.555872e-02
-1.016378e-01
-9.468872e-04
-9.441931e-02
-1.679800e-01
-1.016378e-01
-9.468872e-04
-9.441931e-02
-1.679800e-01
-8.116711e-02
-1.402050e-01
-8.116711e-02
-1.402050e-01
-3.038555e-02
-6.233562e-02
-3.038555e-02
-6.233562e-02
-6.966499e-02
7.517572e-04
-6.966499e-02
7.517572e-04
-2.503119e-02
1.519036e-01
-2.503119e-02
1.519036e-01
-9.291961e-02
4.470355e-02
-9.291961e-02
4.470355e-02
2.778347e-01
4.363018e-01
2.778347e-01
4.363018e-01
6.683420e-02
9.946354e-02
6.683420e-02
9.946354e-02
1.622317e-01
1.622317e-01
1.644055e-01
1.644055e-01
3.795692e-02
3.795692e-02
-1.626899e-01
-1.626899e-01
-6.725899e-02
-6.725899e-02
1.339885e-01
1.339885e-01
2.585220e-01
2.585220e-01
4.848493e-02
4.848493e-02
-5.343840e-03
-5.343840e-03
-4.558677e-02
-4.558677e-02
2.323363e-02
2.323363e-02
-1.626087e-02
-1.626087e-02
5.729299e-02
5.729299e-02
-4.208173e-02
-4.208173e-02
-1.197348e-02
-1.197348e-02
4.275943e-02
4.275943e-02
-3.744293e-02
-3.744293e-02
-4.679574e-02
-4.679574e-02
-4.516231e-02
-4.516231e-02
-1.988825e-02
-1.988825e-02
-2.682453e-03
-2.682453e-03
8.832241e-02
8.832241e-02
-4.362893e-02
-4.362893e-02
4.904205e-02
4.904205e-02
2.180171e-01
2.180171e-01
-5.614361e-02
-7.632665e-02
-5.614361e-02
-7.632665e-02
-7.180738e-02
-2.699261e-02
-7.180738e-02
-2.699261e-02
-4.134251e-02
-1.121962e-02
-4.134251e-02
-1.121962e-02
-4.311548e-02
-6.418968e-02
-4.311548e-02
-6.418968e-02
-2.962733e-02
-8.151769e-02
-2.962733e-02
-8.151769e-02
-6.822413e-02
-6.822413e-02
-2.652963e-02
-2.652963e-02
-2.547405e-02
-2.547405e-02
-6.310366e-02
-6.310366e-02
-6.091211e-02
-6.091211e-02
-6.923994e-02
-6.923994e-02
-9.235203e-02
-9.235203e-02
-6.917177e-02
-6.917177e-02
-5.428563e-02
-5.428563e-02
2.620876e-02
2.620876e-02
4.432595e-02
4.432595e-02
-5.567076e-02
-5.567076e-02
-4.167904e-02
-4.167904e-02
-1.054389e-02
-1.054389e-02
2.464035e-02
2.464035e-02
8.495301e-02
8.495301e-02
6.631647e-02
6.631647e-02
-1.923720e-02
-1.923720e-02
-6.103410e-02
-6.103410e-02
-5.418136e-02
-5.418136e-02
2.182086e-02
2.182086e-02
3.899265e-02
3.899265e-02
-6.266741e-02
-6.266741e-02
-8.673326e-02
-8.673326e-02
-7.181341e-02
-7.181341e-02
1.008272e-01
1.008272e-01
1.776026e-02
1.776026e-02
5.778111e-02
5.778111e-02
4.981303e-02
4.981303e-02
-5.736959e-02
-5.736959e-02
1.852813e-01
1.852813e-01
6.576105e-02
6.576105e-02
1.851431e-01
1.851431e-01
1.424253e-01
1.424253e-01
-4.659057e-02
-4.659057e-02
-2.907848e-01
-2.907848e-01
-1.807859e-01
-1.807859e-01
-1.311081e-01
-1.311081e-01
3.839568e-02
3.839568e-02
4.714600e-02
4.714600e-02
5.021253e-03
5.021253e-03
-3.913410e-01
-3.913410e-01
-2.408794e-01
-2.408794e-01
-1.858766e-01
-1.858766e-01
-8.403846e-02
-8.403846e-02
-4.693409e-02
-4.693409e-02
4.191478e-02
4.191478e-02
-3.931020e-01
-3.931020e-01
-3.202599e-01
-3.202599e-01
-2.617632e-01
-2.617632e-01
-1.780697e-01
-1.780697e-01
-1.330298e-01
-1.330298e-01
1.415421e-01
1.415421e-01
-3.131536e-01
-3.131536e-01
-3.785106e-01
-3.785106e-01
-2.359401e-01
-2.359401e-01
-9.131223e-02
-9.131223e-02
-4.720795e-02
-4.720795e-02
1.847815e-01
1.847815e-01
-3.257541e-01
-3.257541e-01
-5.095087e-01
-5.095087e-01
-2.985504e-01
-2.985504e-01
-1.113793e-01
-1.113793e-01
-4.026195e-02
-4.026195e-02
2.140800e-01
2.140800e-01
-3.451892e-01
-3.451892e-01
-6.873364e-01
-6.873364e-01
-6.029195e-01
-6.029195e-01
-1.795851e-01
-1.795851e-01
-1.176117e-01
-1.176117e-01
1.338471e-01
1.338471e-01
-4.496682e-01
-4.496682e-01
-6.604662e-01
-6.604662e-01
-7.087505e-01
-7.087505e-01
-2.205985e-01
-2.205985e-01
-3.529882e-01
-3.529882e-01
-5.492382e-02
-5.492382e-02
-6.226420e-01
-6.226420e-01
-4.118902e-01
-4.118902e-01
-6.559040e-01
-6.559040e-01
-5.969740e-01
-5.969740e-01
-8.375421e-01
-8.375421e-01
-3.739564e-01
-3.739564e-01
-7.032482e-01
-7.032482e-01
-1.896316e-01
-1.896316e-01
-5.318131e-01
-5.318131e-01
-1.391328e+00
-1.391328e+00
-1.984385e+00
-1.984385e+00
-3.538684e-01
-3.538684e-01
-1.045560e+00
-1.045560e+00
-3.574345e-01
-3.574345e-01
-3.826687e-01
-3.826687e-01
-1.753581e+00
-1.753581e+00
-4.930745e+00
-4.930745e+00
-1.998386e+00
-1.998386e+00
-1.380829e+00
-1.380829e+00
-1.359694e+00
-1.359694e+00
-4.826316e-01
-4.826316e-01
1.200771e-01
1.200771e-01
-7.553296e+00
-7.553296e+00
-4.575065e+00
-4.575065e+00
-1.426413e+00
-1.426413e+00
-2.478645e+00
-2.478645e+00
-4.238526e-01
-4.238526e-01
4.036268e+00
4.036268e+00
-3.461061e+00
-3.461061e+00
-2.319158e+00
-2.319158e+00
-2.114508e+00
-2.114508e+00
-2.221628e-01
-2.221628e-01
5.954123e+00
5.954123e+00
2.421238e+01
2.421238e+01
1.095774e+01
1.095774e+01
-7.151109e+00
-7.151109e+00
-5.871176e+00
-5.871176e+00
1.358061e+00
1.358061e+00
1.314362e+01
1.314362e+01
2.598298e+01
2.598298e+01
9.339856e+00
9.339856e+00
-1.864805e+01
-1.864805e+01
-1.085204e+01
-1.085204e+01
-2.922397e+00
-2.922397e+00
1.963403e+01
1.963403e+01
2.045565e+01
2.045565e+01
6.529277e+00
6.529277e+00
-2.423310e+01
-2.423310e+01
-7.761063e+00
-7.761063e+00
4.808232e+00
4.808232e+00
2.321977e+01
2.321977e+01
3.004192e+01
3.004192e+01
2.438224e+01
2.438224e+01
-2.323650e+00
-2.323650e+00
7.028154e+00
7.028154e+00
1.850700e+01
1.850700e+01
7.801681e+00
7.801681e+00
4.443353e+00
4.443353e+00
1.926422e+01
1.926422e+01
2.367576e+01
2.367576e+01
1.618171e+01
1.618171e+01
1.932557e+01
1.932557e+01
-1.272374e+01
-1.272374e+01
-3.024216e+01
-3.024216e+01
-5.765792e+00
-5.765792e+00
7.978010e+00
7.978010e+00
1.123290e+01
1.123290e+01
1.161559e+01
1.161559e+01
-1.436366e+01
-1.436366e+01
-2.939108e+01
-2.939108e+01
-1.367429e+01
-1.367429e+01
-4.232188e+00
-4.232188e+00
4.090078e+00
4.090078e+00
4.386844e+00
4.386844e+00
-5.569787e+00
-5.569787e+00
-1.360418e+01
-1.360418e+01
-4.072509e+00
-4.072509e+00
2.556954e+00
2.556954e+00
1.166687e+00
1.166687e+00
2.680224e+00
2.680224e+00
-2.197491e+00
-2.197491e+00
-6.471937e+00
-6.471937e+00
1.404985e+00
1.404985e+00
3.633264e+00
3.633264e+00
1.061062e+00
1.061062e+00
2.378543e+00
2.378543e+00
-2.234120e+00
-2.234120e+00
-4.064325e+00
-4.064325e+00
-1.477684e+00
-1.477684e+00
3.392937e-02
3.392937e-02
8.270310e-02
8.270310e-02
4.093096e-02
4.093096e-02
2.853428e-02
2.853428e-02
2.929279e-01
2.929279e-01
3.063004e-01
3.063004e-01
1.584002e-01
1.584002e-01
2.767842e-01
2.767842e-01
2.714053e-01
2.714053e-01
4.937896e-01
4.937896e-01
6.418367e-01
6.418367e-01
1.910697e-01
1.910697e-01
5.766607e-01
5.766607e-01
2.449684e+00
2.449684e+00
2.894948e+00
2.894948e+00
2.150199e-02
2.150199e-02
-1.151340e+00
-1.151340e+00
-1.786593e+00
-1.786593e+00
-3.079091e+00
-3.079091e+00
-1.991414e+00
-1.991414e+00
-6.990151e-01
-6.990151e-01
-1.699452e-01
-1.699452e-01
-2.349003e-02
-2.349003e-02
5.667134e-02
5.667134e-02
-1.335066e-02
-1.335066e-02
4.268510e-02
4.268510e-02
2.305668e-01
2.305668e-01
3.124222e-01
3.124222e-01
2.767787e-01
2.767787e-01
3.371575e-01
3.371575e-01
3.779413e-03
3.779413e-03
3.605054e-02
3.605054e-02
1.221538e+00
1.221538e+00
1.484222e+00
1.484222e+00
1.469403e+00
1.469403e+00
3.549666e+00
3.549666e+00
7.840224e+00
7.840224e+00
7.698755e+00
7.698755e+00
7.632166e-01
7.632166e-01
-4.935773e+00
-4.935773e+00
-5.525712e+00
-5.525712e+00
-3.278801e+00
-3.278801e+00
-6.401640e-01
-6.401640e-01
6.932010e-01
6.932010e-01
-7.840415e-03
-7.840415e-03
1.034477e-01
1.034477e-01
1.005720e-01
1.005720e-01
1.529050e-01
1.529050e-01
3.177178e-01
3.177178e-01
3.864229e-01
3.864229e-01
3.191681e-01
3.191681e-01
2.555793e-01
2.555793e-01
2.108148e-01
2.108148e-01
-5.162109e-01
-5.162109e-01
1.331922e+00
1.331922e+00
4.566018e+00
4.566018e+00
1.795585e+00
1.795585e+00
-4.776742e+00
-4.776742e+00
-5.196494e+00
-5.196494e+00
-2.495228e+00
-2.495228e+00
-1.171242e+00
-1.171242e+00
6.323149e+00
6.323149e+00
5.602670e+00
5.602670e+00
-8.632514e-01
-8.632514e-01
1.485687e-01
1.485687e-01
7.041914e-01
7.041914e-01
6.388883e-02
6.388883e-02
1.587182e-01
1.587182e-01
1.977896e-01
1.977896e-01
2.604056e-01
2.604056e-01
2.818652e-01
2.818652e-01
2.742742e-01
2.742742e-01
8.994219e-02
8.994219e-02
-1.380188e-01
-1.380188e-01
-2.153729e-01
-2.153729e-01
-1.776288e+00
-1.776288e+00
-1.448106e+00
-1.448106e+00
5.442036e+00
5.442036e+00
-5.452843e-01
-5.452843e-01
-3.040789e+01
-3.040789e+01
-4.950418e+01
-4.950418e+01
-3.473089e+01
-3.473089e+01
1.551093e+01
1.551093e+01
4.808626e+01
4.808626e+01
2.703986e+01
2.703986e+01
5.652492e+00
5.652492e+00
1.959147e+00
1.959147e+00
1.223945e+00
1.223945e+00
4.282265e-02
4.282265e-02
1.424722e-01
1.424722e-01
2.964927e-01
2.964927e-01
3.651378e-01
3.651378e-01
3.533731e-01
3.533731e-01
3.721891e-01
3.721891e-01
2.189481e-01
2.189481e-01
5.586041e-02
5.586041e-02
3.350436e-01
3.350436e-01
1.936152e-03
1.936152e-03
1.051878e+00
1.051878e+00
5.942899e+00
5.942899e+00
-2.377279e+00
-2.377279e+00
-3.700634e+01
-3.700634e+01
-6.827907e+01
-6.827907e+01
-4.104514e+01
-4.104514e+01
2.793206e+01
2.793206e+01
4.171102e+01
4.171102e+01
1.652510e+01
1.652510e+01
4.099927e+00
4.099927e+00
-1.250493e+00
-1.250493e+00
2.062772e+00
2.062772e+00
2.347692e+00
1.925992e+00
1.054815e+00
-1.296119e-01
-1.515717e+00
-2.166871e+00
1.204060e+00
1.051900e+00
6.493222e-01
-1.086633e-01
-1.115151e+00
-1.614070e+00
-5.249683e-01
-2.542501e-01
1.831653e-02
-1.191015e-01
-5.137272e-01
-7.690866e-01
-8.847071e-01
-5.515298e-01
-1.429757e-01
-7.301111e-02
-1.500856e-01
-2.217480e-01
-1.083786e-01
-1.277311e-01
-9.096500e-02
2.931574e-02
1.783814e-01
2.632851e-01
6.439950e-01
3.166958e-01
-3.212287e-04
1.176133e-01
4.272809e-01
6.292963e-01
8.811455e-01
5.242554e-01
9.940705e-02
1.953795e-01
5.855937e-01
8.118773e-01
5.202755e-01
3.460186e-01
1.032590e-01
2.507768e-01
6.526455e-01
8.384938e-01
-4.886066e-02
-1.531093e-02
7.943954e-02
2.609170e-01
5.404278e-01
6.996620e-01
-1.277720e-01
-8.312357e-02
2.431262e-02
1.370115e-01
2.757431e-01
3.645636e-01
-3.386515e-02
-1.999704e-02
-1.756291e-05
4.404481e-02
1.152311e-01
1.484664e-01
2.667672e+00
2.316413e+00
1.306432e+00
-1.262789e-01
-1.665533e+00
-2.430799e+00
1.487762e+00
1.421270e+00
9.898531e-01
-2.260060e-02
-1.336520e+00
-2.002911e+00
-6.366593e-01
-2.683275e-01
2.551725e-01
7.084610e-02
-6.988368e-01
-1.129025e+00
-1.177929e+00
-8.085669e-01
-1.825453e-01
2.257702e-02
-1.642139e-01
-2.994673e-01
3.288071e-03
-4.339116e-02
-9.367417e-02
2.006966e-02
2.636140e-01
3.898106e-01
9.432688e-01
5.399018e-01
-6.420688e-02
3.507892e-03
6.211641e-01
9.703639e-01
8.123058e-01
3.678932e-01
-1.764337e-01
1.027992e-01
9.243887e-01
1.366831e+00
1.219003e-01
-5.382278e-02
-1.015117e-01
3.727350e-01
1.066656e+00
1.414363e+00
-4.003753e-01
-2.793920e-01
1.660253e-02
4.259116e-01
9.096540e-01
1.159099e+00
-4.086823e-01
-2.614212e-01
1.214888e-02
2.539603e-01
5.189620e-01
6.684613e-01
-2.921508e-01
-1.952558e-01
-2.290298e-03
1.473851e-01
2.799893e-01
3.589885e-01
3.085805e+00
2.759308e+00
1.921126e+00
3.962366e-01
-1.674130e+00
-2.731292e+00
2.091380e+00
2.064488e+00
1.854854e+00
6.389246e-01
-1.404478e+00
-2.414694e+00
-1.207867e+00
-2.334810e-01
1.318274e+00
1.025832e+00
-6.710313e-01
-1.498084e+00
-2.304173e+00
-1.284081e+00
3.594268e-01
6.956158e-01
4.229283e-02
-3.238033e-01
1.028618e+00
5.356703e-01
-1.738764e-01
-1.529961e-01
3.484774e-01
6.124717e-01
2.320827e+00
1.027411e+00
-9.414837e-01
-8.650296e-01
6.275421e-01
1.368182e+00
-1.739736e-01
-7.116021e-01
-1.530998e+00
-7.998233e-01
1.127649e+00
2.042179e+00
-1.479188e+00
-1.374090e+00
-1.006382e+00
-8.101365e-03
1.476058e+00
2.224548e+00
-1.096619e+00
-9.323729e-01
-3.983345e-01
4.438168e-01
1.362422e+00
1.808668e+00
-8.441205e-01
-5.974872e-01
-1.036944e-01
3.699417e-01
8.246065e-01
1.052795e+00
-6.166704e-01
-4.032562e-01
-2.581473e-02
2.328067e-01
4.711386e-01
6.148764e-01
3.223525e+00
2.952312e+00
2.483083e+00
9.261553e-01
-1.563074e+00
-2.693391e+00
1.239086e+00
1.753282e+00
2.673448e+00
1.593325e+00
-1.211489e+00
-2.530211e+00
-2.756272e+00
-1.149462e+00
1.980102e+00
2.426678e+00
-1.446957e-01
-1.639889e+00
-1.923631e+00
-1.375900e+00
4.650738e-01
1.606132e+00
5.974367e-01
-2.590735e-01
1.098533e+00
7.125739e-01
-2.292695e-01
-5.468419e-01
2.231177e-01
7.547653e-01
2.501724e+00
1.254634e+00
-1.555801e+00
-2.353476e+00
-1.236156e-01
1.340577e+00
8.204511e-01
-5.851754e-01
-2.959155e+00
-2.504092e+00
3.376796e-01
1.756034e+00
-2.505441e+00
-2.467086e+00
-2.399065e+00
-1.187100e+00
9.574285e-01
1.919657e+00
-2.318294e+00
-2.003268e+00
-1.210044e+00
-1.261824e-01
1.023047e+00
1.566614e+00
-1.299609e+00
-1.054746e+00
-5.382113e-01
1.447936e-02
5.551389e-01
8.147788e-01
-8.881025e-01
-6.812819e-01
-3.554626e-01
-7.855590e-02
2.345760e-01
3.897999e-01
5.468987e+00
4.177063e+00
1.848784e+00
-6.356507e-02
-1.592807e+00
-2.246054e+00
3.592536e-01
6.832895e-01
1.108803e+00
5.252340e-01
-1.175297e+00
-2.190783e+00
-3.066836e+00
-3.267046e+00
-6.629362e-01
1.739954e+00
-8.482236e-02
-1.508168e+00
1.887749e+00
-1.597691e+00
-1.731281e+00
1.544880e+00
5.695644e-01
-3.300608e-01
-2.155048e-01
1.173264e+00
7.641907e-01
-7.697869e-01
4.481479e-02
5.955523e-01
-5.483841e-01
2.319080e+00
1.239442e+00
-2.343177e+00
-5.249303e-01
9.288325e-01
2.544869e+00
1.189409e+00
-1.132820e+00
-1.776120e+00
-3.288885e-01
7.948726e-01
-9.216980e-01
-1.114768e+00
-1.270056e+00
-8.445537e-01
1.194442e-01
6.957214e-01
-1.951717e+00
-1.537487e+00
-1.010465e+00
-5.064486e-01
1.899778e-01
4.951801e-01
-1.201004e+00
-1.061572e+00
-8.025665e-01
-4.799009e-01
-1.039689e-01
6.887086e-02
-9.387753e-01
-8.366654e-01
-6.760407e-01
-5.066666e-01
-2.797324e-01
-1.636575e-01
7.674883e+00
5.261283e+00
1.015605e+00
-1.064022e+00
-1.592377e+00
-1.873182e+00
6.516329e-01
1.983505e-01
-7.499679e-01
-9.217959e-01
-1.178684e+00
-1.758781e+00
-2.288513e+00
-4.419726e+00
-3.141558e+00
4.174229e-01
-3.383695e-01
-1.243762e+00
4.485565e+00
-1.946139e+00
-3.451740e+00
1.150562e+00
2.071833e-01
-4.123945e-01
-6.857939e-01
1.951772e+00
1.735551e+00
-7.627056e-01
-8.497473e-03
3.901811e-01
-2.701106e+00
3.420606e+00
3.835610e+00
-1.598863e+00
-3.625926e-01
6.014428e-01
2.357422e+00
1.914434e+00
1.042947e+00
-1.539220e-01
-3.410213e-01
2.402495e-01
4.855846e-01
4.101200e-01
5.515373e-01
1.741955e-01
-2.045174e-01
1.099353e-02
-7.081932e-01
-3.897098e-01
-3.512766e-01
-4.638049e-01
-2.201743e-01
-1.440656e-01
-8.014379e-01
-7.689078e-01
-7.360843e-01
-6.197864e-01
-4.311835e-01
-3.585853e-01
-7.842499e-01
-7.467649e-01
-6.882227e-01
-6.413334e-01
-5.310870e-01
-4.466727e-01
SCALARS S23 float 1
LOOKUP_TABLE default
-5.395340e-01
-3.997873e+00
-4.853093e+00
-4.281473e+00
-5.395340e-01
-3.997873e+00
-4.853093e+00
-4.281473e+00
2.998846e+00
9.891447e-01
-5.621271e-01
2.673327e+00
2.998846e+00
9.891447e-01
-5.621271e-01
2.673327e+00
1.847756e+00
1.711362e+00
1.175275e+00
1.847756e+00
1.711362e+00
1.175275e+00
1.461352e+00
4.165381e-01
4.617169e-01
1.564381e+00
1.461352e+00
4.165381e-01
4.617169e-01
1.564381e+00
4.044064e-01
2.037007e-01
4.044064e-01
2.037007e-01
2.523424e+00
3.608980e+00
2.523424e+00
3.608980e+00
-7.230971e-02
7.351171e-01
2.003955e+00
1.348101e+00
-7.230971e-02
7.351171e-01
2.003955e+00
1.348101e+00
1.477684e+00
4.334655e+00
4.563425e+00
1.273811e+00
1.477684e+00
4.334655e+00
4.563425e+00
1.273811e+00
-5.477687e-02
-1.550348e+00
4.500951e-01
2.999453e-01
-5.477687e-02
-1.550348e+00
4.500951e-01
2.999453e-01
2.812021e+00
-1.014770e+00
2.812021e+00
-1.014770e+00
4.685794e+00
4.685794e+00
4.744721e+00
4.575556e+00
4.744721e+00
4.575556e+00
1.475450e+00
2.322471e+00
1.475450e+00
2.322471e+00
-7.628077e-01
-7.628077e-01
-2.444624e+00
-2.444624e+00
1.294309e+00
1.294309e+00
1.539291e-02
-1.276625e+00
-1.069231e+00
1.539291e-02
-1.276625e+00
-1.069231e+00
-4.095035e-01
-7.835795e-01
-3.419313e-01
-5.369890e-01
-4.095035e-01
-7.835795e-01
-3.419313e-01
-5.369890e-01
-5.188218e-03
-5.188218e-03
1.613177e+00
5.282569e-01
1.613177e+00
5.282569e-01
2.708803e+00
2.708803e+00
1.721035e+00
1.721035e+00
3.202871e+00
3.202871e+00
-2.174639e-01
-2.174639e-01
-6.779838e-01
-6.779838e-01
-1.611452e-01
-1.611452e-01
-8.032130e-01
-8.032130e-01
-2.579852e+00
-2.579852e+00
7.861972e-01
8.379457e-01
7.861972e-01
8.379457e-01
1.400013e-01
1.400013e-01
-4.021393e-01
-4.021393e-01
-4.147812e-01
-4.147812e-01
-2.874251e-01
-2.874251e-01
6.649262e-01
5.987469e-01
6.649262e-01
5.987469e-01
5.226386e-01
5.226386e-01
2.543531e-01
2.543531e-01
3.981124e-02
3.981124e-02
-3.632289e-02
-3.632289e-02
4.600481e-01
4.937169e-01
4.600481e-01
4.937169e-01
3.983248e-01
3.983248e-01
2.569212e-01
2.569212e-01
1.714516e-01
1.714516e-01
1.351820e-01
1.351820e-01
3.691857e-01
4.756789e-01
3.691857e-01
4.756789e-01
2.918702e-01
2.918702e-01
1.987473e-01
1.987473e-01
1.126054e-01
1.126054e-01
6.937200e-02
6.937200e-02
2.621903e-01
2.868201e-01
2.621903e-01
2.868201e-01
1.983462e-01
1.983462e-01
1.231562e-01
1.231562e-01
7.216974e-02
7.216974e-02
4.114513e-02
4.114513e-02
2.035662e-01
1.582766e-01
2.035662e-01
1.582766e-01
1.605661e-01
1.605661e-01
7.033916e-02
7.033916e-02
4.817335e-02
4.817335e-02
3.109542e-02
3.109542e-02
1.427506e-01
8.199322e-02
1.427506e-01
8.199322e-02
1.275229e-01
1.275229e-01
5.286454e-02
5.286454e-02
3.316207e-02
3.316207e-02
1.266749e-02
1.266749e-02
3.294343e-02
5.493136e-02
3.294343e-02
5.493136e-02
5.646841e-02
5.646841e-02
5.836867e-02
5.836867e-02
2.039752e-02
2.039752e-02
4.030194e-03
4.030194e-03
-2.348226e-02
3.260159e-02
-2.348226e-02
3.260159e-02
1.078189e-02
1.078189e-02
4.730637e-02
4.730637e-02
1.116058e-02
1.116058e-02
3.664165e-03
3.664165e-03
-1.955199e-03
2.181594e-02
-1.955199e-03
2.181594e-02
5.273361e-03
5.273361e-03
1.282515e-02
1.282515e-02
4.452546e-03
4.452546e-03
6.417595e-03
6.417595e-03
2.005843e-02
2.139310e-03
2.005843e-02
2.139310e-03
4.632896e-04
4.632896e-04
-1.455772e-02
-1.455772e-02
3.993958e-03
3.993958e-03
4.890820e-03
4.890820e-03
1.659055e-02
-2.038760e-03
1.659055e-02
-2.038760e-03
-3.064403e-03
-3.064403e-03
-1.357543e-02
-1.357543e-02
6.691911e-03
6.691911e-03
7.254952e-03
7.254952e-03
1.361720e-02
6.249506e-03
1.361720e-02
6.249506e-03
5.456180e-03
5.456180e-03
-2.189515e-04
-2.189515e-04
5.078539e-03
5.078539e-03
3.788469e-03
3.788469e-03
1.196757e-02
1.118940e-02
1.196757e-02
1.118940e-02
1.057118e-02
1.057118e-02
6.039843e-03
6.039843e-03
2.999256e-03
2.999256e-03
2.187391e-03
2.187391e-03
-6.342821e-02
-3.236110e-02
-9.621105e-02
-3.599921e-02
-6.342821e-02
-3.236110e-02
-9.621105e-02
-3.599921e-02
4.535082e-02
1.421199e-02
4.535082e-02
1.421199e-02
-8.169807e-02
1.093144e-03
-8.169807e-02
1.093144e-03
5.340856e-03
5.340856e-03
-3.222785e-03
2.858611e-02
-3.222785e-03
2.858611e-02
-3.666381e-03
-3.666381e-03
3.918786e-02
8.057833e-02
3.918786e-02
8.057833e-02
-6.812858e-03
-6.812858e-03
1.099591e-02
8.875660e-02
1.099591e-02
8.875660e-02
-7.447794e-03
-7.447794e-03
-2.335831e-02
5.463379e-02
-2.335831e-02
5.463379e-02
-7.628811e-03
-7.628811e-03
5.089161e-01
2.376078e-01
5.089161e-01
2.376078e-01
7.093445e-01
7.093445e-01
6.780340e-01
6.780340e-01
4.015281e-01
4.015281e-01
2.224719e-01
2.224719e-01
8.780504e-02
8.780504e-02
3.046243e-01
-1.422647e-01
3.046243e-01
-1.422647e-01
6.522203e-01
6.522203e-01
6.398550e-01
6.398550e-01
4.245212e-01
4.245212e-01
2.236105e-01
2.236105e-01
3.578760e-02
3.578760e-02
-5.218335e-02
-5.218335e-02
4.317171e-02
4.317171e-02
1.579634e-01
1.579634e-01
2.477163e-01
2.477163e-01
2.014016e-01
2.014016e-01
-1.117699e-02
-1.117699e-02
-2.939979e-01
-2.939979e-01
-1.940707e-01
-1.940707e-01
3.428649e-01
-7.524957e-02
3.299237e-01
5.608053e-01
3.428649e-01
-7.524957e-02
3.299237e-01
5.608053e-01
2.350325e-01
2.944305e-01
3.008635e-01
2.409366e-01
2.350325e-01
2.944305e-01
3.008635e-01
2.409366e-01
6.953152e-01
-6.711745e-02
2.026621e-01
4.841455e-01
6.953152e-01
-6.711745e-02
2.026621e-01
4.841455e-01
-8.179724e-03
1.266183e-01
8.109403e-01
-8.179724e-03
1.266183e-01
8.109403e-01
1.211039e+00
-8.361350e-02
1.211039e+00
-8.361350e-02
-8.559923e-01
-7.609977e-01
-1.146444e+00
-9.192254e-01
-8.559923e-01
-7.609977e-01
-1.146444e+00
-9.192254e-01
2.611042e-01
1.133817e+00
2.611042e-01
1.133817e+00
2.824793e-01
2.695556e-01
2.824793e-01
2.695556e-01
2.891630e-01
4.057922e-01
3.596966e-01
2.891630e-01
4.057922e-01
3.596966e-01
1.519092e-01
1.519092e-01
1.063469e-01
1.684131e-01
1.063469e-01
1.684131e-01
-8.726213e-01
3.241903e-02
-8.726213e-01
3.241903e-02
-2.291857e-01
-2.291857e-01
-3.454250e-01
-3.454250e-01
-5.484570e-03
-7.697355e-01
5.853011e-01
-5.484570e-03
-7.697355e-01
5.853011e-01
-4.098619e-01
-9.454978e-03
5.482850e-01
-3.959613e-01
-4.098619e-01
-9.454978e-03
5.482850e-01
-3.959613e-01
-3.701183e-01
5.311647e-01
-3.701183e-01
5.311647e-01
-8.571436e-01
-8.571436e-01
1.064542e+00
1.064948e+00
1.424529e+00
1.309185e+00
1.064542e+00
1.064948e+00
1.424529e+00
1.309185e+00
4.520992e-01
4.520992e-01
-5.047233e-01
-5.047233e-01
2.108310e-01
2.108310e-01
2.094656e-01
2.094656e-01
1.419131e-01
1.419131e-01
3.917812e-01
3.917812e-01
2.989145e-01
2.591640e-01
2.989145e-01
2.591640e-01
1.197372e-01
1.741223e-01
1.197372e-01
1.741223e-01
1.105246e-01
8.614893e-02
1.105246e-01
8.614893e-02
5.552664e-02
6.767706e-02
5.552664e-02
6.767706e-02
-1.342688e-02
6.245520e-02
-1.342688e-02
6.245520e-02
-3.163529e-02
3.768887e-02
-3.163529e-02
3.768887e-02
-1.650010e-02
2.681767e-02
-1.650010e-02
2.681767e-02
-1.851171e-02
1.954950e-02
-1.851171e-02
1.954950e-02
-1.489500e-02
2.375573e-03
-1.489500e-02
2.375573e-03
-2.144080e-02
-2.860858e-03
-2.144080e-02
-2.860858e-03
-2.724985e-02
-3.013741e-03
-2.724985e-02
-3.013741e-03
-1.073403e-02
-3.653855e-03
-1.073403e-02
-3.653855e-03
4.312342e-03
1.430136e-03
4.312342e-03
1.430136e-03
7.342160e-03
2.717935e-03
7.342160e-03
2.717935e-03
2.421237e-01
2.421237e-01
1.816565e-01
1.816565e-01
1.037629e-01
1.037629e-01
6.840454e-02
6.840454e-02
5.660993e-02
5.660993e-02
3.111144e-02
3.111144e-02
1.918542e-02
1.918542e-02
1.741651e-02
1.741651e-02
-1.859489e-02
-1.859489e-02
-3.988224e-02
-3.988224e-02
-2.138876e-02
-2.138876e-02
-1.834538e-03
-1.834538e-03
4.969296e-03
4.969296e-03
2.918191e-03
2.918191e-03
2.148577e-01
2.148577e-01
1.366848e-01
1.366848e-01
7.921383e-02
7.921383e-02
4.476244e-02
4.476244e-02
2.459494e-02
2.459494e-02
8.884833e-03
8.884833e-03
2.458848e-03
2.458848e-03
6.063079e-04
6.063079e-04
-2.292471e-02
-2.292471e-02
-4.344894e-02
-4.344894e-02
-2.429148e-02
-2.429148e-02
-9.335496e-05
-9.335496e-05
3.528586e-03
3.528586e-03
7.232441e-04
7.232441e-04
1.034002e-01
1.034002e-01
7.963250e-02
7.963250e-02
5.079688e-02
5.079688e-02
3.615872e-02
3.615872e-02
3.055989e-02
3.055989e-02
2.122631e-02
2.122631e-02
1.279130e-02
1.279130e-02
9.040077e-03
9.040077e-03
3.827067e-03
3.827067e-03
-1.125256e-03
-1.125256e-03
-3.106164e-03
-3.106164e-03
-2.573791e-03
-2.573791e-03
-1.544604e-03
-1.544604e-03
-1.422084e-03
-1.422084e-03
4.018974e-02
4.018974e-02
4.547075e-02
4.547075e-02
4.244503e-02
4.244503e-02
2.292149e-02
2.292149e-02
1.386660e-02
1.386660e-02
9.323887e-03
9.323887e-03
5.940043e-03
5.940043e-03
6.693700e-03
6.693700e-03
7.057548e-03
7.057548e-03
4.849650e-03
4.849650e-03
9.035761e-04
9.035761e-04
-2.386146e-03
-2.386146e-03
-2.296148e-03
-2.296148e-03
-1.814659e-03
-1.814659e-03
-3.805862e-02
-5.370932e-03
-3.805862e-02
-5.370932e-03
-2.873608e-02
-2.873608e-02
1.244401e-01
1.244401e-01
1.352556e-01
1.352556e-01
5.193302e-03
5.193302e-03
6.515984e-02
6.515984e-02
1.503636e-01
1.503636e-01
1.241984e-01
1.241984e-01
-5.610807e-02
6.692551e-03
-5.610807e-02
6.692551e-03
-1.039167e-01
-1.039167e-01
6.157007e-02
6.157007e-02
1.053466e-01
1.053466e-01
-7.276190e-02
-7.276190e-02
-6.064861e-02
-6.064861e-02
6.052156e-02
6.052156e-02
6.222972e-02
6.222972e-02
-4.016636e-02
-1.013249e-02
-4.016636e-02
-1.013249e-02
-1.423390e-01
-1.423390e-01
-1.030664e-01
-1.030664e-01
-2.939047e-02
-2.939047e-02
-9.631101e-02
-9.631101e-02
-1.288740e-01
-1.288740e-01
-5.130885e-02
-5.130885e-02
-2.291820e-02
-2.291820e-02
1.615027e-01
7.897532e-02
1.615027e-01
7.897532e-02
7.405954e-02
7.405954e-02
-7.650365e-02
-7.650365e-02
-1.060772e-01
-1.060772e-01
-3.033548e-02
-3.033548e-02
-8.797255e-03
-8.797255e-03
-2.394993e-02
-2.394993e-02
-3.974581e-02
-3.974581e-02
2.727124e-01
1.366488e-01
2.727124e-01
1.366488e-01
2.044071e-01
2.044071e-01
4.109409e-02
4.109409e-02
-2.761009e-02
-2.761009e-02
1.423345e-02
1.423345e-02
5.372734e-02
5.372734e-02
3.403748e-02
3.403748e-02
-2.539695e-03
-2.539695e-03
1.229711e-01
1.082140e-01
1.229711e-01
1.082140e-01
6.005911e-03
6.005911e-03
-1.391883e-02
-1.391883e-02
-6.653016e-03
-6.653016e-03
-7.609831e-03
-7.609831e-03
1.601361e-01
1.601361e-01
1.589465e-01
1.589465e-01
4.404987e-02
4.404987e-02
7.106528e-02
2.223110e-02
3.354418e-02
1.210529e-01
7.106528e-02
2.223110e-02
3.354418e-02
1.210529e-01
2.616007e-02
8.117688e-02
2.616007e-02
8.117688e-02
1.382226e-02
5.118437e-02
1.382226e-02
5.118437e-02
5.052590e-02
3.042110e-02
5.052590e-02
3.042110e-02
1.526426e-01
1.123260e-01
1.526426e-01
1.123260e-01
1.617124e-01
1.807215e-01
1.617124e-01
1.807215e-01
3.151720e-01
4.102218e-01
3.151720e-01
4.102218e-01
-1.922582e-02
-2.304576e-02
-1.922582e-02
-2.304576e-02
-3.565842e-02
-3.565842e-02
-2.366617e-02
-2.366617e-02
5.826690e-02
5.826690e-02
1.711335e-01
1.711335e-01
1.348968e-01
1.348968e-01
3.432435e-01
3.432435e-01
4.096258e-01
4.096258e-01
-1.049233e-02
-1.049233e-02
1.031289e-02
1.031289e-02
1.386615e-02
1.386615e-02
-1.163466e-02
-1.163466e-02
8.567938e-03
8.567938e-03
-4.321046e-03
-4.321046e-03
-1.973609e-02
-1.973609e-02
-8.632992e-03
-8.632992e-03
-3.070396e-02
-3.070396e-02
-8.301686e-03
-8.301686e-03
5.324661e-03
5.324661e-03
-1.310813e-01
-1.310813e-01
2.747142e-03
2.747142e-03
-1.030457e-02
-1.030457e-02
-1.283253e-01
-1.283253e-01
3.227830e-03
3.227830e-03
-4.150313e-02
-4.150313e-02
-4.644527e-02
-4.644527e-02
1.138963e-01
1.421209e-01
1.138963e-01
1.421209e-01
1.208570e-01
1.031828e-01
1.208570e-01
1.031828e-01
9.536025e-02
2.471992e-02
9.536025e-02
2.471992e-02
7.165526e-02
-9.657372e-02
7.165526e-02
-9.657372e-02
7.035390e-02
-8.601578e-02
7.035390e-02
-8.601578e-02
5.677451e-02
5.677451e-02
-2.485386e-02
-2.485386e-02
-6.360382e-02
-6.360382e-02
-1.110017e-01
-1.110017e-01
-1.652298e-01
-1.652298e-01
-1.702277e-02
-1.702277e-02
-3.798322e-02
-3.798322e-02
1.119181e-02
1.119181e-02
2.306172e-02
2.306172e-02
-4.917140e-02
-4.917140e-02
-3.327196e-03
-3.327196e-03
5.780894e-02
5.780894e-02
1.180141e-01
1.180141e-01
5.711291e-02
5.711291e-02
-2.069508e-02
-2.069508e-02
-7.617203e-02
-7.617203e-02
-6.791797e-02
-6.791797e-02
6.669673e-02
6.669673e-02
4.170990e-02
4.170990e-02
-3.797935e-02
-3.797935e-02
-3.153562e-01
-3.153562e-01
-1.947587e-01
-1.947587e-01
3.901352e-02
3.901352e-02
1.345388e-01
1.345388e-01
2.219258e-01
2.219258e-01
-2.481628e-01
-2.481628e-01
-1.475669e-01
-1.475669e-01
2.638111e-02
2.638111e-02
1.924709e-01
1.924709e-01
2.787329e-01
2.787329e-01
-4.137794e-02
-4.137794e-02
-1.138052e-01
-1.138052e-01
-3.222676e-02
-3.222676e-02
1.701894e-01
1.701894e-01
1.544680e-01
1.544680e-01
-1.251794e-04
-1.251794e-04
1.596034e-02
1.596034e-02
4.674689e-04
4.674689e-04
3.958602e-03
3.958602e-03
3.224093e-02
3.224093e-02
1.432599e-01
1.432599e-01
1.353400e-02
1.353400e-02
1.227277e-02
1.227277e-02
6.982493e-03
6.982493e-03
-5.287370e-06
-5.287370e-06
1.720518e-02
1.720518e-02
1.638561e-01
1.638561e-01
-4.640727e-02
-4.640727e-02
-7.232213e-02
-7.232213e-02
-9.943979e-02
-9.943979e-02
-7.643860e-02
-7.643860e-02
-1.958931e-02
-1.958931e-02
1.721709e-01
1.721709e-01
-1.049847e-01
-1.049847e-01
-1.354801e-01
-1.354801e-01
-2.067169e-01
-2.067169e-01
-2.360028e-01
-2.360028e-01
-1.071238e-01
-1.071238e-01
2.476320e-01
2.476320e-01
-1.967537e-01
-1.967537e-01
-2.115800e-01
-2.115800e-01
-2.719799e-01
-2.719799e-01
-3.263689e-01
-3.263689e-01
-1.815715e-01
-1.815715e-01
1.861755e-01
1.861755e-01
-2.974925e-01
-2.974925e-01
-2.089880e-01
-2.089880e-01
-2.103751e-01
-2.103751e-01
-2.133540e-01
-2.133540e-01
-7.570374e-02
-7.570374e-02
1.129841e-01
1.129841e-01
1.602737e-01
1.602737e-01
9.356915e-02
9.356915e-02
6.156800e-02
6.156800e-02
4.377643e-02
4.377643e-02
6.667762e-02
6.667762e-02
5.644989e-02
5.644989e-02
8.997405e-01
8.997405e-01
5.928266e-01
5.928266e-01
5.050017e-01
5.050017e-01
1.442387e-01
1.442387e-01
-3.273290e-02
-3.273290e-02
-1.205816e-01
-1.205816e-01
1.194845e+00
1.194845e+00
8.595373e-01
8.595373e-01
7.541477e-01
7.541477e-01
6.271806e-02
6.271806e-02
-3.031826e-01
-3.031826e-01
4.750537e-01
4.750537e-01
1.196909e+00
1.196909e+00
7.003429e-01
7.003429e-01
6.791203e-01
6.791203e-01
4.515814e-01
4.515814e-01
-1.691686e-01
-1.691686e-01
-1.021213e+00
-1.021213e+00
7.962352e-01
7.962352e-01
3.059539e-01
3.059539e-01
-1.947494e-01
-1.947494e-01
-1.525530e+00
-1.525530e+00
-3.208915e+00
-3.208915e+00
-3.530816e+00
-3.530816e+00
1.480687e-01
1.480687e-01
-1.624027e+00
-1.624027e+00
-2.437794e+00
-2.437794e+00
-2.765847e+00
-2.765847e+00
-2.355341e+00
-2.355341e+00
2.044719e+00
2.044719e+00
-8.772373e-01
-8.772373e-01
-5.588931e+00
-5.588931e+00
-1.302846e+01
-1.302846e+01
-8.653232e+00
-8.653232e+00
5.068652e+00
5.068652e+00
3.919418e+00
3.919418e+00
-1.237723e+00
-1.237723e+00
-4.793049e+00
-4.793049e+00
-9.151053e+00
-9.151053e+00
1.774361e+01
1.774361e+01
5.449714e+01
5.449714e+01
3.966758e+01
3.966758e+01
1.108693e+00
1.108693e+00
-6.648680e+00
-6.648680e+00
-6.462704e+00
-6.462704e+00
5.549598e+01
5.549598e+01
1.177629e+02
1.177629e+02
9.605862e+01
9.605862e+01
9.793082e-01
9.793082e-01
-1.869238e+01
-1.869238e+01
-3.128790e+01
-3.128790e+01
1.083713e+01
1.083713e+01
6.361020e+01
6.361020e+01
6.952686e+01
6.952686e+01
7.025794e-01
7.025794e-01
-1.599106e+00
-1.599106e+00
-1.344618e+01
-1.344618e+01
-4.143258e+01
-4.143258e+01
-6.264858e+01
-6.264858e+01
-5.341387e+01
-5.341387e+01
2.450945e+00
2.450945e+00
1.515742e+01
1.515742e+01
1.048892e+01
1.048892e+01
-4.288593e+01
-4.288593e+01
-1.076643e+02
-1.076643e+02
-1.153910e+02
-1.153910e+02
1.105400e+00
1.105400e+00
4.173774e+00
4.173774e+00
5.371802e+00
5.371802e+00
-1.063162e+01
-1.063162e+01
-3.171792e+01
-3.171792e+01
-3.164016e+01
-3.164016e+01
5.137293e-01
5.137293e-01
1.184417e+00
1.184417e+00
3.612169e+00
3.612169e+00
6.988141e+00
6.988141e+00
1.267914e+01
1.267914e+01
1.256563e+01
1.256563e+01
7.273605e-01
7.273605e-01
8.996782e-01
8.996782e-01
-5.525222e-01
-5.525222e-01
-4.416277e+00
-4.416277e+00
-8.344367e+00
-8.344367e+00
-9.200980e+00
-9.200980e+00
2.527171e-01
2.527171e-01
9.826461e-02
9.826461e-02
3.298636e-01
3.298636e-01
-3.013512e+00
-3.013512e+00
-7.242870e+00
-7.242870e+00
7.166222e-02
7.166222e-02
6.157838e-02
6.157838e-02
1.366015e-01
1.366015e-01
2.821762e-01
2.821762e-01
3.772747e-01
3.772747e-01
1.134123e-01
1.134123e-01
-1.626575e-01
-1.626575e-01
-2.841967e-01
-2.841967e-01
-5.693050e-01
-5.693050e-01
2.526953e-01
2.526953e-01
-4.891941e-02
-4.891941e-02
-7.378097e-01
-7.378097e-01
1.229884e+00
1.229884e+00
1.823867e+00
1.823867e+00
1.943456e+00
1.943456e+00
2.329619e+00
2.329619e+00
9.953861e-01
9.953861e-01
-1.168617e+00
-1.168617e+00
-3.568339e+00
-3.568339e+00
-2.840103e+00
-2.840103e+00
-2.515727e-01
-2.515727e-01
5.806295e-01
5.806295e-01
1.037335e-01
1.037335e-01
1.597584e-01
1.597584e-01
2.407246e-01
2.407246e-01
3.732775e-01
3.732775e-01
3.618372e-01
3.618372e-01
6.157475e-02
6.157475e-02
-3.063798e-01
-3.063798e-01
-2.035917e-01
-2.035917e-01
-8.607027e-01
-8.607027e-01
-4.237790e-01
-4.237790e-01
1.607582e+00
1.607582e+00
-1.568074e-01
-1.568074e-01
4.363316e-01
4.363316e-01
4.421524e+00
4.421524e+00
6.014399e+00
6.014399e+00
5.724216e+00
5.724216e+00
-7.520737e-01
-7.520737e-01
-7.296266e+00
-7.296266e+00
-7.700853e+00
-7.700853e+00
-2.891114e+00
-2.891114e+00
-1.085014e+00
-1.085014e+00
-3.523287e+00
-3.523287e+00
1.234002e-01
1.234002e-01
1.852353e-01
1.852353e-01
2.944885e-01
2.944885e-01
3.994284e-01
3.994284e-01
4.247835e-01
4.247835e-01
1.813398e-01
1.813398e-01
-3.507344e-01
-3.507344e-01
-3.356058e-01
-3.356058e-01
-7.358404e-02
-7.358404e-02
-1.351969e+00
-1.351969e+00
1.695754e+00
1.695754e+00
3.161630e+00
3.161630e+00
-2.200779e+00
-2.200779e+00
-1.647639e+00
-1.647639e+00
-1.231232e+00
-1.231232e+00
-1.229626e+01
-1.229626e+01
-6.128403e+00
-6.128403e+00
9.619838e+00
9.619838e+00
8.422227e+00
8.422227e+00
1.399922e+00
1.399922e+00
-4.042709e+00
-4.042709e+00
-4.852769e+00
-4.852769e+00
1.472404e-01
1.472404e-01
2.416191e-01
2.416191e-01
3.545068e-01
3.545068e-01
4.648863e-01
4.648863e-01
4.557264e-01
4.557264e-01
3.074855e-01
3.074855e-01
-3.358591e-01
-3.358591e-01
-5.099549e-01
-5.099549e-01
6.799283e-01
6.799283e-01
-1.159849e+00
-1.159849e+00
-3.900673e-01
-3.900673e-01
6.010502e+00
6.010502e+00
-4.996526e+00
-4.996526e+00
-2.300017e+01
-2.300017e+01
-7.859650e+00
-7.859650e+00
-6.604312e+00
-6.604312e+00
-8.134648e+00
-8.134648e+00
2.956178e+01
2.956178e+01
2.978366e+01
2.978366e+01
-2.268620e-01
-2.268620e-01
-5.307909e+00
-5.307909e+00
-1.530909e+00
-1.530909e+00
2.039969e-01
2.039969e-01
3.032979e-01
3.032979e-01
3.848987e-01
3.848987e-01
4.909920e-01
4.909920e-01
3.984433e-01
3.984433e-01
2.539530e-01
2.539530e-01
-9.257835e-02
-9.257835e-02
-3.619289e-01
-3.619289e-01
1.038775e+00
1.038775e+00
-1.085272e+00
-1.085272e+00
-2.258632e+00
-2.258632e+00
5.949275e+00
5.949275e+00
-4.511249e+00
-4.511249e+00
-1.042280e+01
-1.042280e+01
2.947679e+01
2.947679e+01
3.708072e+01
3.708072e+01
-2.556721e+01
-2.556721e+01
-3.561498e+01
-3.561498e+01
3.581565e+00
3.581565e+00
1.906420e+00
1.906420e+00
-5.523988e+00
-5.523988e+00
-2.635621e-01
-2.635621e-01
-7.952155e-01
-7.591066e-01
-7.310935e-01
-7.761384e-01
-6.126169e-01
-4.121463e-01
-2.594706e-01
-3.284741e-01
-3.809550e-01
-3.938633e-01
-3.879719e-01
-3.526497e-01
6.210662e-01
4.133200e-01
1.693831e-01
1.133906e-01
-9.451563e-03
-1.124919e-01
7.294507e-01
6.154587e-01
4.098360e-01
2.977792e-01
2.056565e-01
1.339600e-01
1.999209e-01
3.156485e-01
4.342571e-01
4.200467e-01
3.043522e-01
2.057490e-01
-1.866491e-01
1.426956e-01
5.173910e-01
5.044718e-01
3.434298e-01
2.406576e-01
-1.159562e-01
3.000220e-01
7.133886e-01
5.832067e-01
3.630987e-01
2.705610e-01
1.446652e-01
5.584805e-01
9.073393e-01
7.119199e-01
4.373205e-01
2.931840e-01
3.699746e-01
7.610203e-01
1.037909e+00
7.887554e-01
4.892438e-01
3.247288e-01
4.001075e-01
6.632213e-01
8.312253e-01
6.206185e-01
3.767260e-01
2.483304e-01
3.014121e-01
4.818490e-01
5.908911e-01
4.471917e-01
2.684522e-01
1.620173e-01
6.452037e-01
7.951521e-01
6.703619e-01
1.938718e-01
1.554792e-02
3.897556e-02
1.443118e+00
1.334216e+00
9.274546e-01
4.241507e-01
1.298535e-01
4.100105e-02
2.079543e+00
1.843283e+00
1.256274e+00
6.871793e-01
3.011129e-01
1.333936e-01
1.174674e+00
1.186761e+00
9.572836e-01
5.871803e-01
3.366566e-01
2.146708e-01
-7.616703e-02
-1.795574e-02
1.440794e-01
2.850070e-01
2.471250e-01
1.721393e-01
-1.228917e+00
-9.811538e-01
-3.983524e-01
8.347818e-02
1.773060e-01
1.243409e-01
-1.684467e+00
-1.134729e+00
-2.751552e-01
1.110626e-01
1.459502e-01
1.044563e-01
-8.799731e-01
-4.341964e-01
1.813326e-01
2.788132e-01
1.712923e-01
1.360432e-01
-3.612941e-02
2.659264e-01
5.686242e-01
4.784614e-01
3.001023e-01
2.125478e-01
2.288485e-01
4.622034e-01
6.146077e-01
4.680248e-01
3.010207e-01
1.996490e-01
2.647354e-01
4.274600e-01
5.066449e-01
3.660018e-01
2.281293e-01
1.473604e-01
2.772284e+00
3.267324e+00
3.081267e+00
1.813987e+00
1.048377e+00
8.689509e-01
3.142683e+00
3.412693e+00
2.841018e+00
1.592065e+00
9.695004e-01
7.542034e-01
2.963413e+00
3.379359e+00
2.550229e+00
1.136786e+00
7.427088e-01
5.169984e-01
1.616349e+00
2.000995e+00
1.621051e+00
7.843053e-01
4.879656e-01
2.637800e-01
-5.260066e-01
-5.632196e-01
-1.986872e-01
2.467296e-01
2.444168e-01
1.984327e-01
-1.967807e+00
-2.292554e+00
-1.389253e+00
-3.942029e-02
9.483658e-02
1.073092e-01
-2.405362e+00
-2.420219e+00
-1.353071e+00
-8.685746e-02
7.442223e-03
-8.246621e-02
-2.191754e+00
-1.743071e+00
-8.151513e-01
-2.133779e-01
-7.255122e-02
-5.426182e-02
-9.667329e-01
-7.033634e-01
-1.940231e-01
5.432861e-02
6.792483e-02
7.914026e-02
-9.590711e-03
1.719479e-01
3.132410e-01
2.660762e-01
2.111918e-01
1.632266e-01
2.768551e-01
4.475835e-01
4.516467e-01
2.633377e-01
2.085237e-01
1.753534e-01
3.812420e+00
5.190805e+00
5.079015e+00
2.509640e+00
1.323872e+00
1.217304e+00
1.877803e+00
3.605014e+00
3.633439e+00
1.556489e+00
1.097844e+00
1.017363e+00
5.592545e-01
2.424224e+00
2.269111e+00
3.749994e-01
4.604628e-01
4.199554e-01
6.746153e-01
1.515157e+00
1.569734e+00
5.444869e-01
1.568222e-01
8.438632e-03
-9.773176e-03
-1.282527e-01
1.215223e-01
6.243565e-01
5.960230e-01
4.331095e-01
-2.625697e-01
-1.315028e+00
-7.953567e-01
9.405858e-01
9.097313e-01
7.150634e-01
7.668828e-02
-1.639734e+00
-1.106953e+00
1.065229e+00
6.334861e-01
2.787625e-01
-1.710807e+00
-2.115453e+00
-1.336109e+00
1.412632e-01
2.373971e-01
4.014926e-02
-2.352492e+00
-1.876283e+00
-8.368693e-01
-4.764792e-02
1.869093e-01
1.954486e-01
-1.564920e-01
9.626471e-03
1.885044e-01
2.528259e-01
2.889305e-01
2.734730e-01
4.853243e-01
6.479189e-01
5.477877e-01
3.277875e-01
3.038162e-01
2.371193e-01
6.426381e+00
7.907344e+00
7.385362e+00
3.668974e+00
1.257241e+00
5.589505e-01
-6.658070e-01
2.285718e+00
3.811333e+00
2.016568e+00
1.299308e+00
9.509026e-01
-7.455772e+00
-2.251347e+00
1.508781e+00
1.690193e-01
5.401768e-01
8.067995e-01
-4.857139e+00
-1.062865e+00
2.116126e+00
6.149618e-01
-2.361326e-02
2.236938e-01
3.651260e+00
1.826023e+00
3.318825e-01
1.065976e+00
9.964460e-01
5.239184e-01
8.097056e+00
3.343441e+00
-3.624581e-01
1.542724e+00
1.652875e+00
9.055598e-01
4.576808e+00
1.167569e+00
-3.673248e-01
1.352125e+00
8.500108e-01
5.027931e-01
-2.104117e+00
-2.972041e+00
-2.261212e+00
-2.751096e-01
1.042507e-01
7.626247e-02
-4.242008e+00
-3.845365e+00
-2.338759e+00
-5.094011e-01
2.679481e-01
3.259020e-01
-2.892008e-01
-2.545251e-01
-1.134364e-01
2.563492e-01
4.851709e-01
4.506199e-01
8.746271e-01
9.783502e-01
7.261822e-01
4.865732e-01
4.695780e-01
3.363006e-01
8.686866e+00
9.618315e+00
8.703412e+00
4.782759e+00
1.319778e+00
-6.890157e-02
-1.947558e+00
1.189888e+00
3.801959e+00
2.862124e+00
1.694248e+00
9.408340e-01
-1.364125e+01
-5.865668e+00
1.236634e+00
6.006437e-01
1.033168e+00
1.428406e+00
-9.450706e+00
-2.912118e+00
2.830155e+00
8.329788e-01
1.474037e-01
6.626886e-01
6.622307e+00
3.133672e+00
1.694444e-01
1.226731e+00
1.099782e+00
4.399537e-01
1.505482e+01
6.836833e+00
-5.986130e-01
1.462951e+00
1.664779e+00
5.875871e-01
7.442494e+00
3.343648e+00
3.681465e-02
7.611577e-01
5.191322e-01
3.447771e-01
-3.265517e+00
-3.772445e+00
-2.935835e+00
-1.105208e+00
-3.166594e-01
-1.519960e-02
-5.270263e+00
-5.115723e+00
-3.491165e+00
-9.830165e-01
1.869667e-01
3.188205e-01
-3.421887e-01
-4.455928e-01
-3.753898e-01
2.237679e-01
5.895489e-01
5.297795e-01
1.104257e+00
1.182959e+00
8.376837e-01
5.594350e-01
5.607646e-01
4.163660e-01
SCALARS S13 float 1
LOOKUP_TABLE default
-6.331513e-01
4.537081e-01
-3.726463e+00
-1.803444e-01
-6.331513e-01
4.537081e-01
-3.726463e+00
-1.803444e-01
-7.702975e-01
2.151579e-01
8.066123e-01
-5.648571e-01
-7.702975e-01
2.151579e-01
8.066123e-01
-5.648571e-01
-3.878605e-01
-2.700839e-01
4.677676e-01
-3.878605e-01
-2.700839e-01
4.677676e-01
2.982402e+00
2.230088e+00
-2.453948e-01
2.888803e-01
2.982402e+00
2.230088e+00
-2.453948e-01
2.888803e-01
-1.090914e-01
1.973932e+00
-1.090914e-01
1.973932e+00
3.656537e+00
1.665792e+00
3.656537e+00
1.665792e+00
-3.035387e-01
-1.373724e-01
7.602370e-01
-6.559540e-02
-3.035387e-01
-1.373724e-01
7.602370e-01
-6.559540e-02
7.052452e-01
1.032593e+00
-1.034821e-01
-2.392600e-01
7.052452e-01
1.032593e+00
-1.034821e-01
-2.392600e-01
7.700578e-01
-1.932363e+00
-4.543660e-01
-4.408899e-01
7.700578e-01
-1.932363e+00
-4.543660e-01
-4.408899e-01
1.823557e-01
1.043944e+00
1.823557e-01
1.043944e+00
-1.144096e+00
-1.144096e+00
-2.141943e-01
-1.427869e+00
-2.141943e-01
-1.427869e+00
2.299088e+00
1.197938e+00
2.299088e+00
1.197938e+00
2.135928e+00
2.135928e+00
3.118328e+00
3.118328e+00
-3.878739e-01
-3.878739e-01
-4.551935e-01
-1.602864e-01
2.501211e-01
-4.551935e-01
-1.602864e-01
2.501211e-01
-4.302652e-03
-2.224951e-01
-3.812098e-01
1.269345e-01
-4.302652e-03
-2.224951e-01
-3.812098e-01
1.269345e-01
9.914132e-01
9.914132e-01
2.701891e+00
2.216076e+00
2.701891e+00
2.216076e+00
2.714314e+00
2.714314e+00
-8.920498e-01
-8.920498e-01
4.234795e-01
4.234795e-01
-6.271533e-01
-6.271533e-01
1.845317e+00
1.845317e+00
-6.163379e-01
-6.163379e-01
-6.591585e-01
-6.591585e-01
3.897440e+00
3.897440e+00
-4.341304e-02
4.925796e-01
-4.341304e-02
4.925796e-01
1.424295e-01
1.424295e-01
3.893985e-01
3.893985e-01
1.374097e-01
1.374097e-01
-1.188142e-02
-1.188142e-02
-2.311711e-02
-8.814246e-02
-2.311711e-02
-8.814246e-02
-7.548507e-02
-7.548507e-02
2.843408e-02
2.843408e-02
1.895646e-02
1.895646e-02
-5.219168e-03
-5.219168e-03
1.973095e-01
3.343961e-01
1.973095e-01
3.343961e-01
-3.665608e-02
-3.665608e-02
-1.343131e-01
-1.343131e-01
-4.010142e-02
-4.010142e-02
1.013562e-01
1.013562e-01
8.790251e-02
1.807827e-01
8.790251e-02
1.807827e-01
-8.071862e-05
-8.071862e-05
-6.344305e-02
-6.344305e-02
-3.732036e-02
-3.732036e-02
6.615451e-02
6.615451e-02
4.307627e-02
8.012599e-02
4.307627e-02
8.012599e-02
7.156699e-02
7.156699e-02
1.398360e-01
1.398360e-01
1.690472e-02
1.690472e-02
-7.802029e-02
-7.802029e-02
3.464437e-01
1.340623e-01
3.464437e-01
1.340623e-01
2.768158e-01
2.768158e-01
1.525683e-01
1.525683e-01
-1.405470e-02
-1.405470e-02
-1.522016e-01
-1.522016e-01
4.858002e-01
2.993574e-01
4.858002e-01
2.993574e-01
2.505385e-01
2.505385e-01
-1.202746e-01
-1.202746e-01
-2.356534e-01
-2.356534e-01
-2.002617e-01
-2.002617e-01
1.299918e-01
3.068892e-01
1.299918e-01
3.068892e-01
-1.170823e-01
-1.170823e-01
-3.302174e-01
-3.302174e-01
-3.069079e-01
-3.069079e-01
-1.853536e-01
-1.853536e-01
-8.736557e-02
2.305540e-01
-8.736557e-02
2.305540e-01
-2.746220e-01
-2.746220e-01
-2.048570e-01
-2.048570e-01
-9.932513e-02
-9.932513e-02
-8.542059e-02
-8.542059e-02
5.657780e-02
1.663289e-01
5.657780e-02
1.663289e-01
-6.275805e-02
-6.275805e-02
6.023630e-02
6.023630e-02
9.439981e-02
9.439981e-02
5.553498e-03
5.553498e-03
1.060485e-01
9.587578e-03
1.060485e-01
9.587578e-03
1.922923e-01
1.922923e-01
2.431449e-01
2.431449e-01
1.745127e-01
1.745127e-01
1.111282e-01
1.111282e-01
3.287613e-02
-6.424989e-02
3.287613e-02
-6.424989e-02
2.756086e-01
2.756086e-01
3.238607e-01
3.238607e-01
2.077172e-01
2.077172e-01
1.683780e-01
1.683780e-01
1.286825e-01
1.174250e-01
1.286825e-01
1.174250e-01
1.900708e-01
1.900708e-01
1.959870e-01
1.959870e-01
1.082589e-01
1.082589e-01
7.804188e-02
7.804188e-02
2.386124e-01
2.726741e-01
2.386124e-01
2.726741e-01
1.002013e-01
1.002013e-01
5.635744e-02
5.635744e-02
1.434663e-02
1.434663e-02
1.283034e-03
1.283034e-03
1.336010e-01
2.743907e-01
4.937405e-01
1.800473e-01
1.336010e-01
2.743907e-01
4.937405e-01
1.800473e-01
3.169390e-01
4.998022e-01
3.169390e-01
4.998022e-01
4.104123e-01
1.497842e-01
4.104123e-01
1.497842e-01
3.340513e-01
3.340513e-01
3.455692e-02
5.689824e-03
3.455692e-02
5.689824e-03
-8.550617e-04
-8.550617e-04
-1.808362e-01
-9.275358e-02
-1.808362e-01
-9.275358e-02
-1.152641e-01
-1.152641e-01
-1.662701e-01
-8.351135e-02
-1.662701e-01
-8.351135e-02
-3.982091e-02
-3.982091e-02
-1.134338e-01
-4.616294e-02
-1.134338e-01
-4.616294e-02
1.859592e-02
1.859592e-02
-7.502783e-02
6.766046e-01
-7.502783e-02
6.766046e-01
4.652243e-01
4.652243e-01
2.924425e-01
2.924425e-01
5.799180e-02
5.799180e-02
-5.247737e-02
-5.247737e-02
5.994513e-02
5.994513e-02
1.699645e-01
3.715570e-01
1.699645e-01
3.715570e-01
4.070300e-01
4.070300e-01
3.105778e-01
3.105778e-01
1.822779e-01
1.822779e-01
1.553186e-01
1.553186e-01
1.874332e-01
1.874332e-01
2.141044e-01
2.141044e-01
2.759492e-01
2.759492e-01
3.209618e-01
3.209618e-01
3.595871e-01
3.595871e-01
3.315077e-01
3.315077e-01
3.443322e-01
3.443322e-01
6.391980e-01
6.391980e-01
1.480306e+00
1.480306e+00
-1.426921e-01
-6.637213e-02
-1.425600e-01
-2.006088e-01
-1.426921e-01
-6.637213e-02
-1.425600e-01
-2.006088e-01
6.248601e-02
1.903453e-01
-2.328647e-01
-2.039666e-01
6.248601e-02
1.903453e-01
-2.328647e-01
-2.039666e-01
2.570127e-01
4.614587e-02
1.882340e-01
2.591834e-01
2.570127e-01
4.614587e-02
1.882340e-01
2.591834e-01
2.462399e-01
6.674928e-02
1.241650e-01
2.462399e-01
6.674928e-02
1.241650e-01
-6.803309e-01
-4.529908e-01
-6.803309e-01
-4.529908e-01
-6.882673e-01
-4.370024e-01
3.502306e-01
-4.008476e-02
-6.882673e-01
-4.370024e-01
3.502306e-01
-4.008476e-02
6.880234e-01
-7.380139e-01
6.880234e-01
-7.380139e-01
3.180734e-01
3.718382e-01
3.180734e-01
3.718382e-01
-2.297207e-01
-2.775176e-01
-7.635291e-02
-2.297207e-01
-2.775176e-01
-7.635291e-02
-2.043103e-01
-2.043103e-01
-2.186980e-01
-2.268277e-01
-2.186980e-01
-2.268277e-01
9.752648e-01
1.698681e+00
9.752648e-01
1.698681e+00
-1.334568e+00
-1.334568e+00
-4.477843e-01
-4.477843e-01
2.279472e-01
-1.175937e-01
-1.168247e+00
2.279472e-01
-1.175937e-01
-1.168247e+00
8.658096e-01
2.690761e-01
1.457779e-01
2.259662e-02
8.658096e-01
2.690761e-01
1.457779e-01
2.259662e-02
-6.559566e-02
1.173129e-01
-6.559566e-02
1.173129e-01
-1.141005e-01
-1.141005e-01
3.244032e-01
-5.507723e-01
1.626182e-01
9.263719e-01
3.244032e-01
-5.507723e-01
1.626182e-01
9.263719e-01
2.040544e-01
2.040544e-01
-4.254060e-01
-4.254060e-01
-2.924015e-01
-2.924015e-01
7.007410e-02
7.007410e-02
-6.527594e-03
-6.527594e-03
-4.262820e-02
-4.262820e-02
9.396776e-02
2.169399e-01
9.396776e-02
2.169399e-01
-1.139426e-01
1.768481e-01
-1.139426e-01
1.768481e-01
-3.554555e-01
-4.211356e-02
-3.554555e-01
-4.211356e-02
-1.584643e-01
-1.578558e-01
-1.584643e-01
-1.578558e-01
5.939465e-02
-2.188293e-01
5.939465e-02
-2.188293e-01
6.030878e-02
-1.732581e-01
6.030878e-02
-1.732581e-01
5.946930e-02
-1.070178e-01
5.946930e-02
-1.070178e-01
1.439402e-01
-3.486400e-02
1.439402e-01
-3.486400e-02
1.180721e-01
2.341024e-02
1.180721e-01
2.341024e-02
1.997693e-01
8.536438e-02
1.997693e-01
8.536438e-02
3.444827e-01
2.005184e-01
3.444827e-01
2.005184e-01
1.530999e-01
1.545207e-01
1.530999e-01
1.545207e-01
-3.882607e-02
-8.392447e-03
-3.882607e-02
-8.392447e-03
-3.608982e-02
-6.931963e-02
-3.608982e-02
-6.931963e-02
4.151915e-02
4.151915e-02
6.801527e-02
6.801527e-02
2.493577e-03
2.493577e-03
-1.510112e-01
-1.510112e-01
-2.633730e-01
-2.633730e-01
-2.121968e-01
-2.121968e-01
-1.566683e-01
-1.566683e-01
-1.249563e-01
-1.249563e-01
-1.325115e-01
-1.325115e-01
-1.935588e-01
-1.935588e-01
-8.840834e-02
-8.840834e-02
5.215744e-02
5.215744e-02
2.605499e-02
2.605499e-02
-2.163037e-02
-2.163037e-02
-9.451849e-02
-9.451849e-02
-8.595826e-02
-8.595826e-02
-1.645518e-01
-1.645518e-01
-1.574375e-01
-1.574375e-01
-5.367130e-02
-5.367130e-02
-1.246982e-02
-1.246982e-02
-5.999946e-03
-5.999946e-03
-5.332112e-04
-5.332112e-04
-1.543985e-01
-1.543985e-01
-2.986738e-01
-2.986738e-01
-2.271304e-01
-2.271304e-01
-2.588745e-02
-2.588745e-02
5.789691e-02
5.789691e-02
1.915402e-02
1.915402e-02
-1.408666e-01
-1.408666e-01
-1.147197e-01
-1.147197e-01
-2.107625e-01
-2.107625e-01
-1.593705e-01
-1.593705e-01
1.889751e-02
1.889751e-02
1.575840e-01
1.575840e-01
1.693048e-01
1.693048e-01
5.608467e-02
5.608467e-02
-1.341753e-01
-1.341753e-01
-2.806030e-01
-2.806030e-01
-2.555522e-01
-2.555522e-01
-5.615826e-02
-5.615826e-02
-2.685364e-02
-2.685364e-02
-1.319486e-01
-1.319486e-01
-9.935788e-02
-9.935788e-02
-7.665042e-02
-7.665042e-02
-1.875272e-01
-1.875272e-01
-1.892597e-01
-1.892597e-01
-6.955899e-02
-6.955899e-02
1.568880e-01
1.568880e-01
2.219510e-01
2.219510e-01
4.910448e-02
4.910448e-02
-1.699012e-01
-1.699012e-01
-3.432258e-01
-3.432258e-01
-2.860468e-01
-2.860468e-01
-8.155093e-02
-8.155093e-02
-1.157720e-01
-1.157720e-01
-2.324691e-01
-2.324691e-01
8.215500e-02
1.779354e-01
8.215500e-02
1.779354e-01
1.060807e-02
1.060807e-02
-1.326331e-02
-1.326331e-02
-1.171875e-02
-1.171875e-02
-5.975846e-04
-5.975846e-04
-6.856097e-03
-6.856097e-03
-1.189706e-02
-1.189706e-02
-3.575568e-03
-3.575568e-03
7.315352e-02
1.193393e-01
7.315352e-02
1.193393e-01
1.692999e-02
1.692999e-02
-1.032034e-02
-1.032034e-02
-8.138693e-03
-8.138693e-03
3.926989e-03
3.926989e-03
1.867871e-03
1.867871e-03
-9.729254e-04
-9.729254e-04
3.138945e-03
3.138945e-03
3.720830e-02
5.230881e-02
3.720830e-02
5.230881e-02
1.289587e-02
1.289587e-02
4.837324e-03
4.837324e-03
4.806353e-03
4.806353e-03
9.720724e-03
9.720724e-03
5.862220e-03
5.862220e-03
6.875949e-04
6.875949e-04
1.802595e-03
1.802595e-03
-1.791578e-02
-2.123438e-02
-1.791578e-02
-2.123438e-02
5.462647e-03
5.462647e-03
1.009586e-02
1.009586e-02
9.207948e-03
9.207948e-03
8.194921e-03
8.194921e-03
-4.718571e-04
-4.718571e-04
-5.409045e-03
-5.409045e-03
1.465819e-03
1.465819e-03
-6.410774e-02
-1.107906e-01
-6.410774e-02
-1.107906e-01
-5.014093e-04
-5.014093e-04
3.408856e-03
3.408856e-03
3.981437e-03
3.981437e-03
1.949588e-03
1.949588e-03
-4.529651e-03
-4.529651e-03
-8.224566e-03
-8.224566e-03
-5.696550e-03
-5.696550e-03
-6.355565e-02
-1.211399e-01
-6.355565e-02
-1.211399e-01
-1.263757e-02
-1.263757e-02
-1.044786e-03
-1.044786e-03
1.666241e-03
1.666241e-03
1.641219e-03
1.641219e-03
1.387772e-02
1.387772e-02
1.229048e-02
1.229048e-02
1.820836e-03
1.820836e-03
6.214316e-02
1.342893e-01
2.059428e-01
1.020769e-01
6.214316e-02
1.342893e-01
2.059428e-01
1.020769e-01
1.624959e-01
4.403895e-02
1.624959e-01
4.403895e-02
1.307387e-01
-3.971164e-02
1.307387e-01
-3.971164e-02
9.923423e-02
5.174478e-02
9.923423e-02
5.174478e-02
-3.420248e-01
-3.128505e-02
-3.420248e-01
-3.128505e-02
-4.516430e-01
3.054716e-02
-4.516430e-01
3.054716e-02
-3.364584e-01
-1.380490e-02
-3.364584e-01
-1.380490e-02
1.628237e-01
1.883385e-01
1.628237e-01
1.883385e-01
2.409876e-01
2.409876e-01
2.928821e-01
2.928821e-01
1.376059e-02
1.376059e-02
-5.425458e-01
-5.425458e-01
-6.480055e-01
-6.480055e-01
-4.416004e-01
-4.416004e-01
-1.395183e-01
-1.395183e-01
1.595765e-01
1.595765e-01
1.157693e-01
1.157693e-01
2.367310e-02
2.367310e-02
2.490315e-01
2.490315e-01
1.476444e-01
1.476444e-01
4.495202e-03
4.495202e-03
2.586593e-01
2.586593e-01
6.213940e-02
6.213940e-02
-2.913139e-02
-2.913139e-02
8.480457e-02
8.480457e-02
2.811664e-02
2.811664e-02
-3.266283e-03
-3.266283e-03
-1.127153e-01
-1.127153e-01
-1.348041e-01
-1.348041e-01
-7.326882e-02
-7.326882e-02
-1.922782e-01
-1.922782e-01
-3.115580e-01
-3.115580e-01
-1.653053e-01
-1.653053e-01
2.099451e-02
3.793046e-02
2.099451e-02
3.793046e-02
1.474858e-02
4.458257e-02
1.474858e-02
4.458257e-02
3.012197e-03
2.733111e-02
3.012197e-03
2.733111e-02
-2.325045e-02
-1.778257e-02
-2.325045e-02
-1.778257e-02
-7.120536e-02
-5.394197e-02
-7.120536e-02
-5.394197e-02
1.275439e-02
1.275439e-02
1.480993e-02
1.480993e-02
6.795602e-03
6.795602e-03
-1.616258e-02
-1.616258e-02
-2.903826e-02
-2.903826e-02
1.303627e-03
1.303627e-03
4.711226e-03
4.711226e-03
6.081248e-03
6.081248e-03
-6.421579e-04
-6.421579e-04
-4.842719e-03
-4.842719e-03
-4.348133e-03
-4.348133e-03
5.826938e-03
5.826938e-03
9.463063e-03
9.463063e-03
4.103521e-03
4.103521e-03
8.777875e-04
8.777875e-04
-1.288671e-02
-1.288671e-02
-1.273654e-02
-1.273654e-02
7.315519e-03
7.315519e-03
1.013582e-02
1.013582e-02
1.534525e-03
1.534525e-03
-2.771287e-02
-2.771287e-02
-1.889227e-02
-1.889227e-02
1.087257e-02
1.087257e-02
2.066243e-02
2.066243e-02
2.625643e-02
2.625643e-02
-3.449054e-02
-3.449054e-02
-1.486327e-02
-1.486327e-02
-8.464008e-03
-8.464008e-03
6.137914e-03
6.137914e-03
3.050848e-02
3.050848e-02
-3.136940e-02
-3.136940e-02
-2.051512e-02
-2.051512e-02
-3.409900e-02
-3.409900e-02
-1.094397e-02
-1.094397e-02
1.940370e-02
1.940370e-02
3.361081e-01
3.361081e-01
2.172859e-01
2.172859e-01
8.158142e-02
8.158142e-02
1.935597e-02
1.935597e-02
-7.164608e-02
-7.164608e-02
-1.309728e-01
-1.309728e-01
4.765338e-01
4.765338e-01
3.330441e-01
3.330441e-01
1.612972e-01
1.612972e-01
1.714518e-02
1.714518e-02
-1.207896e-01
-1.207896e-01
-1.706133e-01
-1.706133e-01
5.056177e-01
5.056177e-01
4.135510e-01
4.135510e-01
2.381733e-01
2.381733e-01
4.728189e-02
4.728189e-02
-1.158880e-01
-1.158880e-01
-1.285076e-01
-1.285076e-01
5.088575e-01
5.088575e-01
5.446759e-01
5.446759e-01
4.570906e-01
4.570906e-01
1.639741e-01
1.639741e-01
-1.410095e-01
-1.410095e-01
-2.254183e-01
-2.254183e-01
6.436669e-01
6.436669e-01
8.515426e-01
8.515426e-01
7.303576e-01
7.303576e-01
2.740674e-01
2.740674e-01
-1.357961e-01
-1.357961e-01
-3.770753e-01
-3.770753e-01
1.300409e+00
1.300409e+00
1.518706e+00
1.518706e+00
1.105737e+00
1.105737e+00
4.066544e-01
4.066544e-01
-3.542785e-01
-3.542785e-01
-7.015274e-01
-7.015274e-01
2.727803e+00
2.727803e+00
2.584034e+00
2.584034e+00
1.902688e+00
1.902688e+00
8.712014e-01
8.712014e-01
-2.925836e-01
-2.925836e-01
-9.232921e-01
-9.232921e-01
3.435950e+00
3.435950e+00
3.612349e+00
3.612349e+00
3.220998e+00
3.220998e+00
1.766031e+00
1.766031e+00
1.482979e-02
1.482979e-02
-1.107151e+00
-1.107151e+00
3.525249e+00
3.525249e+00
4.346528e+00
4.346528e+00
4.649013e+00
4.649013e+00
3.458221e+00
3.458221e+00
1.806246e+00
1.806246e+00
4.902707e-01
4.902707e-01
4.256254e+00
4.256254e+00
4.611367e+00
4.611367e+00
5.502619e+00
5.502619e+00
6.266943e+00
6.266943e+00
5.903558e+00
5.903558e+00
3.448479e+00
3.448479e+00
4.459092e+00
4.459092e+00
4.952970e+00
4.952970e+00
5.687572e+00
5.687572e+00
8.398968e+00
8.398968e+00
8.084202e+00
8.084202e+00
1.924393e+00
1.924393e+00
5.397601e+00
5.397601e+00
5.729674e+00
5.729674e+00
1.944965e+00
1.944965e+00
-1.712148e+00
-1.712148e+00
-4.135098e+00
-4.135098e+00
-5.467458e+00
-5.467458e+00
7.334712e+00
7.334712e+00
4.211206e+00
4.211206e+00
-1.146925e+01
-1.146925e+01
-2.547628e+01
-2.547628e+01
-1.476074e+01
-1.476074e+01
8.434657e+00
8.434657e+00
8.333299e+00
8.333299e+00
5.486511e+00
5.486511e+00
-2.634183e+01
-2.634183e+01
-4.946938e+01
-4.946938e+01
-1.399276e+01
-1.399276e+01
4.126855e+01
4.126855e+01
1.137507e+01
1.137507e+01
1.665023e+01
1.665023e+01
-5.261200e+00
-5.261200e+00
-4.445077e+01
-4.445077e+01
-1.095546e+01
-1.095546e+01
6.275384e+01
6.275384e+01
9.831013e+00
9.831013e+00
1.727117e+01
1.727117e+01
1.448753e+01
1.448753e+01
-2.901638e+01
-2.901638e+01
-3.144108e+01
-3.144108e+01
5.360310e+01
5.360310e+01
4.300392e+00
4.300392e+00
1.430652e+01
1.430652e+01
1.342481e+01
1.342481e+01
-1.795597e+01
-1.795597e+01
-4.957375e+01
-4.957375e+01
3.041771e+01
3.041771e+01
8.194934e+00
8.194934e+00
1.711086e+01
1.711086e+01
-1.474207e-01
-1.474207e-01
-3.549004e+01
-3.549004e+01
-4.582107e+01
-4.582107e+01
2.816603e+01
2.816603e+01
1.379581e+01
1.379581e+01
1.018407e+01
1.018407e+01
-2.307743e+01
-2.307743e+01
-5.556857e+01
-5.556857e+01
-3.876503e+01
-3.876503e+01
2.111709e+01
2.111709e+01
9.347601e+00
9.347601e+00
2.779969e+00
2.779969e+00
-1.924530e+01
-1.924530e+01
-3.164760e+01
-3.164760e+01
-1.906926e+01
-1.906926e+01
5.738505e+00
5.738505e+00
3.608787e+00
3.608787e+00
7.618156e-01
7.618156e-01
-6.462660e+00
-6.462660e+00
-1.003258e+01
-1.003258e+01
-7.288168e+00
-7.288168e+00
1.815472e+00
1.815472e+00
2.836142e+00
2.836142e+00
8.313042e-01
8.313042e-01
-1.452711e+00
-1.452711e+00
-3.398040e+00
-3.398040e+00
-4.167558e+00
-4.167558e+00
1.839931e-02
1.839931e-02
5.831532e-02
5.831532e-02
7.933490e-02
7.933490e-02
7.542688e-02
7.542688e-02
1.202321e-01
1.202321e-01
1.488627e-01
1.488627e-01
9.013559e-02
9.013559e-02
-5.038161e-02
-5.038161e-02
2.568308e-01
2.568308e-01
-7.253647e-02
-7.253647e-02
-1.324268e+00
-1.324268e+00
-2.441298e-01
-2.441298e-01
3.736875e-01
3.736875e-01
-3.103075e+00
-3.103075e+00
-3.131755e+00
-3.131755e+00
2.396068e+00
2.396068e+00
4.531369e+00
4.531369e+00
8.395286e-01
8.395286e-01
-3.400887e+00
-3.400887e+00
-2.247760e+00
-2.247760e+00
2.423880e-01
2.423880e-01
1.220079e-01
1.220079e-01
1.733081e-03
1.733081e-03
7.170586e-02
7.170586e-02
8.189503e-02
8.189503e-02
1.079632e-01
1.079632e-01
1.763343e-01
1.763343e-01
2.152136e-01
2.152136e-01
2.082643e-01
2.082643e-01
1.458220e-01
1.458220e-01
2.772895e-01
2.772895e-01
7.403575e-01
7.403575e-01
-1.859007e+00
-1.859007e+00
-5.263766e+00
-5.263766e+00
-4.551989e+00
-4.551989e+00
-9.704273e+00
-9.704273e+00
-1.788061e+01
-1.788061e+01
-1.218971e+01
-1.218971e+01
-5.177687e+00
-5.177687e+00
-1.000344e+01
-1.000344e+01
-1.253996e+01
-1.253996e+01
-1.022192e+01
-1.022192e+01
-3.840035e+00
-3.840035e+00
2.027466e+00
2.027466e+00
-1.271847e-02
-1.271847e-02
6.293704e-02
6.293704e-02
8.252376e-02
8.252376e-02
1.128540e-01
1.128540e-01
1.924775e-01
1.924775e-01
1.773965e-01
1.773965e-01
1.270076e-01
1.270076e-01
5.001072e-02
5.001072e-02
-1.635885e-01
-1.635885e-01
2.897198e-01
2.897198e-01
-1.539715e+00
-1.539715e+00
-1.200322e+01
-1.200322e+01
-1.651536e+01
-1.651536e+01
-6.664538e+00
-6.664538e+00
-1.240990e+01
-1.240990e+01
-1.865054e+01
-1.865054e+01
-1.806458e+01
-1.806458e+01
-1.075128e+01
-1.075128e+01
-8.366915e+00
-8.366915e+00
-1.682506e+01
-1.682506e+01
-3.338461e+00
-3.338461e+00
8.423356e+00
8.423356e+00
-1.387766e-02
-1.387766e-02
2.557929e-02
2.557929e-02
4.448437e-02
4.448437e-02
2.839444e-02
2.839444e-02
-1.687473e-03
-1.687473e-03
-1.099679e-01
-1.099679e-01
-2.896041e-01
-2.896041e-01
-4.681046e-01
-4.681046e-01
-7.760617e-01
-7.760617e-01
-3.559661e-01
-3.559661e-01
-1.062349e+00
-1.062349e+00
-1.094837e+01
-1.094837e+01
-1.676758e+01
-1.676758e+01
1.245399e+01
1.245399e+01
2.451751e+01
2.451751e+01
2.216158e+00
2.216158e+00
-7.036661e+00
-7.036661e+00
2.192041e+01
2.192041e+01
2.580953e+01
2.580953e+01
2.715539e-01
2.715539e-01
4.483114e+00
4.483114e+00
7.782226e+00
7.782226e+00
-8.598723e-02
-8.598723e-02
-8.063171e-02
-8.063171e-02
-5.382949e-02
-5.382949e-02
-9.951548e-02
-9.951548e-02
-3.033193e-01
-3.033193e-01
-5.125226e-01
-5.125226e-01
-8.044069e-01
-8.044069e-01
-1.103080e+00
-1.103080e+00
-6.628043e-01
-6.628043e-01
5.563062e-01
5.563062e-01
-1.329897e+00
-1.329897e+00
-5.954139e+00
-5.954139e+00
2.660932e+00
2.660932e+00
4.218286e+01
4.218286e+01
6.357521e+01
6.357521e+01
5.473622e+01
5.473622e+01
5.563378e+01
5.563378e+01
6.833030e+01
6.833030e+01
5.185038e+01
5.185038e+01
1.808039e+01
1.808039e+01
8.623316e+00
8.623316e+00
3.392097e+00
3.392097e+00
9.973099e-01
9.488023e-01
5.615039e-01
1.078183e-01
-3.755909e-02
-6.804174e-02
1.789623e+00
1.693001e+00
9.827758e-01
1.941460e-01
-2.737169e-02
-7.386256e-02
3.290451e+00
3.016885e+00
1.706174e+00
4.193017e-01
1.353163e-02
-1.425108e-01
4.583350e+00
4.080483e+00
2.231024e+00
6.433501e-01
5.673891e-02
-2.887896e-01
4.935538e+00
4.396347e+00
2.405069e+00
7.393791e-01
1.072013e-01
-3.113737e-01
3.865731e+00
3.566543e+00
2.061839e+00
6.498831e-01
1.577214e-01
-1.280013e-01
2.343399e+00
2.243939e+00
1.347426e+00
3.779707e-01
1.023086e-01
-9.509783e-04
1.176327e+00
1.035243e+00
5.808819e-01
1.493900e-01
-1.869520e-02
-6.856586e-02
3.661376e-01
2.436324e-01
1.182370e-01
4.493276e-02
-6.935247e-02
-1.132236e-01
-6.557604e-02
-6.588453e-02
-2.157096e-02
-1.688038e-02
-6.722118e-02
-7.763050e-02
-1.694498e-01
-1.316389e-01
-4.541846e-02
-3.120918e-02
-6.747461e-02
-6.953971e-02
9.588345e-01
8.557770e-01
4.743927e-01
1.013202e-01
-8.433208e-02
-1.752386e-01
2.113738e+00
1.795165e+00
8.849442e-01
1.160050e-01
-1.310952e-01
-2.009053e-01
4.299422e+00
3.627876e+00
1.730305e+00
1.736261e-01
-1.618067e-01
-1.665856e-01
5.752550e+00
4.981298e+00
2.484066e+00
3.597549e-01
-7.855870e-02
-1.185413e-01
5.973883e+00
5.250031e+00
2.714606e+00
5.145417e-01
2.698011e-02
-7.208921e-02
4.959258e+00
4.264874e+00
2.174368e+00
4.599388e-01
8.843077e-02
3.522817e-02
2.997014e+00
2.503923e+00
1.252436e+00
3.528884e-01
1.203772e-01
2.901787e-02
1.103068e+00
9.504847e-01
5.341073e-01
2.262905e-01
6.417199e-02
-5.392423e-02
1.514867e-01
1.599449e-01
1.508858e-01
6.828506e-02
-3.798790e-02
-7.917746e-02
-1.587340e-01
-1.269496e-01
-3.374543e-02
-2.534780e-02
-8.565275e-02
-9.293552e-02
-2.626875e-01
-2.095792e-01
-8.337874e-02
-4.671988e-02
-9.620112e-02
-1.092490e-01
5.067174e-01
5.508870e-01
2.948711e-01
-2.665778e-01
-4.391925e-01
-3.505437e-01
5.987094e-01
7.312566e-01
2.067789e-01
-7.239742e-01
-7.419234e-01
-4.861445e-01
5.148676e-01
1.129142e+00
3.437259e-02
-1.753965e+00
-1.236724e+00
-6.401886e-01
5.586596e-01
1.677321e+00
1.506659e-01
-2.391258e+00
-1.537081e+00
-7.862956e-01
5.128609e-01
1.753159e+00
2.898606e-01
-2.293805e+00
-1.476515e+00
-7.791561e-01
9.871953e-02
1.115691e+00
1.543277e-01
-1.706329e+00
-9.921780e-01
-3.957054e-01
4.790448e-01
7.878311e-01
2.389427e-01
-6.986486e-01
-4.467076e-01
-1.148500e-01
8.612677e-01
7.741217e-01
4.249912e-01
-1.034848e-02
-1.373653e-01
-9.102678e-02
3.097377e-01
3.646866e-01
2.883068e-01
6.180280e-02
-6.926166e-02
-1.051507e-01
-1.906637e-01
-8.500892e-02
5.019502e-02
-2.700999e-03
-1.164001e-01
-1.476539e-01
-2.863542e-01
-1.937631e-01
-2.391926e-02
-3.341174e-02
-1.522873e-01
-1.844176e-01
-5.087305e-01
4.962688e-02
2.635945e-02
-8.765755e-01
-9.344228e-01
-6.709601e-01
-1.889832e+00
-6.123999e-01
-6.159365e-01
-2.180791e+00
-1.801305e+00
-1.137932e+00
-4.551868e+00
-1.441859e+00
-1.443517e+00
-4.880185e+00
-3.571712e+00
-1.938236e+00
-7.810157e+00
-1.891782e+00
-8.567140e-01
-6.715199e+00
-5.088497e+00
-2.486619e+00
-8.791294e+00
-2.021001e+00
-3.162080e-01
-6.694169e+00
-5.267124e+00
-2.527619e+00
-5.786666e+00
-1.538501e+00
-9.227372e-01
-5.105364e+00
-3.755984e+00
-1.856377e+00
-2.649445e+00
-8.050421e-01
-7.342002e-01
-2.678973e+00
-1.926821e+00
-1.003457e+00
-1.728436e-02
3.725943e-01
1.681214e-01
-7.768345e-01
-8.547782e-01
-5.821177e-01
8.187120e-01
7.149390e-01
3.956615e-01
-1.030151e-01
-4.019272e-01
-4.176674e-01
3.472706e-03
1.336003e-01
1.913939e-01
-5.308153e-02
-2.677842e-01
-3.103454e-01
-1.444142e-01
-1.667733e-02
9.842227e-02
-7.328156e-02
-2.671057e-01
-3.018633e-01
1.758421e-02
7.839460e-02
2.528268e-01
-2.737632e-01
-7.562030e-01
-5.984309e-01
4.001836e-01
6.023768e-02
-1.210981e-01
-1.000414e+00
-1.546366e+00
-1.054393e+00
-1.636518e+00
1.111303e-01
3.483725e-01
-2.996847e+00
-3.237034e+00
-1.642408e+00
-1.219771e+01
-1.356548e+00
3.663670e+00
-5.012478e+00
-4.733676e+00
-1.599666e+00
-1.647083e+01
-2.327818e+00
4.998254e+00
-5.130658e+00
-4.930809e+00
-1.418985e+00
-4.415468e+00
-2.678776e-01
1.545695e+00
-3.197313e+00
-3.478819e+00
-1.351333e+00
2.178035e+00
7.046531e-01
-3.341844e-01
-1.181177e+00
-1.725650e+00
-9.885840e-01
2.555624e-01
3.677318e-01
3.836609e-01
-3.877156e-01
-8.448201e-01
-6.267883e-01
4.477615e-03
3.903880e-01
4.259748e-01
-2.688676e-01
-5.697921e-01
-5.261977e-01
-2.695778e-03
1.101552e-01
8.374675e-02
-2.497542e-01
-4.444514e-01
-4.449073e-01
-8.816758e-02
-7.702427e-03
-1.831114e-02
-2.664864e-01
-4.134914e-01
-4.033951e-01
1.145705e+00
3.965577e-01
6.553955e-01
5.776470e-01
-3.908401e-01
-2.735936e-01
3.339598e+00
9.104583e-01
6.161219e-01
8.749429e-01
-7.391508e-01
-4.772622e-01
1.552042e+00
1.125395e+00
1.898087e+00
3.307966e-01
-1.466947e+00
-4.980618e-01
-1.457953e+01
-1.457005e+00
6.604991e+00
-1.453234e+00
-2.150663e+00
1.496074e-01
-2.134557e+01
-3.211030e+00
8.184501e+00
-1.750292e+00
-2.227158e+00
4.917608e-01
-3.112949e+00
-1.905772e-01
2.958623e+00
1.334504e-01
-1.449166e+00
2.021880e-02
6.962420e+00
1.831146e+00
1.204722e-01
1.270487e+00
-6.295192e-01
-2.589404e-01
1.238420e+00
6.727919e-01
7.937289e-01
4.543499e-01
-4.018534e-01
-2.321122e-01
-9.458293e-01
4.013698e-03
4.537059e-01
-2.997367e-01
-4.676297e-01
-3.822308e-01
-1.417723e-01
-2.889329e-02
-6.898432e-02
-3.649320e-01
-4.820504e-01
-4.561910e-01
-1.042900e-01
-8.205683e-02
-1.599663e-01
-3.910026e-01
-4.724183e-01
-4.229405e-01
SCALARS MISES_STRESS float 1
LOOKUP_TABLE default
5.347795e+00
8.672555e+00
1.219333e+01
9.456392e+00
5.347795e+00
8.672555e+00
1.219333e+01
9.456392e+00
1.205551e+01
7.342233e+00
4.286661e+00
8.720790e+00
1.205551e+01
7.342233e+00
4.286661e+00
8.720790e+00
4.702807e+00
3.690662e+00
3.092971e+00
4.702807e+00
3.690662e+00
3.092971e+00
7.433944e+00
5.688126e+00
6.593068e+00
7.550199e+00
7.433944e+00
5.688126e+00
6.593068e+00
7.550199e+00
3.531445e+00
4.533716e+00
3.531445e+00
4.533716e+00
8.372998e+00
9.238087e+00
8.372998e+00
9.238087e+00
2.446634e+00
2.082283e+00
4.335094e+00
4.813084e+00
2.446634e+00
2.082283e+00
4.335094e+00
4.813084e+00
5.644870e+00
9.905505e+00
8.990559e+00
3.122013e+00
5.644870e+00
9.905505e+00
8.990559e+00
3.122013e+00
9.504919e+00
1.597696e+01
7.540517e+00
5.489647e+00
9.504919e+00
1.597696e+01
7.540517e+00
5.489647e+00
5.158847e+00
4.457703e+00
5.158847e+00
4.457703e+00
8.761294e+00
8.761294e+00
1.162487e+01
9.068283e+00
1.162487e+01
9.068283e+00
6.675890e+00
6.185489e+00
6.675890e+00
6.185489e+00
5.303939e+00
5.303939e+00
8.255317e+00
8.255317e+00
5.555737e+00
5.555737e+00
1.052018e+00
2.407503e+00
2.644176e+00
1.052018e+00
2.407503e+00
2.644176e+00
7.517916e-01
1.560517e+00
1.569761e+00
1.453519e+00
7.517916e-01
1.560517e+00
1.569761e+00
1.453519e+00
1.952189e+00
1.952189e+00
5.957238e+00
4.440156e+00
5.957238e+00
4.440156e+00
7.189115e+00
7.189115e+00
6.610758e+00
6.610758e+00
7.551868e+00
7.551868e+00
2.463829e+00
2.463829e+00
9.330147e+00
9.330147e+00
7.752451e+00
7.752451e+00
2.202713e+00
2.202713e+00
9.959968e+00
9.959968e+00
1.623941e+00
3.036630e+00
1.623941e+00
3.036630e+00
1.196105e+00
1.196105e+00
1.519795e+00
1.519795e+00
9.755746e-01
9.755746e-01
6.575020e-01
6.575020e-01
1.488401e+00
1.142885e+00
1.488401e+00
1.142885e+00
1.246874e+00
1.246874e+00
9.773006e-01
9.773006e-01
6.384456e-01
6.384456e-01
4.931829e-01
4.931829e-01
1.009627e+00
1.361231e+00
1.009627e+00
1.361231e+00
7.946973e-01
7.946973e-01
6.892045e-01
6.892045e-01
4.706498e-01
4.706498e-01
4.796717e-01
4.796717e-01
6.829856e-01
1.151141e+00
6.829856e-01
1.151141e+00
5.866937e-01
5.866937e-01
4.981379e-01
4.981379e-01
2.870314e-01
2.870314e-01
2.603496e-01
2.603496e-01
5.344457e-01
7.004983e-01
5.344457e-01
7.004983e-01
4.539582e-01
4.539582e-01
3.687158e-01
3.687158e-01
1.997867e-01
1.997867e-01
3.018480e-01
3.018480e-01
1.106483e+00
7.307557e-01
1.106483e+00
7.307557e-01
8.050173e-01
8.050173e-01
3.140706e-01
3.140706e-01
3.794958e-01
3.794958e-01
5.370877e-01
5.370877e-01
1.482806e+00
1.192380e+00
1.482806e+00
1.192380e+00
6.448372e-01
6.448372e-01
5.746436e-01
5.746436e-01
9.337866e-01
9.337866e-01
8.557783e-01
8.557783e-01
7.970685e-01
1.169966e+00
7.970685e-01
1.169966e+00
2.610840e-01
2.610840e-01
9.680253e-01
9.680253e-01
1.053286e+00
1.053286e+00
9.156885e-01
9.156885e-01
2.393331e-01
8.443161e-01
2.393331e-01
8.443161e-01
5.846105e-01
5.846105e-01
5.457491e-01
5.457491e-01
3.515103e-01
3.515103e-01
3.856625e-01
3.856625e-01
1.621649e-01
5.431233e-01
1.621649e-01
5.431233e-01
2.666567e-01
2.666567e-01
3.732769e-01
3.732769e-01
3.729061e-01
3.729061e-01
2.255320e-01
2.255320e-01
4.177094e-01
1.197748e-01
4.177094e-01
1.197748e-01
7.484635e-01
7.484635e-01
9.227496e-01
9.227496e-01
7.332312e-01
7.332312e-01
4.880595e-01
4.880595e-01
6.192882e-01
1.245986e-01
6.192882e-01
1.245986e-01
1.108257e+00
1.108257e+00
1.181884e+00
1.181884e+00
8.643952e-01
8.643952e-01
6.579157e-01
6.579157e-01
7.598282e-01
4.219188e-01
7.598282e-01
4.219188e-01
1.025360e+00
1.025360e+00
9.624370e-01
9.624370e-01
6.528261e-01
6.528261e-01
5.337948e-01
5.337948e-01
8.647972e-01
7.573283e-01
8.647972e-01
7.573283e-01
9.314818e-01
9.314818e-01
7.741045e-01
7.741045e-01
4.691900e-01
4.691900e-01
3.664056e-01
3.664056e-01
6.498028e-01
9.846519e-01
1.466611e+00
6.508885e-01
6.498028e-01
9.846519e-01
1.466611e+00
6.508885e-01
1.031267e+00
1.445392e+00
1.031267e+00
1.445392e+00
1.281700e+00
5.681041e-01
1.281700e+00
5.681041e-01
1.107024e+00
1.107024e+00
3.146661e-01
3.079902e-01
3.146661e-01
3.079902e-01
2.489412e-01
2.489412e-01
4.683592e-01
3.479573e-01
4.683592e-01
3.479573e-01
2.977293e-01
2.977293e-01
4.284834e-01
2.901595e-01
4.284834e-01
2.901595e-01
1.252662e-01
1.252662e-01
3.119958e-01
1.957727e-01
3.119958e-01
1.957727e-01
3.056866e-01
3.056866e-01
1.545838e+00
3.393714e+00
1.545838e+00
3.393714e+00
2.213157e+00
2.213157e+00
1.732571e+00
1.732571e+00
9.185191e-01
9.185191e-01
4.935898e-01
4.935898e-01
5.138731e-01
5.138731e-01
1.620416e+00
3.330382e+00
1.620416e+00
3.330382e+00
1.576121e+00
1.576121e+00
1.595861e+00
1.595861e+00
1.220968e+00
1.220968e+00
8.590105e-01
8.590105e-01
7.458643e-01
7.458643e-01
8.442688e-01
8.442688e-01
1.098544e+00
1.098544e+00
1.416961e+00
1.416961e+00
1.746011e+00
1.746011e+00
1.957164e+00
1.957164e+00
1.699963e+00
1.699963e+00
2.359390e+00
2.359390e+00
3.724310e+00
3.724310e+00
1.487872e+00
6.801330e-01
7.222018e-01
1.071878e+00
1.487872e+00
6.801330e-01
7.222018e-01
1.071878e+00
8.069045e-01
8.216295e-01
7.470647e-01
5.685107e-01
8.069045e-01
8.216295e-01
7.470647e-01
5.685107e-01
1.613052e+00
6.416922e-01
6.473247e-01
9.788933e-01
1.613052e+00
6.416922e-01
6.473247e-01
9.788933e-01
1.428331e+00
1.903064e+00
1.667638e+00
1.428331e+00
1.903064e+00
1.667638e+00
2.507848e+00
1.988567e+00
2.507848e+00
1.988567e+00
2.949013e+00
3.897300e+00
2.089793e+00
2.068588e+00
2.949013e+00
3.897300e+00
2.089793e+00
2.068588e+00
1.406754e+00
3.341866e+00
1.406754e+00
3.341866e+00
1.185949e+00
1.220010e+00
1.185949e+00
1.220010e+00
7.221686e-01
8.795377e-01
6.417513e-01
7.221686e-01
8.795377e-01
6.417513e-01
6.366406e-01
6.366406e-01
6.897730e-01
6.372255e-01
6.897730e-01
6.372255e-01
2.314045e+00
4.714797e+00
2.314045e+00
4.714797e+00
3.687059e+00
3.687059e+00
1.062744e+00
1.062744e+00
1.517437e+00
1.741776e+00
3.450157e+00
1.517437e+00
1.741776e+00
3.450157e+00
2.990657e+00
2.849183e+00
3.259276e+00
2.394073e+00
2.990657e+00
2.849183e+00
3.259276e+00
2.394073e+00
2.378853e+00
4.669995e+00
2.378853e+00
4.669995e+00
1.730180e+00
1.730180e+00
6.679204e+00
5.864003e+00
4.286951e+00
5.461359e+00
6.679204e+00
5.864003e+00
4.286951e+00
5.461359e+00
3.851536e+00
3.851536e+00
1.536817e+00
1.536817e+00
1.887438e+00
1.887438e+00
4.268447e-01
4.268447e-01
8.555913e-01
8.555913e-01
8.282672e-01
8.282672e-01
7.166348e-01
8.358516e-01
7.166348e-01
8.358516e-01
4.008115e-01
5.996905e-01
4.008115e-01
5.996905e-01
7.100181e-01
2.655390e-01
7.100181e-01
2.655390e-01
3.038361e-01
5.078878e-01
3.038361e-01
5.078878e-01
1.789856e-01
7.313333e-01
1.789856e-01
7.313333e-01
3.432772e-01
6.452472e-01
3.432772e-01
6.452472e-01
2.704761e-01
4.543324e-01
2.704761e-01
4.543324e-01
3.863334e-01
2.657431e-01
3.863334e-01
2.657431e-01
5.327719e-01
2.993968e-01
5.327719e-01
2.993968e-01
7.282809e-01
3.881199e-01
7.282809e-01
3.881199e-01
7.038913e-01
3.864395e-01
7.038913e-01
3.864395e-01
3.170106e-01
3.765110e-01
3.170106e-01
3.765110e-01
4.109908e-01
3.173013e-01
4.109908e-01
3.173013e-01
3.788492e-01
2.089053e-01
3.788492e-01
2.089053e-01
6.667243e-01
6.667243e-01
6.012217e-01
6.012217e-01
2.597437e-01
2.597437e-01
5.719682e-01
5.719682e-01
9.159244e-01
9.159244e-01
8.374809e-01
8.374809e-01
5.175635e-01
5.175635e-01
2.363027e-01
2.363027e-01
2.528944e-01
2.528944e-01
4.428030e-01
4.428030e-01
3.716815e-01
3.716815e-01
4.016983e-01
4.016983e-01
1.866317e-01
1.866317e-01
1.170240e-01
1.170240e-01
4.912600e-01
4.912600e-01
3.588735e-01
3.588735e-01
5.180465e-01
5.180465e-01
6.278876e-01
6.278876e-01
5.390600e-01
5.390600e-01
3.733381e-01
3.733381e-01
2.187106e-01
2.187106e-01
2.052686e-01
2.052686e-01
4.410074e-01
4.410074e-01
8.265484e-01
8.265484e-01
7.477712e-01
7.477712e-01
5.132054e-01
5.132054e-01
2.467441e-01
2.467441e-01
1.117005e-01
1.117005e-01
6.793790e-01
6.793790e-01
6.301980e-01
6.301980e-01
6.716078e-01
6.716078e-01
6.240888e-01
6.240888e-01
3.280553e-01
3.280553e-01
2.786736e-01
2.786736e-01
3.681475e-01
3.681475e-01
1.289080e-01
1.289080e-01
4.889988e-01
4.889988e-01
8.353185e-01
8.353185e-01
7.962296e-01
7.962296e-01
5.775745e-01
5.775745e-01
5.365617e-01
5.365617e-01
5.754652e-01
5.754652e-01
7.799675e-01
7.799675e-01
7.277843e-01
7.277843e-01
6.602349e-01
6.602349e-01
6.981025e-01
6.981025e-01
3.709205e-01
3.709205e-01
2.768563e-01
2.768563e-01
4.172058e-01
4.172058e-01
1.717087e-01
1.717087e-01
5.382330e-01
5.382330e-01
8.274292e-01
8.274292e-01
7.960779e-01
7.960779e-01
5.909061e-01
5.909061e-01
6.695939e-01
6.695939e-01
8.391118e-01
8.391118e-01
4.262170e-01
7.625411e-01
4.262170e-01
7.625411e-01
8.985677e-02
8.985677e-02
2.992674e-01
2.992674e-01
4.022470e-01
4.022470e-01
3.478830e-01
3.478830e-01
3.112945e-01
3.112945e-01
3.441457e-01
3.441457e-01
3.060628e-01
3.060628e-01
4.218447e-01
6.356966e-01
4.218447e-01
6.356966e-01
2.250443e-01
2.250443e-01
2.253966e-01
2.253966e-01
2.945539e-01
2.945539e-01
2.246831e-01
2.246831e-01
1.981580e-01
1.981580e-01
2.421324e-01
2.421324e-01
2.505567e-01
2.505567e-01
1.929144e-01
4.627042e-01
1.929144e-01
4.627042e-01
2.725452e-01
2.725452e-01
1.867362e-01
1.867362e-01
6.170319e-02
6.170319e-02
1.895653e-01
1.895653e-01
2.448560e-01
2.448560e-01
1.008132e-01
1.008132e-01
4.969774e-02
4.969774e-02
5.484022e-01
2.230806e-01
5.484022e-01
2.230806e-01
4.571321e-01
4.571321e-01
1.722108e-01
1.722108e-01
3.053809e-01
3.053809e-01
2.416651e-01
2.416651e-01
1.555720e-01
1.555720e-01
2.569940e-01
2.569940e-01
2.947881e-01
2.947881e-01
8.458020e-01
5.314523e-01
8.458020e-01
5.314523e-01
6.380897e-01
6.380897e-01
1.221020e-01
1.221020e-01
1.608277e-01
1.608277e-01
1.308969e-01
1.308969e-01
1.108828e-01
1.108828e-01
1.475494e-01
1.475494e-01
1.644630e-01
1.644630e-01
3.606065e-01
4.409349e-01
3.606065e-01
4.409349e-01
5.394700e-02
5.394700e-02
1.221297e-01
1.221297e-01
2.397134e-02
2.397134e-02
1.176096e-01
1.176096e-01
3.640023e-01
3.640023e-01
3.491048e-01
3.491048e-01
1.646863e-01
1.646863e-01
2.802562e-01
4.180933e-01
6.269888e-01
4.540104e-01
2.802562e-01
4.180933e-01
6.269888e-01
4.540104e-01
7.681463e-01
4.209211e-01
7.681463e-01
4.209211e-01
6.240755e-01
3.057440e-01
6.240755e-01
3.057440e-01
3.690997e-01
2.854201e-01
3.690997e-01
2.854201e-01
9.439432e-01
5.166784e-01
9.439432e-01
5.166784e-01
1.552324e+00
8.715540e-01
1.552324e+00
8.715540e-01
1.683183e+00
1.637150e+00
1.683183e+00
1.637150e+00
5.057300e-01
6.508308e-01
5.057300e-01
6.508308e-01
8.185441e-01
8.185441e-01
8.051036e-01
8.051036e-01
3.179268e-01
3.179268e-01
1.169228e+00
1.169228e+00
1.609607e+00
1.609607e+00
1.651317e+00
1.651317e+00
1.532836e+00
1.532836e+00
5.628273e-01
5.628273e-01
3.983446e-01
3.983446e-01
1.323705e-01
1.323705e-01
7.771300e-01
7.771300e-01
4.657922e-01
4.657922e-01
1.199554e-01
1.199554e-01
6.045557e-01
6.045557e-01
2.887032e-01
2.887032e-01
1.862978e-01
1.862978e-01
1.788484e-01
1.788484e-01
9.598168e-02
9.598168e-02
2.948409e-01
2.948409e-01
3.217466e-01
3.217466e-01
2.764032e-01
2.764032e-01
3.091308e-01
3.091308e-01
4.252149e-01
4.252149e-01
5.807244e-01
5.807244e-01
4.896979e-01
4.896979e-01
2.794319e-01
3.912303e-01
2.794319e-01
3.912303e-01
2.534364e-01
2.394931e-01
2.534364e-01
2.394931e-01
3.839677e-01
1.257956e-01
3.839677e-01
1.257956e-01
4.096510e-01
3.803509e-01
4.096510e-01
3.803509e-01
2.585371e-01
3.234859e-01
2.585371e-01
3.234859e-01
2.254463e-01
2.254463e-01
6.827943e-02
6.827943e-02
1.418476e-01
1.418476e-01
2.815884e-01
2.815884e-01
4.545600e-01
4.545600e-01
1.300898e-01
1.300898e-01
1.781828e-01
1.781828e-01
1.501724e-01
1.501724e-01
1.153393e-01
1.153393e-01
1.759850e-01
1.759850e-01
8.145623e-02
8.145623e-02
1.770400e-01
1.770400e-01
2.824370e-01
2.824370e-01
1.122946e-01
1.122946e-01
6.109986e-02
6.109986e-02
2.286751e-01
2.286751e-01
1.722486e-01
1.722486e-01
1.636585e-01
1.636585e-01
1.454064e-01
1.454064e-01
1.483890e-01
1.483890e-01
6.411457e-01
6.411457e-01
4.467366e-01
4.467366e-01
1.580537e-01
1.580537e-01
3.080160e-01
3.080160e-01
4.923153e-01
4.923153e-01
5.778272e-01
5.778272e-01
4.458983e-01
4.458983e-01
1.914123e-01
1.914123e-01
3.662910e-01
3.662910e-01
5.699112e-01
5.699112e-01
4.399295e-01
4.399295e-01
3.421689e-01
3.421689e-01
3.403648e-01
3.403648e-01
4.020112e-01
4.020112e-01
3.509821e-01
3.509821e-01
1.064998e+00
1.064998e+00
8.237810e-01
8.237810e-01
7.686775e-01
7.686775e-01
5.156787e-01
5.156787e-01
2.567162e-01
2.567162e-01
3.650868e-01
3.650868e-01
1.245502e+00
1.245502e+00
9.239798e-01
9.239798e-01
8.699328e-01
8.699328e-01
8.589543e-01
8.589543e-01
6.738873e-01
6.738873e-01
6.469777e-01
6.469777e-01
1.330631e+00
1.330631e+00
1.237431e+00
1.237431e+00
1.064723e+00
1.064723e+00
1.030924e+00
1.030924e+00
9.033520e-01
9.033520e-01
8.059485e-01
8.059485e-01
1.421024e+00
1.421024e+00
1.701470e+00
1.701470e+00
1.572135e+00
1.572135e+00
1.260241e+00
1.260241e+00
8.856319e-01
8.856319e-01
9.028697e-01
9.028697e-01
1.782096e+00
1.782096e+00
2.402037e+00
2.402037e+00
2.581738e+00
2.581738e+00
2.183597e+00
2.183597e+00
1.506827e+00
1.506827e+00
1.092565e+00
1.092565e+00
3.057204e+00
3.057204e+00
3.892050e+00
3.892050e+00
4.237871e+00
4.237871e+00
3.684279e+00
3.684279e+00
2.560553e+00
2.560553e+00
1.620837e+00
1.620837e+00
5.748733e+00
5.748733e+00
6.359847e+00
6.359847e+00
6.588609e+00
6.588609e+00
5.804501e+00
5.804501e+00
3.906397e+00
3.906397e+00
2.075020e+00
2.075020e+00
7.384607e+00
7.384607e+00
8.552910e+00
8.552910e+00
1.014076e+01
1.014076e+01
9.371498e+00
9.371498e+00
5.956201e+00
5.956201e+00
2.610524e+00
2.610524e+00
7.895760e+00
7.895760e+00
9.623592e+00
9.623592e+00
1.364926e+01
1.364926e+01
1.564432e+01
1.564432e+01
9.957225e+00
9.957225e+00
3.448538e+00
3.448538e+00
9.876984e+00
9.876984e+00
1.011871e+01
1.011871e+01
1.429545e+01
1.429545e+01
2.242207e+01
2.242207e+01
2.013351e+01
2.013351e+01
8.580663e+00
8.580663e+00
1.134458e+01
1.134458e+01
1.184113e+01
1.184113e+01
1.282026e+01
1.282026e+01
2.369601e+01
2.369601e+01
3.861974e+01
3.861974e+01
1.625793e+01
1.625793e+01
1.297010e+01
1.297010e+01
1.678275e+01
1.678275e+01
9.053431e+00
9.053431e+00
1.288581e+01
1.288581e+01
4.013559e+01
4.013559e+01
3.922763e+01
3.922763e+01
1.650475e+01
1.650475e+01
2.304301e+01
2.304301e+01
3.521743e+01
3.521743e+01
6.722494e+01
6.722494e+01
5.017952e+01
5.017952e+01
2.420874e+01
2.420874e+01
2.009368e+01
2.009368e+01
2.948041e+01
2.948041e+01
5.867191e+01
5.867191e+01
1.290834e+02
1.290834e+02
1.465829e+02
1.465829e+02
1.321277e+02
1.321277e+02
2.830207e+01
2.830207e+01
3.769487e+01
3.769487e+01
4.805123e+01
4.805123e+01
1.569363e+02
1.569363e+02
2.311973e+02
2.311973e+02
2.255027e+02
2.255027e+02
2.339860e+01
2.339860e+01
4.588814e+01
4.588814e+01
7.842721e+01
7.842721e+01
8.079515e+01
8.079515e+01
1.306210e+02
1.306210e+02
1.644180e+02
1.644180e+02
1.747677e+01
1.747677e+01
4.722179e+01
4.722179e+01
7.959849e+01
7.959849e+01
9.104923e+01
9.104923e+01
1.437828e+02
1.437828e+02
1.255381e+02
1.255381e+02
3.347572e+01
3.347572e+01
5.213812e+01
5.213812e+01
4.778676e+01
4.778676e+01
1.295904e+02
1.295904e+02
2.230097e+02
2.230097e+02
2.109246e+02
2.109246e+02
3.251918e+01
3.251918e+01
2.857133e+01
2.857133e+01
5.327847e+01
5.327847e+01
1.319845e+02
1.319845e+02
1.376658e+02
1.376658e+02
9.534299e+01
9.534299e+01
2.010346e+01
2.010346e+01
1.028835e+01
1.028835e+01
4.574507e+01
4.574507e+01
9.668093e+01
9.668093e+01
9.194155e+01
9.194155e+01
5.865764e+01
5.865764e+01
1.089649e+01
1.089649e+01
5.448397e+00
5.448397e+00
2.388004e+01
2.388004e+01
4.377383e+01
4.377383e+01
3.965245e+01
3.965245e+01
3.407231e+01
3.407231e+01
9.005345e+00
9.005345e+00
4.850455e+00
4.850455e+00
1.326874e+01
1.326874e+01
1.696908e+01
1.696908e+01
1.602397e+01
1.602397e+01
1.809162e-01
1.809162e-01
3.573574e-01
3.573574e-01
3.597691e-01
3.597691e-01
7.513100e-01
7.513100e-01
1.646806e+00
1.646806e+00
2.160596e+00
2.160596e+00
2.037611e+00
2.037611e+00
1.733808e+00
1.733808e+00
1.816704e+00
1.816704e+00
2.334015e+00
2.334015e+00
3.848543e+00
3.848543e+00
2.182233e+00
2.182233e+00
2.666929e+00
2.666929e+00
8.663218e+00
8.663218e+00
8.603083e+00
8.603083e+00
9.808366e+00
9.808366e+00
1.332000e+01
1.332000e+01
9.034217e+00
9.034217e+00
1.143025e+01
1.143025e+01
7.758843e+00
7.758843e+00
2.230763e+00
2.230763e+00
2.130019e+00
2.130019e+00
5.099182e-01
5.099182e-01
5.725449e-01
5.725449e-01
5.617328e-01
5.617328e-01
1.124923e+00
1.124923e+00
2.249591e+00
2.249591e+00
2.967096e+00
2.967096e+00
2.866714e+00
2.866714e+00
2.501931e+00
2.501931e+00
2.835558e+00
2.835558e+00
2.676225e+00
2.676225e+00
6.038275e+00
6.038275e+00
1.032437e+01
1.032437e+01
1.168152e+01
1.168152e+01
2.243733e+01
2.243733e+01
3.640341e+01
3.640341e+01
2.892096e+01
2.892096e+01
1.945127e+01
1.945127e+01
3.244675e+01
3.244675e+01
3.579602e+01
3.579602e+01
2.371192e+01
2.371192e+01
7.515075e+00
7.515075e+00
1.012727e+01
1.012727e+01
7.567034e-01
7.567034e-01
7.956025e-01
7.956025e-01
8.934179e-01
8.934179e-01
1.702820e+00
1.702820e+00
2.746640e+00
2.746640e+00
3.279868e+00
3.279868e+00
3.627639e+00
3.627639e+00
3.539631e+00
3.539631e+00
3.832709e+00
3.832709e+00
6.982324e+00
6.982324e+00
5.210525e+00
5.210525e+00
2.366809e+01
2.366809e+01
3.134398e+01
3.134398e+01
4.453539e+01
4.453539e+01
4.684804e+01
4.684804e+01
4.813911e+01
4.813911e+01
4.499647e+01
4.499647e+01
5.792922e+01
5.792922e+01
5.255226e+01
5.255226e+01
3.900485e+01
3.900485e+01
9.211718e+00
9.211718e+00
1.753686e+01
1.753686e+01
6.950957e-01
6.950957e-01
8.525916e-01
8.525916e-01
1.237344e+00
1.237344e+00
2.100430e+00
2.100430e+00
2.941844e+00
2.941844e+00
3.547354e+00
3.547354e+00
4.334056e+00
4.334056e+00
5.338738e+00
5.338738e+00
6.759631e+00
6.759631e+00
1.126378e+01
1.126378e+01
1.085163e+01
1.085163e+01
2.661106e+01
2.661106e+01
3.514122e+01
3.514122e+01
9.026272e+01
9.026272e+01
1.197637e+02
1.197637e+02
7.043896e+01
7.043896e+01
6.403887e+01
6.403887e+01
1.283190e+02
1.283190e+02
9.952441e+01
9.952441e+01
2.721432e+01
2.721432e+01
1.514428e+01
1.514428e+01
1.467399e+01
1.467399e+01
5.760845e-01
5.760845e-01
9.489079e-01
9.489079e-01
1.446065e+00
1.446065e+00
2.074031e+00
2.074031e+00
2.789676e+00
2.789676e+00
3.692791e+00
3.692791e+00
4.742198e+00
4.742198e+00
6.614666e+00
6.614666e+00
8.889945e+00
8.889945e+00
1.414038e+01
1.414038e+01
1.425285e+01
1.425285e+01
2.652336e+01
2.652336e+01
2.519952e+01
2.519952e+01
1.109971e+02
1.109971e+02
1.897136e+02
1.897136e+02
1.394246e+02
1.394246e+02
1.245450e+02
1.245450e+02
1.615779e+02
1.615779e+02
1.041981e+02
1.041981e+02
4.284268e+01
4.284268e+01
2.769665e+01
2.769665e+01
9.862596e+00
9.862596e+00
5.201415e+00
4.340596e+00
2.595072e+00
1.387158e+00
2.873165e+00
3.887589e+00
5.509575e+00
4.376140e+00
2.305736e+00
8.239115e-01
2.093465e+00
2.952367e+00
9.012892e+00
6.630019e+00
2.977266e+00
9.506006e-01
1.054489e+00
1.688899e+00
1.198002e+01
8.776462e+00
4.018649e+00
1.500064e+00
1.172840e+00
1.780631e+00
1.258471e+01
9.303803e+00
4.347483e+00
1.713739e+00
1.366853e+00
1.980389e+00
1.033174e+01
7.745456e+00
3.751375e+00
1.548886e+00
1.414297e+00
1.895267e+00
6.632552e+00
5.128155e+00
2.702986e+00
1.302863e+00
1.416989e+00
1.779230e+00
3.141003e+00
2.659105e+00
2.011941e+00
1.408109e+00
1.488512e+00
1.674606e+00
1.375720e+00
1.709381e+00
1.985954e+00
1.515250e+00
1.364324e+00
1.483457e+00
1.197489e+00
1.491751e+00
1.600759e+00
1.160606e+00
9.095749e-01
9.182739e-01
9.916544e-01
1.157091e+00
1.181441e+00
8.569258e-01
6.459648e-01
5.865902e-01
5.561664e+00
4.603267e+00
2.745705e+00
7.413391e-01
2.898678e+00
4.288075e+00
6.320828e+00
4.869304e+00
2.997129e+00
1.400362e+00
2.338890e+00
3.590820e+00
1.022841e+01
7.575194e+00
4.164746e+00
2.634917e+00
1.436929e+00
2.279609e+00
1.307626e+01
9.783698e+00
5.141668e+00
3.368405e+00
1.379284e+00
1.823756e+00
1.333908e+01
1.002826e+01
5.178751e+00
3.355112e+00
1.552518e+00
2.062133e+00
1.106064e+01
8.310723e+00
4.190970e+00
2.553079e+00
1.594722e+00
2.390289e+00
7.461935e+00
5.314503e+00
2.378242e+00
1.409932e+00
1.786525e+00
2.645538e+00
3.577859e+00
2.276484e+00
1.074414e+00
1.022387e+00
1.919122e+00
2.569609e+00
1.371850e+00
1.109977e+00
1.185847e+00
1.137492e+00
1.719621e+00
2.147602e+00
1.195172e+00
1.234926e+00
1.226513e+00
9.719010e-01
1.139491e+00
1.348277e+00
1.157467e+00
1.183738e+00
1.083001e+00
7.982011e-01
7.874877e-01
8.792902e-01
7.979225e+00
7.690346e+00
6.423796e+00
3.672444e+00
3.505571e+00
5.119668e+00
7.638884e+00
7.339567e+00
6.209326e+00
4.119555e+00
3.234172e+00
4.605516e+00
6.500213e+00
6.310957e+00
5.840413e+00
5.431367e+00
2.871505e+00
3.365278e+00
9.142277e+00
6.674149e+00
4.140374e+00
6.300952e+00
3.077510e+00
2.870930e+00
8.838832e+00
5.908970e+00
2.661157e+00
6.012251e+00
3.056134e+00
3.129637e+00
6.105410e+00
5.042658e+00
3.844068e+00
4.744642e+00
2.478391e+00
3.456017e+00
5.360957e+00
5.121357e+00
3.882108e+00
2.888572e+00
2.411904e+00
3.922308e+00
5.423381e+00
4.280042e+00
2.515282e+00
1.515649e+00
2.636455e+00
3.961575e+00
3.399736e+00
2.406075e+00
1.344628e+00
9.762128e-01
2.395341e+00
3.232216e+00
2.056150e+00
1.583077e+00
9.697325e-01
8.482510e-01
1.564501e+00
1.967724e+00
1.861506e+00
1.632387e+00
1.117822e+00
7.413752e-01
1.032640e+00
1.278288e+00
1.016344e+01
1.070294e+01
1.003733e+01
5.944812e+00
3.955343e+00
5.336742e+00
7.189232e+00
7.550768e+00
8.163385e+00
6.452908e+00
4.401750e+00
5.199158e+00
1.036499e+01
6.102307e+00
5.887542e+00
9.580165e+00
6.551034e+00
5.284666e+00
1.612389e+01
8.091617e+00
3.514697e+00
1.229224e+01
9.184412e+00
6.351186e+00
1.706306e+01
7.086062e+00
3.133228e+00
1.218284e+01
9.449913e+00
6.644525e+00
1.157296e+01
5.311753e+00
3.997820e+00
1.006484e+01
6.934012e+00
5.466530e+00
6.620547e+00
4.572237e+00
5.724543e+00
6.808726e+00
4.097723e+00
4.185460e+00
6.563665e+00
6.062274e+00
5.141881e+00
4.004314e+00
2.681133e+00
3.552640e+00
6.307003e+00
5.056945e+00
3.606415e+00
1.886039e+00
1.967639e+00
2.911101e+00
3.328796e+00
2.758737e+00
1.759632e+00
7.461247e-01
1.253976e+00
1.696411e+00
2.804130e+00
2.415040e+00
1.529713e+00
7.627034e-01
9.115621e-01
1.058568e+00
1.703192e+01
1.621413e+01
1.354713e+01
8.414488e+00
4.632755e+00
4.227597e+00
3.931659e+00
4.938157e+00
7.188214e+00
6.705067e+00
5.262643e+00
4.733420e+00
1.659773e+01
9.342617e+00
5.706407e+00
6.468119e+00
6.002203e+00
4.481034e+00
2.374506e+01
9.845322e+00
1.169896e+01
1.104843e+01
8.714507e+00
3.541153e+00
2.939478e+01
9.820727e+00
1.279261e+01
1.132956e+01
9.348449e+00
3.442685e+00
1.688076e+01
8.726967e+00
7.968190e+00
8.450188e+00
6.735047e+00
3.587741e+00
1.012077e+01
3.391146e+00
2.970261e+00
4.667217e+00
4.480555e+00
3.343648e+00
6.524977e+00
6.217792e+00
5.487589e+00
5.079424e+00
3.155579e+00
2.294769e+00
9.177072e+00
7.325065e+00
5.453195e+00
3.400900e+00
1.682134e+00
1.414277e+00
2.724164e+00
2.223366e+00
1.807013e+00
1.413189e+00
1.235142e+00
1.123711e+00
2.968713e+00
2.650719e+00
1.896640e+00
1.433068e+00
1.243540e+00
9.774100e-01
2.284112e+01
1.998806e+01
1.550330e+01
1.056493e+01
5.611467e+00
4.039304e+00
7.004391e+00
3.405253e+00
7.130716e+00
8.129199e+00
6.405022e+00
4.522535e+00
2.639280e+01
1.467296e+01
1.129649e+01
4.156131e+00
4.450906e+00
4.311304e+00
3.166591e+01
1.192097e+01
1.935760e+01
1.035165e+01
4.692883e+00
2.781757e+00
3.985169e+01
1.273464e+01
2.013208e+01
1.097544e+01
5.770909e+00
3.025691e+00
2.772302e+01
1.407052e+01
1.419727e+01
7.193225e+00
4.561116e+00
3.549908e+00
1.990377e+01
7.563935e+00
4.969610e+00
3.097523e+00
5.093500e+00
3.586174e+00
7.677928e+00
7.125908e+00
6.331723e+00
5.894839e+00
4.118940e+00
2.626964e+00
1.186752e+01
9.617950e+00
7.042162e+00
4.131694e+00
2.105315e+00
1.439136e+00
2.413811e+00
1.801723e+00
1.539252e+00
1.704734e+00
1.704405e+00
1.437103e+00
2.718645e+00
2.579675e+00
1.986724e+00
1.750420e+00
1.650222e+00
1.330433e+00
SCALARS TRIAX_STRESS float 1
LOOKUP_TABLE default
-5.708280e-03
-3.188933e-02
-3.153260e-02
-3.765113e-02
-5.708280e-03
-3.188933e-02
-3.153260e-02
-3.765113e-02
3.894930e-02
6.809369e-02
5.348058e-02
-4.735074e-02
3.894930e-02
6.809369e-02
5.348058e-02
-4.735074e-02
-6.430977e-02
-9.044154e-02
-8.603047e-02
-6.430977e-02
-9.044154e-02
-8.603047e-02
7.256596e-02
8.806954e-02
1.932312e-02
1.100507e-02
7.256596e-02
8.806954e-02
1.932312e-02
1.100507e-02
-1.569816e-02
4.658986e-02
-1.569816e-02
4.658986e-02
5.326670e-02
-1.437741e-02
5.326670e-02
-1.437741e-02
1.674032e-01
1.327349e-01
8.502781e-02
6.942514e-02
1.674032e-01
1.327349e-01
8.502781e-02
6.942514e-02
-2.530284e-02
-1.347383e-02
-1.222176e-02
4.817118e-02
-2.530284e-02
-1.347383e-02
-1.222176e-02
4.817118e-02
6.986717e-02
2.299018e-02
1.482967e-02
2.947249e-02
6.986717e-02
2.299018e-02
1.482967e-02
2.947249e-02
1.878586e-02
-3.251107e-02
1.878586e-02
-3.251107e-02
2.146918e-02
2.146918e-02
6.783877e-02
2.438966e-02
6.783877e-02
2.438966e-02
2.013116e-02
5.157676e-02
2.013116e-02
5.157676e-02
3.014663e-02
3.014663e-02
6.417143e-02
6.417143e-02
8.492478e-03
8.492478e-03
8.416826e-02
-4.956971e-02
-1.821145e-02
8.416826e-02
-4.956971e-02
-1.821145e-02
-2.127040e-02
-5.893795e-02
4.772053e-02
6.389129e-02
-2.127040e-02
-5.893795e-02
4.772053e-02
6.389129e-02
-3.839309e-02
-3.839309e-02
3.564432e-03
-7.295259e-03
3.564432e-03
-7.295259e-03
4.821355e-02
4.821355e-02
5.305122e-02
5.305122e-02
3.233322e-02
3.233322e-02
9.868123e-02
9.868123e-02
5.002065e-02
5.002065e-02
-1.984328e-03
-1.984328e-03
1.022574e-01
1.022574e-01
-3.518955e-02
-3.518955e-02
-1.726525e-01
-7.169530e-02
-1.726525e-01
-7.169530e-02
-2.618302e-01
-2.618302e-01
-2.806037e-01
-2.806037e-01
-2.183300e-01
-2.183300e-01
-1.848169e-01
-1.848169e-01
-3.094959e-01
-2.648007e-01
-3.094959e-01
-2.648007e-01
-3.839851e-01
-3.839851e-01
-1.704028e-01
-1.704028e-01
-9.365746e-02
-9.365746e-02
-2.473732e-01
-2.473732e-01
-1.893652e-01
-3.367168e-01
-1.893652e-01
-3.367168e-01
9.658736e-02
9.658736e-02
2.354119e-01
2.354119e-01
-1.876036e-01
-1.876036e-01
-4.827155e-01
-4.827155e-01
-7.773585e-03
-2.700947e-01
-7.773585e-03
-2.700947e-01
8.878086e-02
8.878086e-02
2.092446e-01
2.092446e-01
-1.992878e-01
-1.992878e-01
-7.855785e-01
-7.855785e-01
-6.381051e-02
-8.086194e-02
-6.381051e-02
-8.086194e-02
-3.651921e-01
-3.651921e-01
-3.640485e-01
-3.640485e-01
-6.393185e-02
-6.393185e-02
-5.751519e-02
-5.751519e-02
-4.938338e-01
-2.315329e-01
-4.938338e-01
-2.315329e-01
-6.186214e-01
-6.186214e-01
-4.058882e-01
-4.058882e-01
2.073382e-01
2.073382e-01
6.074734e-01
6.074734e-01
-8.491923e-01
-6.581011e-01
-8.491923e-01
-6.581011e-01
-4.885903e-01
-4.885903e-01
3.415957e-01
3.415957e-01
7.394340e-01
7.394340e-01
5.551519e-01
5.551519e-01
-4.051655e-01
-5.573565e-01
-4.051655e-01
-5.573565e-01
1.625916e-01
1.625916e-01
8.794959e-01
8.794959e-01
9.171417e-01
9.171417e-01
8.427440e-01
8.427440e-01
-3.217278e-02
-6.397986e-01
-3.217278e-02
-6.397986e-01
5.943217e-01
5.943217e-01
2.770777e-01
2.770777e-01
-3.998262e-02
-3.998262e-02
-5.232952e-02
-5.232952e-02
-1.769829e-01
-5.720982e-01
-1.769829e-01
-5.720982e-01
2.028287e-01
2.028287e-01
-4.584178e-01
-4.584178e-01
-6.350791e-01
-6.350791e-01
-3.620071e-01
-3.620071e-01
-6.787740e-03
2.611076e-01
-6.787740e-03
2.611076e-01
-5.986159e-01
-5.986159e-01
-5.697884e-01
-5.697884e-01
-4.523069e-01
-4.523069e-01
-1.126616e-01
-1.126616e-01
-3.612492e-01
3.977506e-01
-3.612492e-01
3.977506e-01
-7.134339e-01
-7.134339e-01
-6.566869e-01
-6.566869e-01
-6.787974e-01
-6.787974e-01
-5.236548e-01
-5.236548e-01
-6.170103e-01
-3.711055e-01
-6.170103e-01
-3.711055e-01
-5.997976e-01
-5.997976e-01
-5.524853e-01
-5.524853e-01
-4.789955e-01
-4.789955e-01
-3.492629e-01
-3.492629e-01
-3.292512e-01
-7.621269e-01
-3.292512e-01
-7.621269e-01
-6.282002e-01
-6.282002e-01
-4.509614e-01
-4.509614e-01
-2.686846e-01
-2.686846e-01
-2.561586e-01
-2.561586e-01
-4.255663e-01
-5.009102e-01
-7.726371e-01
-3.008563e-01
-4.255663e-01
-5.009102e-01
-7.726371e-01
-3.008563e-01
-4.783327e-01
-6.579559e-01
-4.783327e-01
-6.579559e-01
-8.374581e-01
1.412703e-01
-8.374581e-01
1.412703e-01
-6.914954e-01
-6.914954e-01
9.468959e-02
2.237502e-01
9.468959e-02
2.237502e-01
1.170884e-01
1.170884e-01
1.027864e+00
4.559362e-01
1.027864e+00
4.559362e-01
9.252472e-01
9.252472e-01
6.170293e-01
3.029758e-01
6.170293e-01
3.029758e-01
1.656854e-01
1.656854e-01
2.913536e-01
-2.696023e-02
2.913536e-01
-2.696023e-02
-3.990313e-01
-3.990313e-01
-1.521274e-01
-2.566919e-01
-1.521274e-01
-2.566919e-01
-3.216839e-01
-3.216839e-01
-3.467572e-01
-3.467572e-01
-7.339284e-02
-7.339284e-02
5.512751e-02
5.512751e-02
-1.080380e-01
-1.080380e-01
3.593499e-02
-1.158808e-01
3.593499e-02
-1.158808e-01
-2.069080e-01
-2.069080e-01
-3.742306e-01
-3.742306e-01
-3.397844e-01
-3.397844e-01
-2.468403e-01
-2.468403e-01
-2.927980e-01
-2.927980e-01
-4.089300e-01
-4.089300e-01
-6.942079e-01
-6.942079e-01
-5.820474e-01
-5.820474e-01
-4.182492e-01
-4.182492e-01
-2.946208e-01
-2.946208e-01
1.961591e-02
1.961591e-02
-1.643834e-01
-1.643834e-01
-2.752208e-01
-2.752208e-01
-3.275235e-02
1.444023e-02
6.007116e-02
2.171839e-01
-3.275235e-02
1.444023e-02
6.007116e-02
2.171839e-01
1.540754e-01
1.975662e-03
-1.615816e-01
-1.666667e-01
1.540754e-01
1.975662e-03
-1.615816e-01
-1.666667e-01
2.028261e-01
3.041144e-01
4.557736e-01
3.042480e-01
2.028261e-01
3.041144e-01
4.557736e-01
3.042480e-01
2.471650e-02
4.036307e-03
5.283898e-02
2.471650e-02
4.036307e-03
5.283898e-02
-4.399546e-02
-1.501521e-02
-4.399546e-02
-1.501521e-02
-1.397796e-01
3.225922e-02
6.977644e-02
-5.069719e-02
-1.397796e-01
3.225922e-02
6.977644e-02
-5.069719e-02
-3.809330e-02
4.868557e-02
-3.809330e-02
4.868557e-02
1.185209e-01
2.064452e-01
1.185209e-01
2.064452e-01
-1.342072e-01
-1.791163e-01
5.140477e-02
-1.342072e-01
-1.791163e-01
5.140477e-02
-4.564885e-01
-4.564885e-01
-2.920925e-01
-3.213297e-01
-2.920925e-01
-3.213297e-01
4.761518e-02
3.140414e-03
4.761518e-02
3.140414e-03
1.217561e-01
1.217561e-01
-6.753181e-02
-6.753181e-02
1.068731e-02
5.412420e-02
-9.024247e-02
1.068731e-02
5.412420e-02
-9.024247e-02
1.106787e-01
2.024594e-01
2.978889e-01
1.835774e-01
1.106787e-01
2.024594e-01
2.978889e-01
1.835774e-01
-8.573223e-02
7.257120e-02
-8.573223e-02
7.257120e-02
-5.885325e-02
-5.885325e-02
-1.408581e-02
-7.583727e-02
2.541012e-02
-2.517355e-02
-1.408581e-02
-7.583727e-02
2.541012e-02
-2.517355e-02
1.503772e-01
1.503772e-01
6.076258e-02
6.076258e-02
-1.556584e-02
-1.556584e-02
5.754079e-02
5.754079e-02
-7.214778e-02
-7.214778e-02
1.598524e-02
1.598524e-02
-1.942045e-01
4.740136e-01
-1.942045e-01
4.740136e-01
-1.365666e-01
2.710080e-01
-1.365666e-01
2.710080e-01
-3.527872e-01
2.052870e-01
-3.527872e-01
2.052870e-01
-2.849428e-01
-2.229996e-02
-2.849428e-01
-2.229996e-02
2.042822e-01
-5.550344e-01
2.042822e-01
-5.550344e-01
2.413221e-01
-5.388417e-01
2.413221e-01
-5.388417e-01
2.342354e-01
-5.124064e-01
2.342354e-01
-5.124064e-01
3.192199e-01
-2.920613e-01
3.192199e-01
-2.920613e-01
5.964101e-01
3.282041e-01
5.964101e-01
3.282041e-01
6.353099e-01
4.809036e-01
6.353099e-01
4.809036e-01
6.280532e-01
4.744024e-01
6.280532e-01
4.744024e-01
-7.660875e-02
-1.476668e-01
-7.660875e-02
-1.476668e-01
-7.126791e-01
-6.827636e-01
-7.126791e-01
-6.827636e-01
-6.111748e-01
-4.193068e-01
-6.111748e-01
-4.193068e-01
2.819244e-01
2.819244e-01
1.197726e-01
1.197726e-01
9.007568e-02
9.007568e-02
-2.260814e-01
-2.260814e-01
-7.833832e-01
-7.833832e-01
-6.726383e-01
-6.726383e-01
-4.836891e-01
-4.836891e-01
-5.372571e-03
-5.372571e-03
1.441731e-01
1.441731e-01
-3.254239e-01
-3.254239e-01
-2.451044e-01
-2.451044e-01
-2.537010e-01
-2.537010e-01
8.379280e-02
8.379280e-02
5.502016e-01
5.502016e-01
-2.069140e-01
-2.069140e-01
-1.308866e-01
-1.308866e-01
-5.256266e-01
-5.256266e-01
-6.762156e-01
-6.762156e-01
-2.985540e-01
-2.985540e-01
-3.121197e-01
-3.121197e-01
8.697077e-02
8.697077e-02
5.359635e-01
5.359635e-01
-1.537162e-01
-1.537162e-01
-7.493690e-01
-7.493690e-01
-7.027472e-01
-7.027472e-01
-6.654683e-01
-6.654683e-01
-1.025678e-01
-1.025678e-01
3.427201e-01
3.427201e-01
-4.901935e-01
-4.901935e-01
-3.868555e-01
-3.868555e-01
-4.212572e-01
-4.212572e-01
-5.192688e-01
-5.192688e-01
-1.431511e-01
-1.431511e-01
4.447840e-02
4.447840e-02
4.003538e-01
4.003538e-01
2.782913e-01
2.782913e-01
-4.320891e-01
-4.320891e-01
-5.116600e-01
-5.116600e-01
-6.101883e-01
-6.101883e-01
-4.782166e-01
-4.782166e-01
-4.648620e-01
-4.648620e-01
-5.886255e-01
-5.886255e-01
-4.660791e-01
-4.660791e-01
-2.927018e-01
-2.927018e-01
-4.351349e-01
-4.351349e-01
-6.373075e-01
-6.373075e-01
-2.634947e-01
-2.634947e-01
1.626299e-01
1.626299e-01
2.739488e-01
2.739488e-01
5.137983e-02
5.137983e-02
-1.011067e-01
-1.011067e-01
-3.539640e-01
-3.539640e-01
-5.912033e-01
-5.912033e-01
-3.790795e-01
-3.790795e-01
-2.779242e-01
-2.779242e-01
-5.610467e-01
-5.610467e-01
-5.558870e-01
-4.536929e-01
-5.558870e-01
-4.536929e-01
2.445489e-02
2.445489e-02
5.725004e-01
5.725004e-01
5.501014e-01
5.501014e-01
1.074774e+00
1.074774e+00
1.077890e+00
1.077890e+00
4.407886e-01
4.407886e-01
1.248676e-01
1.248676e-01
-9.013577e-01
-4.456552e-01
-9.013577e-01
-4.456552e-01
-3.467288e-01
-3.467288e-01
7.606619e-01
7.606619e-01
6.086834e-01
6.086834e-01
5.064624e-01
5.064624e-01
7.536488e-01
7.536488e-01
5.651813e-01
5.651813e-01
1.231352e-01
1.231352e-01
-2.678703e-01
-4.387128e-01
-2.678703e-01
-4.387128e-01
-3.912063e-01
-3.912063e-01
1.943735e-01
1.943735e-01
2.015697e-01
2.015697e-01
-4.048383e-01
-4.048383e-01
-1.417694e-01
-1.417694e-01
3.691292e-02
3.691292e-02
-2.476799e-01
-2.476799e-01
4.881221e-01
2.508694e-01
4.881221e-01
2.508694e-01
5.702056e-01
5.702056e-01
4.763021e-02
4.763021e-02
-8.476901e-01
-8.476901e-01
-4.346173e-01
-4.346173e-01
-3.024669e-02
-3.024669e-02
-3.976859e-01
-3.976859e-01
-4.894263e-01
-4.894263e-01
6.853124e-01
5.747922e-01
6.853124e-01
5.747922e-01
8.812866e-01
8.812866e-01
2.487893e-01
2.487893e-01
-4.254899e-01
-4.254899e-01
2.125583e-01
2.125583e-01
1.269922e-01
1.269922e-01
-2.994962e-01
-2.994962e-01
-1.652039e-01
-1.652039e-01
5.760652e-01
4.723170e-01
5.760652e-01
4.723170e-01
-1.170637e-01
-1.170637e-01
-7.738576e-02
-7.738576e-02
2.464329e-01
2.464329e-01
5.761003e-01
5.761003e-01
5.489987e-01
5.489987e-01
4.421590e-01
4.421590e-01
5.169188e-01
5.169188e-01
6.099048e-01
3.839728e-01
5.930324e-01
5.518277e-01
6.099048e-01
3.839728e-01
5.930324e-01
5.518277e-01
6.374393e-01
5.416086e-01
6.374393e-01
5.416086e-01
6.320465e-01
1.363359e-01
6.320465e-01
1.363359e-01
-8.645031e-03
-4.753551e-01
-8.645031e-03
-4.753551e-01
-5.189598e-01
-2.787600e-01
-5.189598e-01
-2.787600e-01
-4.795409e-01
-2.569576e-01
-4.795409e-01
-2.569576e-01
-2.795180e-01
-2.962346e-01
-2.795180e-01
-2.962346e-01
2.650339e-01
6.341145e-01
2.650339e-01
6.341145e-01
5.927917e-01
5.927917e-01
6.638530e-01
6.638530e-01
1.940156e-01
1.940156e-01
-3.873984e-01
-3.873984e-01
-6.910087e-01
-6.910087e-01
-5.654433e-01
-5.654433e-01
-3.557164e-01
-3.557164e-01
3.594680e-01
3.594680e-01
3.600836e-01
3.600836e-01
3.323353e-01
3.323353e-01
7.949230e-01
7.949230e-01
4.958632e-01
4.958632e-01
-2.578619e-02
-2.578619e-02
7.057750e-01
7.057750e-01
3.675271e-01
3.675271e-01
-1.944215e-01
-1.944215e-01
1.031589e-01
1.031589e-01
6.928308e-02
6.928308e-02
-5.584060e-02
-5.584060e-02
-5.400251e-01
-5.400251e-01
-4.613380e-01
-4.613380e-01
-3.385769e-01
-3.385769e-01
-5.045833e-01
-5.045833e-01
-7.081349e-01
-7.081349e-01
-6.187149e-01
-6.187149e-01
9.288504e-03
7.331763e-01
9.288504e-03
7.331763e-01
-1.005171e-01
3.698674e-01
-1.005171e-01
3.698674e-01
-3.437971e-01
-5.573893e-01
-3.437971e-01
-5.573893e-01
-5.193871e-01
-7.396245e-01
-5.193871e-01
-7.396245e-01
7.849213e-02
-1.376544e-01
7.849213e-02
-1.376544e-01
2.982919e-01
2.982919e-01
-4.853429e-01
-4.853429e-01
-3.202159e-01
-3.202159e-01
1.735536e-02
1.735536e-02
-7.154297e-01
-7.154297e-01
-4.202346e-02
-4.202346e-02
-3.704378e-01
-3.704378e-01
5.654433e-01
5.654433e-01
4.986669e-01
4.986669e-01
-4.147631e-01
-4.147631e-01
3.766689e-02
3.766689e-02
2.669772e-01
2.669772e-01
4.626233e-01
4.626233e-01
-2.486402e-01
-2.486402e-01
-2.959304e-01
-2.959304e-01
-1.119468e-01
-1.119468e-01
1.158615e-01
1.158615e-01
2.363483e-01
2.363483e-01
-8.641772e-02
-8.641772e-02
-7.932985e-02
-7.932985e-02
-5.322414e-01
-5.322414e-01
-3.650835e-01
-3.650835e-01
2.124771e-02
2.124771e-02
4.429367e-01
4.429367e-01
6.500581e-01
6.500581e-01
-3.969965e-01
-3.969965e-01
-2.928731e-01
-2.928731e-01
-1.729608e-01
-1.729608e-01
2.640608e-01
2.640608e-01
6.821881e-01
6.821881e-01
1.759602e-02
1.759602e-02
-2.107671e-01
-2.107671e-01
-1.440757e-01
-1.440757e-01
1.782475e-01
1.782475e-01
4.433041e-01
4.433041e-01
-5.558996e-01
-5.558996e-01
-4.802227e-01
-4.802227e-01
-7.167277e-01
-7.167277e-01
-4.189040e-01
-4.189040e-01
2.692389e-01
2.692389e-01
-9.017655e-02
-9.017655e-02
-3.111148e-01
-3.111148e-01
-1.628836e-01
-1.628836e-01
-3.958930e-01
-3.958930e-01
-6.149767e-01
-6.149767e-01
-3.230528e-01
-3.230528e-01
-2.888617e-01
-2.888617e-01
-2.206959e-01
-2.206959e-01
-8.979205e-02
-8.979205e-02
-2.749432e-01
-2.749432e-01
-5.402953e-01
-5.402953e-01
-6.409134e-01
-6.409134e-01
-5.272092e-01
-5.272092e-01
-1.777631e-01
-1.777631e-01
-1.457682e-01
-1.457682e-01
-7.435220e-02
-7.435220e-02
-1.276274e-01
-1.276274e-01
-1.013443e-01
-1.013443e-01
-1.541603e-01
-1.541603e-01
-4.721840e-02
-4.721840e-02
-2.412273e-02
-2.412273e-02
1.393627e-01
1.393627e-01
3.301787e-01
3.301787e-01
2.987529e-01
2.987529e-01
3.192399e-02
3.192399e-02
-1.433424e-02
-1.433424e-02
5.305162e-02
5.305162e-02
1.704119e-01
1.704119e-01
2.551632e-01
2.551632e-01
2.564891e-01
2.564891e-01
2.706401e-02
2.706401e-02
6.056928e-02
6.056928e-02
9.682964e-02
9.682964e-02
1.603436e-01
1.603436e-01
2.269793e-01
2.269793e-01
2.378508e-01
2.378508e-01
5.559329e-02
5.559329e-02
6.482951e-02
6.482951e-02
1.282300e-01
1.282300e-01
1.347491e-01
1.347491e-01
1.501200e-01
1.501200e-01
1.186155e-01
1.186155e-01
-3.175080e-02
-3.175080e-02
1.410544e-01
1.410544e-01
1.654870e-01
1.654870e-01
1.337171e-01
1.337171e-01
1.041299e-01
1.041299e-01
3.480918e-02
3.480918e-02
-3.042710e-02
-3.042710e-02
1.797168e-01
1.797168e-01
1.975690e-01
1.975690e-01
1.495566e-01
1.495566e-01
9.061729e-02
9.061729e-02
6.637230e-02
6.637230e-02
3.455857e-02
3.455857e-02
1.619965e-01
1.619965e-01
1.596524e-01
1.596524e-01
1.571180e-01
1.571180e-01
1.038590e-01
1.038590e-01
7.452211e-02
7.452211e-02
5.812265e-02
5.812265e-02
1.016492e-01
1.016492e-01
9.412455e-02
9.412455e-02
1.129163e-01
1.129163e-01
9.873792e-02
9.873792e-02
5.335637e-02
5.335637e-02
5.774290e-02
5.774290e-02
6.624852e-02
6.624852e-02
1.070237e-01
1.070237e-01
1.557763e-01
1.557763e-01
1.210971e-01
1.210971e-01
2.093502e-02
2.093502e-02
4.428086e-02
4.428086e-02
6.932129e-02
6.932129e-02
1.440449e-01
1.440449e-01
3.606892e-01
3.606892e-01
2.734926e-01
2.734926e-01
2.187605e-04
2.187605e-04
1.749963e-03
1.749963e-03
4.323852e-02
4.323852e-02
1.546655e-01
1.546655e-01
3.404972e-01
3.404972e-01
2.240966e-01
2.240966e-01
3.249338e-02
3.249338e-02
2.875251e-03
2.875251e-03
2.878080e-02
2.878080e-02
7.759081e-02
7.759081e-02
6.967735e-02
6.967735e-02
1.925152e-02
1.925152e-02
3.473143e-02
3.473143e-02
8.541329e-03
8.541329e-03
-4.006929e-02
-4.006929e-02
-6.847125e-02
-6.847125e-02
-5.098443e-02
-5.098443e-02
-7.344806e-04
-7.344806e-04
1.884289e-02
1.884289e-02
4.663838e-02
4.663838e-02
-1.188578e-01
-1.188578e-01
-1.648692e-03
-1.648692e-03
3.959609e-01
3.959609e-01
3.313623e-01
3.313623e-01
1.561631e-02
1.561631e-02
4.195759e-02
4.195759e-02
-6.564032e-02
-6.564032e-02
1.501085e-01
1.501085e-01
5.220632e-01
5.220632e-01
3.497913e-01
3.497913e-01
-3.182758e-03
-3.182758e-03
2.423027e-02
2.423027e-02
1.442269e-02
1.442269e-02
2.156519e-01
2.156519e-01
2.408779e-01
2.408779e-01
3.885364e-02
3.885364e-02
4.498009e-04
4.498009e-04
5.778328e-02
5.778328e-02
2.740781e-02
2.740781e-02
1.471347e-01
1.471347e-01
1.346700e-01
1.346700e-01
1.360515e-02
1.360515e-02
2.892647e-02
2.892647e-02
6.195731e-02
6.195731e-02
1.066138e-02
1.066138e-02
3.552510e-02
3.552510e-02
-2.232961e-02
-2.232961e-02
7.666053e-03
7.666053e-03
6.310465e-02
6.310465e-02
-5.205866e-01
-5.205866e-01
-3.582514e-01
-3.582514e-01
-1.252686e-01
-1.252686e-01
-2.971065e-01
-2.971065e-01
-6.465283e-01
-6.465283e-01
-5.087153e-01
-5.087153e-01
-3.517910e-01
-3.517910e-01
-2.468879e-01
-2.468879e-01
-1.955859e-01
-1.955859e-01
-2.757522e-02
-2.757522e-02
3.058965e-02
3.058965e-02
-5.415777e-02
-5.415777e-02
7.453697e-02
7.453697e-02
1.770794e-01
1.770794e-01
1.868486e-02
1.868486e-02
-1.162555e-01
-1.162555e-01
-1.311087e-01
-1.311087e-01
-4.372502e-02
-4.372502e-02
2.651326e-02
2.651326e-02
2.215667e-03
2.215667e-03
-5.536076e-02
-5.536076e-02
-8.424031e-02
-8.424031e-02
-8.613495e-01
-8.613495e-01
-3.896239e-01
-3.896239e-01
-2.534897e-01
-2.534897e-01
-5.020577e-01
-5.020577e-01
-6.961647e-01
-6.961647e-01
-5.890839e-01
-5.890839e-01
-4.674822e-01
-4.674822e-01
-3.441767e-01
-3.441767e-01
-2.683938e-01
-2.683938e-01
-1.212985e-01
-1.212985e-01
1.239001e-02
1.239001e-02
-3.619457e-02
-3.619457e-02
-4.758512e-02
-4.758512e-02
4.811168e-02
4.811168e-02
3.213853e-02
3.213853e-02
-4.962087e-02
-4.962087e-02
-8.801755e-02
-8.801755e-02
-5.107651e-02
-5.107651e-02
-1.073526e-02
-1.073526e-02
-3.765797e-02
-3.765797e-02
-5.033733e-02
-5.033733e-02
-2.915966e-02
-2.915966e-02
-7.181957e-01
-7.181957e-01
-5.658257e-01
-5.658257e-01
-4.645736e-01
-4.645736e-01
-6.017799e-01
-6.017799e-01
-6.162251e-01
-6.162251e-01
-5.599889e-01
-5.599889e-01
-4.887837e-01
-4.887837e-01
-3.891284e-01
-3.891284e-01
-2.527114e-01
-2.527114e-01
-1.744058e-01
-1.744058e-01
-8.065747e-02
-8.065747e-02
-3.226004e-02
-3.226004e-02
-2.852839e-02
-2.852839e-02
3.173330e-02
3.173330e-02
1.524801e-01
1.524801e-01
1.226951e-01
1.226951e-01
1.289516e-01
1.289516e-01
1.533458e-01
1.533458e-01
3.827735e-02
3.827735e-02
-1.868012e-02
-1.868012e-02
-3.281211e-02
-3.281211e-02
-9.724195e-03
-9.724195e-03
-3.649418e-01
-3.649418e-01
-3.487765e-01
-3.487765e-01
-4.395911e-01
-4.395911e-01
-6.136585e-01
-6.136585e-01
-5.588365e-01
-5.588365e-01
-4.896005e-01
-4.896005e-01
-4.274030e-01
-4.274030e-01
-2.987471e-01
-2.987471e-01
-1.846588e-01
-1.846588e-01
-1.197919e-01
-1.197919e-01
-6.170619e-02
-6.170619e-02
2.081246e-02
2.081246e-02
8.711833e-02
8.711833e-02
9.517151e-02
9.517151e-02
1.456190e-01
1.456190e-01
1.063963e-01
1.063963e-01
1.420009e-01
1.420009e-01
1.672653e-01
1.672653e-01
7.387994e-02
7.387994e-02
1.112577e-01
1.112577e-01
7.785946e-02
7.785946e-02
2.861686e-02
2.861686e-02
-3.306517e-01
-3.306517e-01
-3.120479e-01
-3.120479e-01
-3.020942e-01
-3.020942e-01
-3.915202e-01
-3.915202e-01
-3.697373e-01
-3.697373e-01
-3.347911e-01
-3.347911e-01
-2.293916e-01
-2.293916e-01
-1.713833e-01
-1.713833e-01
-1.248691e-01
-1.248691e-01
-3.371031e-02
-3.371031e-02
-4.623847e-03
-4.623847e-03
5.497554e-02
5.497554e-02
1.432092e-01
1.432092e-01
9.468979e-02
9.468979e-02
1.186648e-02
1.186648e-02
-6.704088e-03
-6.704088e-03
4.428943e-02
4.428943e-02
5.746749e-02
5.746749e-02
7.836186e-02
7.836186e-02
1.519862e-01
1.519862e-01
1.306380e-01
1.306380e-01
6.789509e-02
6.789509e-02
-2.875018e-02
-3.063466e-02
-7.710240e-03
3.950279e-02
3.345237e-02
4.997822e-03
-3.736714e-02
-1.547851e-02
2.457719e-02
6.497843e-02
4.484399e-02
2.475380e-03
-3.635479e-02
3.925177e-03
4.663882e-02
1.134007e-01
1.017122e-01
2.569552e-02
-2.633977e-02
8.334847e-03
3.718453e-02
1.372218e-01
1.300093e-01
1.693449e-02
-2.441720e-02
6.509196e-03
2.929503e-02
1.008095e-01
9.543959e-02
1.041466e-02
-3.228737e-02
-2.205956e-03
1.635709e-03
1.888442e-02
4.687134e-02
3.136981e-02
-2.598548e-02
-2.521530e-03
-3.901779e-02
-5.273755e-02
-3.205578e-03
8.593042e-05
-2.619501e-02
-1.799828e-02
-4.473867e-02
-3.592400e-02
-2.424521e-03
-1.267685e-02
-2.424988e-02
-2.487971e-02
-2.163650e-02
-1.006019e-02
8.941671e-03
2.024028e-02
-4.264911e-03
-8.930345e-03
-9.275326e-03
-1.122112e-02
6.509033e-04
1.878918e-02
-2.143541e-03
-7.988077e-03
-4.082007e-03
5.551339e-03
6.737475e-04
-4.086583e-03
-3.379480e-02
-2.862170e-02
-1.101289e-02
5.502093e-02
6.472035e-02
2.082167e-02
-1.185324e-02
-3.299202e-03
1.409887e-02
5.246188e-02
5.079997e-02
1.961907e-02
-1.838648e-03
8.589039e-03
2.933293e-02
5.244303e-02
4.143550e-02
1.763408e-02
-1.260235e-02
-5.598157e-03
1.707456e-02
5.815806e-02
4.570167e-02
7.830298e-03
-1.277270e-02
-8.916951e-03
1.060919e-02
4.172388e-02
3.445304e-02
1.173789e-02
-1.247833e-02
-8.171823e-03
4.948284e-04
6.106656e-03
1.323577e-02
1.911321e-02
-1.035955e-03
6.372897e-03
-1.540934e-02
-2.393859e-02
2.051269e-03
7.379287e-03
-3.079026e-02
-1.651919e-02
-9.569393e-03
1.932212e-04
1.439014e-02
1.150316e-02
-3.200228e-02
-1.853759e-02
1.006770e-02
2.163032e-02
1.855267e-02
1.905299e-02
3.311464e-03
1.313183e-03
-1.812807e-03
-2.040412e-03
3.899064e-03
8.938437e-03
2.685261e-04
-1.094346e-02
-1.761598e-02
-8.979401e-03
-1.652051e-03
1.578189e-03
-3.125564e-02
-2.208194e-02
-2.682395e-03
3.601337e-02
4.445122e-02
2.441916e-02
-1.299120e-02
-1.124090e-02
-8.967791e-04
1.740094e-02
2.310069e-02
1.909654e-02
3.539350e-03
-1.505638e-03
-4.216556e-04
-1.193381e-02
-1.114010e-02
7.294722e-03
-9.279115e-03
4.899711e-03
1.591993e-02
-1.386437e-02
-2.059947e-02
-7.088736e-04
-2.321487e-02
-2.342999e-03
1.851000e-02
-8.322473e-03
-1.574437e-02
3.647344e-03
-2.692772e-02
-1.830389e-02
-5.958364e-03
-1.438227e-02
-7.862276e-03
1.080331e-02
-3.217328e-02
-2.556444e-02
-1.203693e-02
-1.469477e-02
-7.496107e-03
9.279073e-03
-4.244492e-02
-3.070430e-02
1.842242e-03
8.804441e-03
6.041391e-03
1.712206e-02
-3.072739e-02
-1.714148e-02
1.686015e-02
3.115550e-02
1.956028e-02
1.408542e-02
-4.962288e-03
-1.788091e-03
8.687854e-03
1.044989e-02
3.661278e-03
2.412375e-03
3.197506e-03
9.161086e-04
-3.950970e-03
-1.160501e-02
-6.127401e-03
4.418566e-03
-2.186025e-02
-1.319568e-02
1.287929e-02
1.360762e-02
4.933201e-04
4.061100e-03
-2.494311e-02
-1.935378e-02
-5.232413e-03
-3.625221e-03
-3.776794e-03
2.996469e-03
-1.916370e-02
-1.778170e-02
-1.893889e-02
-1.928758e-02
-1.750655e-03
1.359576e-02
-1.369465e-02
2.176035e-03
3.250258e-03
-1.361366e-02
6.296174e-03
2.827345e-02
-2.895591e-02
-1.427484e-02
-5.582301e-03
-1.328664e-02
8.926821e-03
3.285609e-02
-2.258321e-02
-3.580166e-02
-3.759546e-02
-2.018659e-02
5.181823e-03
2.456604e-02
-3.561475e-02
-3.963118e-02
-3.460735e-02
-2.535520e-02
-7.790430e-03
9.562450e-03
-3.040051e-02
-2.665614e-02
-1.674163e-02
-1.845741e-02
-1.133544e-02
3.672449e-03
-1.525333e-02
-1.184270e-02
-8.244806e-03
-7.961636e-03
-3.445255e-03
9.752111e-04
-1.299240e-02
-4.149186e-03
9.248985e-03
-2.665384e-03
-1.324574e-02
-7.356761e-03
1.060788e-02
1.268706e-02
2.772689e-02
1.077955e-03
-2.613423e-02
-1.373682e-02
-1.280226e-02
-5.627511e-03
2.289954e-02
3.902160e-02
4.618699e-03
-2.455397e-02
2.185963e-02
-2.238853e-03
-3.403680e-03
2.781496e-02
1.897130e-02
1.842646e-03
2.925639e-02
-1.023275e-02
-3.692509e-02
-1.444648e-02
3.448075e-02
7.372617e-02
-5.205953e-03
-1.867512e-02
-5.344593e-02
-5.079669e-02
6.420286e-02
1.552515e-01
-1.757382e-02
-2.851980e-02
-6.922015e-02
-5.578400e-02
8.207734e-02
1.767481e-01
6.833385e-02
-6.335815e-03
-6.218910e-02
-2.710038e-02
4.463993e-02
1.001079e-01
9.283480e-02
1.338808e-02
-2.565492e-02
1.708968e-02
2.370854e-02
2.798650e-02
1.789223e-02
3.038611e-03
5.983248e-03
1.490094e-02
1.261282e-02
1.920527e-02
1.213408e-02
2.597067e-02
2.049022e-02
-2.194739e-03
5.898519e-04
6.742366e-03
8.632765e-03
2.304057e-02
1.931899e-02
-3.430186e-03
-5.762319e-03
-3.474655e-03
2.524399e-03
2.073889e-03
1.224741e-02
-5.573244e-03
-1.700248e-02
1.297104e-05
-5.555866e-03
-2.418811e-03
2.899125e-02
5.231566e-02
1.164861e-03
-4.503734e-02
5.396243e-02
2.867935e-03
-1.756632e-03
5.773692e-02
3.494160e-02
-8.773385e-04
7.124138e-02
-1.166279e-03
-4.884276e-02
-5.670764e-03
6.902384e-02
1.252776e-01
-2.715897e-03
-1.237172e-02
-7.851710e-02
-8.118911e-02
1.132203e-01
2.538123e-01
-2.253735e-02
-8.832816e-03
-8.217905e-02
-8.427794e-02
1.413458e-01
2.820177e-01
1.206480e-01
3.646161e-02
-6.045795e-02
-3.592101e-02
8.359146e-02
1.658338e-01
1.686390e-01
3.964232e-02
-1.436810e-02
5.063986e-02
4.069761e-02
4.073361e-02
4.708114e-02
1.302100e-02
2.353436e-02
4.801513e-02
2.877450e-02
2.962659e-02
3.307475e-02
5.353926e-02
4.941845e-02
2.052397e-02
1.902712e-02
2.183943e-02
2.243791e-02
3.924661e-02
3.186601e-02
1.222988e-02
1.514217e-02
1.350126e-02
-1.245255e-02
-5.495285e-03
-7.710950e-03
-1.300228e-02
9.986538e-03
2.909375e-02
